# vtk DataFile Version 4.2
RVE MODEL_3D
ASCII
DATASET UNSTRUCTURED_GRID
POINTS 8107 float
         0          0          0  
        20          0          0  
        20         20          0  
         0         20          0  
        15         10          0  
         5         10          0  
        10         15          0  
        10          5          0  
         0          0         20  
        20          0         20  
        20         20         20  
         0         20         20  
        15         10         20  
        10          5         20  
         5         10         20  
        10         15         20  
       2.5          0          0  
         5          0          0  
       7.5          0          0  
        10          0          0  
      12.5          0          0  
        15          0          0  
      17.5          0          0  
      1.25          0          0  
      3.75          0          0  
      6.25          0          0  
      8.75          0          0  
     11.25          0          0  
     13.75          0          0  
     16.25          0          0  
     18.75          0          0  
        20        2.5          0  
        20          5          0  
        20        7.5          0  
        20         10          0  
        20       12.5          0  
        20         15          0  
        20       17.5          0  
        20       1.25          0  
        20       3.75          0  
        20       6.25          0  
        20       8.75          0  
        20      11.25          0  
        20      13.75          0  
        20      16.25          0  
        20      18.75          0  
      17.5         20          0  
        15         20          0  
      12.5         20          0  
        10         20          0  
       7.5         20          0  
         5         20          0  
       2.5         20          0  
     18.75         20          0  
     16.25         20          0  
     13.75         20          0  
     11.25         20          0  
      8.75         20          0  
      6.25         20          0  
      3.75         20          0  
      1.25         20          0  
         0       17.5          0  
         0         15          0  
         0       12.5          0  
         0         10          0  
         0        7.5          0  
         0          5          0  
         0        2.5          0  
         0      18.75          0  
         0      16.25          0  
         0      13.75          0  
         0      11.25          0  
         0       8.75          0  
         0       6.25          0  
         0       3.75          0  
         0       1.25          0  
   14.8296    11.2941          0  
   14.3301       12.5          0  
   13.5355    13.5355          0  
      12.5    14.3301          0  
   11.2941    14.8296          0  
   14.9572    10.6526          0  
   14.6194    11.9134          0  
   13.9668    13.0438          0  
   13.0438    13.9668          0  
   11.9134    14.6194          0  
   10.6526    14.9572          0  
    8.7059    14.8296          0  
       7.5    14.3301          0  
   6.46447    13.5355          0  
   5.66987       12.5          0  
   5.17037    11.2941          0  
   9.34737    14.9572          0  
   8.08658    14.6194          0  
   6.95619    13.9668          0  
   6.03323    13.0438          0  
    5.3806    11.9134          0  
   5.04278    10.6526          0  
   5.17037     8.7059          0  
   5.66987        7.5          0  
   6.46447    6.46447          0  
       7.5    5.66987          0  
    8.7059    5.17037          0  
   5.04278    9.34737          0  
    5.3806    8.08658          0  
   6.03323    6.95619          0  
   6.95619    6.03323          0  
   8.08658     5.3806          0  
   9.34737    5.04278          0  
   11.2941    5.17037          0  
      12.5    5.66987          0  
   13.5355    6.46447          0  
   14.3301        7.5          0  
   14.8296     8.7059          0  
   10.6526    5.04278          0  
   11.9134     5.3806          0  
   13.0438    6.03323          0  
   13.9668    6.95619          0  
   14.6194    8.08658          0  
   14.9572    9.34737          0  
       2.5          0         20  
         5          0         20  
       7.5          0         20  
        10          0         20  
      12.5          0         20  
        15          0         20  
      17.5          0         20  
      1.25          0         20  
      3.75          0         20  
      6.25          0         20  
      8.75          0         20  
     11.25          0         20  
     13.75          0         20  
     16.25          0         20  
     18.75          0         20  
        20        2.5         20  
        20          5         20  
        20        7.5         20  
        20         10         20  
        20       12.5         20  
        20         15         20  
        20       17.5         20  
        20       1.25         20  
        20       3.75         20  
        20       6.25         20  
        20       8.75         20  
        20      11.25         20  
        20      13.75         20  
        20      16.25         20  
        20      18.75         20  
      17.5         20         20  
        15         20         20  
      12.5         20         20  
        10         20         20  
       7.5         20         20  
         5         20         20  
       2.5         20         20  
     18.75         20         20  
     16.25         20         20  
     13.75         20         20  
     11.25         20         20  
      8.75         20         20  
      6.25         20         20  
      3.75         20         20  
      1.25         20         20  
         0       17.5         20  
         0         15         20  
         0       12.5         20  
         0         10         20  
         0        7.5         20  
         0          5         20  
         0        2.5         20  
         0      18.75         20  
         0      16.25         20  
         0      13.75         20  
         0      11.25         20  
         0       8.75         20  
         0       6.25         20  
         0       3.75         20  
         0       1.25         20  
   14.8296     8.7059         20  
   14.3301        7.5         20  
   13.5355    6.46447         20  
      12.5    5.66987         20  
   11.2941    5.17037         20  
   14.9572    9.34737         20  
   14.6194    8.08658         20  
   13.9668    6.95619         20  
   13.0438    6.03323         20  
   11.9134     5.3806         20  
   10.6526    5.04278         20  
    8.7059    5.17037         20  
       7.5    5.66987         20  
   6.46447    6.46447         20  
   5.66987        7.5         20  
   5.17037     8.7059         20  
   9.34737    5.04278         20  
   8.08658     5.3806         20  
   6.95619    6.03323         20  
   6.03323    6.95619         20  
    5.3806    8.08658         20  
   5.04278    9.34737         20  
   5.17037    11.2941         20  
   5.66987       12.5         20  
   6.46447    13.5355         20  
       7.5    14.3301         20  
    8.7059    14.8296         20  
   5.04278    10.6526         20  
    5.3806    11.9134         20  
   6.03323    13.0438         20  
   6.95619    13.9668         20  
   8.08658    14.6194         20  
   9.34737    14.9572         20  
   11.2941    14.8296         20  
      12.5    14.3301         20  
   13.5355    13.5355         20  
   14.3301       12.5         20  
   14.8296    11.2941         20  
   10.6526    14.9572         20  
   11.9134    14.6194         20  
   13.0438    13.9668         20  
   13.9668    13.0438         20  
   14.6194    11.9134         20  
   14.9572    10.6526         20  
         0          0          4  
         0          0          8  
         0          0         12  
         0          0         16  
         0          0          2  
         0          0          6  
         0          0         10  
         0          0         14  
         0          0         18  
        20          0          4  
        20          0          8  
        20          0         12  
        20          0         16  
        20          0          2  
        20          0          6  
        20          0         10  
        20          0         14  
        20          0         18  
        20         20          4  
        20         20          8  
        20         20         12  
        20         20         16  
        20         20          2  
        20         20          6  
        20         20         10  
        20         20         14  
        20         20         18  
         0         20          4  
         0         20          8  
         0         20         12  
         0         20         16  
         0         20          2  
         0         20          6  
         0         20         10  
         0         20         14  
         0         20         18  
        15         10          4  
        15         10          8  
        15         10         12  
        15         10         16  
        15         10          2  
        15         10          6  
        15         10         10  
        15         10         14  
        15         10         18  
        10          5          4  
        10          5          8  
        10          5         12  
        10          5         16  
        10          5          2  
        10          5          6  
        10          5         10  
        10          5         14  
        10          5         18  
         5         10          4  
         5         10          8  
         5         10         12  
         5         10         16  
         5         10          2  
         5         10          6  
         5         10         10  
         5         10         14  
         5         10         18  
        10         15          4  
        10         15          8  
        10         15         12  
        10         15         16  
        10         15          2  
        10         15          6  
        10         15         10  
        10         15         14  
        10         15         18  
   5.46438    5.67838          0  
   14.2839     5.4816          0  
   5.68467    14.5468          0  
   14.5468    14.3153          0  
   15.8262    7.94727          0  
    8.0407    3.71663          0  
   12.0525    15.8274          0  
   4.17262    12.0525          0  
   16.3771    11.4292          0  
   8.57078    16.3772          0  
   11.6431    4.20044          0  
   3.62325    8.57019          0  
   2.45694    16.1952          0  
   3.87766    2.53454          0  
   16.1952    17.5431          0  
   17.5021    3.81603          0  
   1.55256    6.37525          0  
   12.6567    1.55753          0  
   6.37586    18.4474          0  
   18.4474    13.6241          0  
   13.4422    15.2423          0  
   12.5994    17.0873          0  
   10.9607    17.5191          0  
   15.7062    15.3335          0  
    4.7577    13.4422          0  
   2.91273    12.5993          0  
   2.48095    10.9606          0  
   4.66651    15.7062          0  
   15.2328     6.5622          0  
    17.086    7.40086          0  
   17.5187    9.03923          0  
   15.2614    4.33536          0  
   10.0651    3.91035          0  
   6.52675    4.65573          0  
   4.33329    4.68205          0  
   13.0718    4.72126          0  
   15.4398    13.1226          0  
   4.56515     6.8767          0  
   6.87738    15.4398          0  
   10.4228    2.66937          0  
   1.84107    4.27132          0  
   15.5012    1.92064          0  
   4.27141     18.159          0  
    18.159    15.7286          0  
    8.1527    18.4356          0  
   18.4356    11.8473          0  
   1.56449    8.15236          0  
   8.70875    2.22835          0  
   12.2339    2.98353          0  
     3.822    10.4529          0  
    10.453     16.178          0  
   16.1777    9.54698          0  
   1.93078    9.34869          0  
   18.0692     10.651          0  
   9.34893    18.0693          0  
   13.9009    3.54462          0  
   3.37442    5.88696          0  
    16.635    14.1155          0  
    5.8845     16.635          0  
   18.3129    5.93358          0  
   14.0674    18.3174          0  
    6.4752    2.28369          0  
   1.68255    14.0674          0  
   2.07063    2.28376          0  
   17.6802    2.07343          0  
   2.27015    17.9425          0  
   17.9425    17.7298          0  
   10.9822    1.35749          0  
   3.34813    14.8446          0  
   5.34807     3.4654          0  
   14.8446    16.6519          0  
   16.6488    5.15733          0  
   18.5689    8.67145          0  
   11.3285    18.5692          0  
   1.43082    11.3285          0  
   16.0888    3.43194          0  
   16.6139    16.1893          0  
   3.43114    3.84328          0  
   3.81067    16.6139          0  
    7.1771    17.6102          0  
   2.39152    7.17696          0  
   17.6102    12.8229          0  
    18.504    7.33558          0  
   12.6647    18.5052          0  
   1.49483    12.6647          0  
   7.47492     1.5879          0  
   9.07917    1.35221          0  
    14.701    2.73263          0  
   13.0674    3.26408          0  
   12.4453    2.27053          0  
   14.0789    1.73908          0  
   13.5732    2.50158          0  
   18.2524    11.2492          0  
   18.0229    12.3351          0  
   16.9937    12.1261          0  
   17.2232    11.0401          0  
    17.623    11.6876          0  
   8.75082    18.2525          0  
    7.6649    18.0229          0  
   7.87394    16.9937          0  
   8.95985    17.2232          0  
   8.31238    17.6231          0  
   1.74764    8.75053          0  
     1.978    7.66466          0  
   3.00738    7.87357          0  
   2.77702    8.95944          0  
   2.37751    8.31205          0  
  0.920533    4.63566          0  
   1.69681    5.32328          0  
  0.776279    6.93762          0  
  0.848406    5.78664          0  
   15.2506   0.960319          0  
   12.5784   0.778765          0  
   13.9145   0.869542          0  
    4.6357    19.0795          0  
   5.32363    18.3032          0  
   6.93793    19.2237          0  
   5.78682    19.1516          0  
   19.0795    15.3643          0  
   18.3032    14.6764          0  
   19.2237    13.0621          0  
   19.1516    14.2132          0  
   5.17559    15.1265          0  
   4.00732    15.2754          0  
   4.05292    14.1434          0  
   5.22119    13.9945          0  
   4.61425    14.6349          0  
   4.89883    5.18021          0  
   4.84068    4.07372          0  
   5.93741    4.06056          0  
   5.99556    5.16705          0  
   5.41812    4.62039          0  
   15.1265    14.8244          0  
   15.2754    15.9927          0  
   14.1434    15.9471          0  
   13.9945    14.7788          0  
   14.6349    15.3857          0  
   14.7726    4.90848          0  
   15.9551    4.74634          0  
   15.9408    5.85976          0  
   14.7583     6.0219          0  
   15.3567    5.38412          0  
   5.21379    12.9711          0  
   6.07457    14.0411          0  
   5.62721    13.5191          0  
   12.9711    14.7862          0  
   14.0411    13.9254          0  
   13.5191    14.3728          0  
   7.01337     5.1628          0  
   5.96442    6.07142          0  
   6.47588    5.60014          0  
   14.7815     7.0311          0  
   13.9097    5.97303          0  
   14.3626    6.48905          0  
   19.0346    10.3255          0  
   19.2178    12.1736          0  
   19.1262    11.2496          0  
   9.67447    19.0347          0  
   7.82635    19.2178          0  
   8.75041    19.1262          0  
  0.965391    9.67435          0  
  0.782244    7.82618          0  
  0.873818    8.75026          0  
   7.48746   0.793948          0  
   8.28958   0.676107          0  
   8.89396    1.79028          0  
   8.09184    1.90812          0  
   8.19071    1.29211          0  
   6.97506    1.93579          0  
    5.7376    1.14184          0  
   6.61253   0.967896          0  
   2.28532    1.14188          0  
   1.03532    2.39188          0  
   1.14266    1.19594          0  
   18.8401    2.28672          0  
   17.5901    1.03672          0  
   18.7951    1.14336          0  
   1.13508    17.7212          0  
   2.38508    18.9712          0  
   1.19254    18.8606          0  
   17.7212    18.8649          0  
   18.9712    17.6149          0  
   18.8606    18.8075          0  
   19.1565    5.46679          0  
    19.252    7.41779          0  
   18.4085    6.63458          0  
   19.2042    6.44229          0  
   14.5337    19.1587          0  
   12.5823    19.2526          0  
    13.366    18.4113          0  
    13.558    19.2057          0  
  0.841277    14.5337          0  
  0.747414    12.5823          0  
   1.58869     13.366          0  
  0.794345     13.558          0  
   4.04104    17.3864          0  
   4.23859      16.16          0  
    5.2755    16.1706          0  
   5.07795     17.397          0  
   4.65827    16.7785          0  
   2.63611     4.0573          0  
   3.88222    4.26267          0  
   3.85386     5.2845          0  
   2.60774    5.07914          0  
   3.24498     4.6709          0  
   17.3864     15.959          0  
     16.16    15.7614          0  
   16.1706    14.7245          0  
    17.397     14.922          0  
   16.7785    15.3417          0  
    15.795    2.67629          0  
   15.6751    3.88365          0  
   14.5811    3.93999          0  
    15.188    3.30814          0  
   17.1226    13.4692          0  
   16.0374    13.6191          0  
   15.9084    12.2759          0  
   16.5155    12.8726          0  
   2.88297    6.53196          0  
   3.96979    6.38183          0  
    4.0942    7.72344          0  
   3.48859     7.1277          0  
    6.5308    17.1226          0  
   6.38094    16.0374          0  
   7.72408    15.9085          0  
   7.12744    16.5155          0  
   4.43883    1.26727          0  
   2.97415    2.40915          0  
   3.36207    1.20458          0  
    18.751    4.40801          0  
   17.5912    2.94473          0  
   18.7956    3.34736          0  
   1.22847    15.5976          0  
   2.36354    17.0688          0  
   1.18177    16.6594          0  
   15.5976    18.7715          0  
   17.0688    17.6365          0  
   16.6594    18.8182          0  
   5.01477    6.27754          0  
   5.11751    7.18835          0  
     5.524    6.61687          0  
   13.6779    5.10143          0  
   12.7859    5.19556          0  
   13.3608    5.56733          0  
   6.28102    14.9933          0  
   7.18869    14.8849          0  
   6.61861      14.48          0  
   14.9933     13.719          0  
   14.8849    12.8113          0  
     14.48    13.3814          0  
   6.77648    18.0288          0  
   7.30141    18.6233          0  
   18.0288    13.2235          0  
   18.6233    12.6986          0  
   1.97204     6.7761          0  
   1.37714    7.30114          0  
   13.4863    4.13294          0  
   12.3575    4.46085          0  
   11.9385    3.59199          0  
   12.7124    3.86246          0  
    3.1338    16.4045          0  
   3.27078    18.0507          0  
   3.20229    17.2276          0  
    3.6544    3.18891          0  
   1.95585    3.27754          0  
   2.80513    3.23323          0  
   16.4045    16.8662          0  
   18.0507    16.7292          0  
   17.2276    16.7977          0  
   16.7954    3.62398          0  
   16.5907    1.99704          0  
   16.6931    2.81051          0  
   10.8541     4.0554          0  
   10.2439    3.28986          0  
   11.3283    2.82645          0  
   11.0912    3.44093          0  
   3.72262    9.51152          0  
   4.39681    8.63805          0  
     4.411    10.2264          0  
    4.3827    9.42944          0  
   11.4686    4.68541          0  
   10.0326    4.45518          0  
   10.7534    4.54909          0  
   9.51188    16.2776          0  
   8.63834    15.6034          0  
   10.2265     15.589          0  
   9.42962    15.6174          0  
   16.2774    10.4881          0  
   15.6034    11.3616          0  
   15.5889    9.77349          0  
   15.6173    10.5704          0  
    16.002    8.74712          0  
   15.3279    8.32659          0  
   15.4796    9.04725          0  
   3.99731    11.2527          0  
   4.67149    11.6733          0  
   4.52004    10.9527          0  
   11.2528    16.0027          0  
   11.6733    15.3285          0  
   10.9527      15.48          0  
   12.1354    4.92073          0  
   15.2639    12.0947          0  
    4.7374    7.90501          0  
   7.90533    15.2639          0  
   14.1295    4.52071          0  
   4.43431    5.78102          0  
   15.5819    14.2217          0  
   5.77826    15.5819          0  
    9.0529    3.81349          0  
    8.3733     4.4435          0  
   9.20014    4.42813          0  
   3.15147    10.7067          0  
   2.20586    10.1547          0  
   2.96424    9.83309          0  
   10.7069    16.8486          0  
   10.1548    17.7942          0  
   9.83335    17.0359          0  
   16.8482     9.2931          0  
    17.794    9.84514          0  
   17.0357    10.1666          0  
   8.37473    2.97249          0  
   9.56576    2.44886          0  
   9.30933    3.13118          0  
  0.977925    3.51377          0  
   16.4204   0.998518          0  
   3.51039    19.0254          0  
   19.0254    16.4896          0  
   4.46516    12.7474          0  
   4.92288    12.3304          0  
   7.28372    4.18618          0  
   7.68515    4.78339          0  
   12.7474    15.5348          0  
   12.3304    15.0771          0  
   15.5295    7.25473          0  
   15.0745    7.67066          0  
   3.54267    12.3259          0  
   2.69684      11.78          0  
   3.34707    11.5163          0  
   12.3259    16.4573          0  
     11.78    17.3032          0  
   11.5164    16.6529          0  
   16.4561    7.67406          0  
   17.3023    8.22005          0  
   16.6522    8.48358          0  
   10.7025    2.01343          0  
   11.8195    1.45751          0  
   11.5739    2.14198          0  
   3.13043    13.7219          0  
   3.79779    13.2347          0  
   5.91164    2.87454          0  
   7.25795    3.00016          0  
   6.59768    3.53036          0  
    13.722    16.8696          0  
   13.2347    16.2022          0  
   16.8674    6.27909          0  
   16.1985    6.76691          0  
   10.4911   0.678743          0  
   11.5347   0.728754          0  
   7.67489    2.45414          0  
    17.795    7.36822          0  
   17.4809    5.54545          0  
   17.6379    6.45684          0  
   2.20378     12.632          0  
   2.51534     14.456          0  
   2.35956     13.544          0  
    12.632    17.7962          0  
    14.456    17.4847          0  
    13.544    17.6404          0  
   18.0438    8.85534          0  
   19.2844    9.33572          0  
   18.5392    9.59043          0  
   11.1446    18.0441          0  
   10.6643    19.2846          0  
   10.4095    18.5394          0  
   1.95589    11.1446          0  
  0.715412    10.6642          0  
   1.46064    10.4095          0  
   17.7129    14.0728          0  
   2.28989    5.92762          0  
   5.92722    17.7129          0  
   17.0755    4.48668          0  
    18.116    4.97673          0  
   15.5199    17.0975          0  
   15.0268    18.1281          0  
   4.61287    2.99997          0  
   5.17523    2.07091          0  
   2.90253    15.5199          0  
   1.87191    15.0268          0  
   10.0307    1.35485          0  
   9.79823    1.90186          0  
   9.39035   0.677425          0  
   16.3753    4.18516          0  
   4.24754    3.63132          0  
   15.8399    16.4294          0  
   3.57056    15.8399          0  
   18.5365    8.00351          0  
   17.9194    8.11178          0  
   11.9966    18.5372          0  
   11.8883    17.9202          0  
   1.46283    11.9966          0  
   2.07983    11.8883          0  
   19.2682    8.37676          0  
   11.6233    19.2686          0  
  0.731413    11.6233          0  
   13.3144     8.1943          0  
   6.58657    12.0125          0  
   11.8124     13.287          0  
   8.08124    6.34254          0  
   8.69868    13.4686          0  
   11.3576    6.43723          0  
   6.42316    8.63313          0  
   13.6196     11.448          0  
    6.5371    7.79344          0  
   7.61186    8.51566          0  
    7.6029    9.85077          0  
   8.59798     9.4393          0  
   8.42637    10.8111          0  
   9.21034     10.086          0  
   10.1111    9.04121          0  
   10.9074    10.2483          0  
   9.97168    11.2731          0  
   11.1756    8.81725          0  
   11.7117    9.50291          0  
   10.1998    7.57675          0  
     8.787    8.59144          0  
   8.98303    11.4644          0  
   9.81362    12.6087          0  
   11.2775    12.0365          0  
   11.5192    10.9039          0  
   7.67412    11.7404          0  
   12.5216    11.7364          0  
   12.4646    8.82274          0  
   11.5788    7.83535          0  
   10.1573    6.32879          0  
   12.6865    7.22876          0  
   6.29135    9.81799          0  
   12.5523     10.474          0  
   13.7541    10.2952          0  
   12.7528    12.7508          0  
   7.55852    7.27407          0  
   8.82581    12.2906          0  
   9.82647     13.711          0  
   7.65657    13.0992          0  
    7.1406    10.8252          0  
   12.9306    9.45051          0  
   13.5627    12.2368          0  
   8.94462    7.44167          0  
   6.34386     10.979          0  
   13.6799    9.18143          0  
   10.5956    12.7953          0  
   10.8756    13.6214          0  
   6.90599    12.8567          0  
   12.1788    6.47214          0  
   8.94129    6.32001          0  
   10.7575    6.38301          0  
   11.4682    7.13629          0  
   10.8893    7.70605          0  
   10.1786    6.95277          0  
   10.8234    7.04453          0  
   11.3259     5.8038          0  
   10.0787    5.66439          0  
   10.7051    5.71289          0  
   9.26258    13.5898          0  
   8.76225    12.8796          0  
   9.31972    12.4497          0  
   9.82004    13.1599          0  
   9.29115    13.0197          0  
   11.5449    12.6618          0  
   11.8995    11.8865          0  
   12.6372    12.2436          0  
   12.2826    13.0189          0  
   12.0911    12.4527          0  
   7.79062     6.0062          0  
   7.81988     6.8083          0  
   7.01149    6.86927          0  
   7.38804    6.42077          0  
   13.0004    7.71153          0  
    13.111    6.84661          0  
   13.8222    7.84715          0  
   13.4836    7.33386          0  
   8.70229    14.1491          0  
   9.91324    14.3555          0  
   9.30497    14.2735          0  
   14.2246     11.371          0  
   13.6868    10.8716          0  
    14.377    10.1476          0  
    14.322    10.7621          0  
   11.2133    10.5761          0  
   11.3983    11.4702          0  
   10.6246    11.6548          0  
   10.4396    10.7607          0  
   10.9189    11.1154          0  
   8.17763    13.2839          0  
   7.57828    13.7147          0  
    8.1321    13.9516          0  
   11.3096    9.87559          0  
   10.5093    9.64474          0  
   10.6433    8.92923          0  
   11.4437    9.16008          0  
   10.9765    9.40241          0  
   9.59101    10.6795          0  
   9.66071    9.56362          0  
   10.0501    10.1621          0  
   9.47736    11.3687          0  
    8.7047    11.1377          0  
   8.81836    10.4486          0  
   9.14786    10.9086          0  
   9.44904    8.81633          0  
   8.90416    9.76267          0  
   8.69249    9.01537          0  
    9.1766     9.2895          0  
   8.01464    10.3309          0  
   8.10044    9.64504          0  
    8.4594    10.0468          0  
   7.60738    9.18322          0  
   8.19943    8.55355          0  
   8.14994     9.0993          0  
   8.86581    8.01656          0  
   7.58519    7.89486          0  
   8.25157    7.35787          0  
    8.2255    7.95571          0  
   5.79677    8.66952          0  
   6.35725    9.22556          0  
   5.64567    9.90899          0  
   5.70001    9.28646          0  
   10.1555    8.30898          0  
   11.3772     8.3263          0  
   10.7663    8.31764          0  
   9.89265    11.9409          0  
   8.90442    11.8775          0  
   9.39854    11.9092          0  
   12.0357    10.6889          0  
   12.5369    11.1052          0  
   11.9676    11.2877          0  
   12.1562    13.8086          0  
   13.1442    13.1432          0  
   12.6632    13.4928          0  
   12.8895    8.50852          0  
   12.0217    8.32904          0  
   12.1326    7.53205          0  
    12.511    8.02029          0  
   6.94713    9.83438          0  
   7.01751     8.5744          0  
   6.98232    9.20439          0  
    12.132    9.98845          0  
   11.6726    10.2823          0  
   12.0882    9.16283          0  
   11.7327    8.74456          0  
   11.7682    6.45469          0  
   12.4326    6.85045          0  
   11.9504    6.99337          0  
   13.1532    10.3846          0  
   13.0706    11.5922          0  
   13.1119    10.9884          0  
   7.37175     10.338          0  
   6.74223    10.9021          0  
    6.3176    10.3985          0  
   6.84468    10.3682          0  
   9.57224    7.50921          0  
   9.51064    8.16277          0  
   7.04781    7.53375          0  
   6.10348    7.64672          0  
   6.54052    7.24497          0  
   6.48013    8.21329          0  
   5.93037    8.14993          0  
   7.40736    11.2828          0  
   8.05025    11.2757          0  
     7.711    10.8069          0  
   8.24997    12.0155          0  
   8.47733    11.5766          0  
   7.13034    11.8765          0  
   7.66534    12.4198          0  
   7.28128     12.978          0  
   6.74628    12.4346          0  
   7.20581    12.4272          0  
    9.5493     6.3244          0  
    8.8236    5.74519          0  
   9.44834    5.68359          0  
   10.9365    12.4159          0  
   10.2046     12.702          0  
   10.4146    12.1784          0  
   13.9464    12.3684          0  
   13.5912    11.8424          0  
   14.1053    11.8779          0  
   7.03266    8.05407          0  
   5.75711    11.1365          0  
   6.46521    11.4958          0  
   6.12822    12.2563          0  
   5.92291    11.7046          0  
    8.2138    12.6497          0  
   14.2548    8.94367          0  
   13.4971    8.68787          0  
   14.0583    8.38722          0  
    10.351    13.6662          0  
   11.0849    14.2255          0  
   10.5018    14.3117          0  
    11.344    13.4542          0  
   11.6287    14.0368          0  
   6.68523    13.1961          0  
   6.38976    12.7392          0  
   12.3394    6.07101          0  
   11.8408    5.91764          0  
   8.51127    6.33127          0  
   8.29892    5.85594          0  
   12.7382    6.44184          0  
   12.7414    9.96225          0  
   13.3052    9.31597          0  
    13.717    9.73832          0  
   13.2292    9.85029          0  
   14.3371    9.54285          0  
   12.6976    9.13663          0  
   12.4148    9.56254          0  
   5.68019    10.5256          0  
   7.11874    13.4724          0  
   13.1577    12.4938          0  
   13.5623    12.7688          0  
   6.93628    11.3893          0  
   13.1142     12.043          0  
   8.94296    6.88084          0  
   8.38142    6.84457          0  
   9.56077     6.9168          0  
   13.0973    8.91225          0  
   10.7356    13.2083          0  
   11.1403    12.9351          0  
   10.2778    13.1841          0  
       2.5          0          4  
       2.5          0          8  
       2.5          0         12  
       2.5          0         16  
         5          0          4  
         5          0          8  
         5          0         12  
         5          0         16  
       7.5          0          4  
       7.5          0          8  
       7.5          0         12  
       7.5          0         16  
        10          0          4  
        10          0          8  
        10          0         12  
        10          0         16  
      12.5          0          4  
      12.5          0          8  
      12.5          0         12  
      12.5          0         16  
        15          0          4  
        15          0          8  
        15          0         12  
        15          0         16  
      17.5          0          4  
      17.5          0          8  
      17.5          0         12  
      17.5          0         16  
       2.5          0          2  
      1.25          0          4  
      1.25          0          2  
       2.5          0          6  
      1.25          0          8  
      1.25          0          6  
       2.5          0         10  
      1.25          0         12  
      1.25          0         10  
       2.5          0         14  
      1.25          0         16  
      1.25          0         14  
       2.5          0         18  
      1.25          0         18  
         5          0          2  
      3.75          0          4  
      3.75          0          2  
         5          0          6  
      3.75          0          8  
      3.75          0          6  
         5          0         10  
      3.75          0         12  
      3.75          0         10  
         5          0         14  
      3.75          0         16  
      3.75          0         14  
         5          0         18  
      3.75          0         18  
       7.5          0          2  
      6.25          0          4  
      6.25          0          2  
       7.5          0          6  
      6.25          0          8  
      6.25          0          6  
       7.5          0         10  
      6.25          0         12  
      6.25          0         10  
       7.5          0         14  
      6.25          0         16  
      6.25          0         14  
       7.5          0         18  
      6.25          0         18  
        10          0          2  
      8.75          0          4  
      8.75          0          2  
        10          0          6  
      8.75          0          8  
      8.75          0          6  
        10          0         10  
      8.75          0         12  
      8.75          0         10  
        10          0         14  
      8.75          0         16  
      8.75          0         14  
        10          0         18  
      8.75          0         18  
      12.5          0          2  
     11.25          0          4  
     11.25          0          2  
      12.5          0          6  
     11.25          0          8  
     11.25          0          6  
      12.5          0         10  
     11.25          0         12  
     11.25          0         10  
      12.5          0         14  
     11.25          0         16  
     11.25          0         14  
      12.5          0         18  
     11.25          0         18  
        15          0          2  
     13.75          0          4  
     13.75          0          2  
        15          0          6  
     13.75          0          8  
     13.75          0          6  
        15          0         10  
     13.75          0         12  
     13.75          0         10  
        15          0         14  
     13.75          0         16  
     13.75          0         14  
        15          0         18  
     13.75          0         18  
      17.5          0          2  
     16.25          0          4  
     16.25          0          2  
      17.5          0          6  
     16.25          0          8  
     16.25          0          6  
      17.5          0         10  
     16.25          0         12  
     16.25          0         10  
      17.5          0         14  
     16.25          0         16  
     16.25          0         14  
      17.5          0         18  
     16.25          0         18  
     18.75          0          4  
     18.75          0          2  
     18.75          0          8  
     18.75          0          6  
     18.75          0         12  
     18.75          0         10  
     18.75          0         16  
     18.75          0         14  
     18.75          0         18  
        20        2.5          4  
        20        2.5          8  
        20        2.5         12  
        20        2.5         16  
        20          5          4  
        20          5          8  
        20          5         12  
        20          5         16  
        20        7.5          4  
        20        7.5          8  
        20        7.5         12  
        20        7.5         16  
        20         10          4  
        20         10          8  
        20         10         12  
        20         10         16  
        20       12.5          4  
        20       12.5          8  
        20       12.5         12  
        20       12.5         16  
        20         15          4  
        20         15          8  
        20         15         12  
        20         15         16  
        20       17.5          4  
        20       17.5          8  
        20       17.5         12  
        20       17.5         16  
        20        2.5          2  
        20       1.25          4  
        20       1.25          2  
        20        2.5          6  
        20       1.25          8  
        20       1.25          6  
        20        2.5         10  
        20       1.25         12  
        20       1.25         10  
        20        2.5         14  
        20       1.25         16  
        20       1.25         14  
        20        2.5         18  
        20       1.25         18  
        20          5          2  
        20       3.75          4  
        20       3.75          2  
        20          5          6  
        20       3.75          8  
        20       3.75          6  
        20          5         10  
        20       3.75         12  
        20       3.75         10  
        20          5         14  
        20       3.75         16  
        20       3.75         14  
        20          5         18  
        20       3.75         18  
        20        7.5          2  
        20       6.25          4  
        20       6.25          2  
        20        7.5          6  
        20       6.25          8  
        20       6.25          6  
        20        7.5         10  
        20       6.25         12  
        20       6.25         10  
        20        7.5         14  
        20       6.25         16  
        20       6.25         14  
        20        7.5         18  
        20       6.25         18  
        20         10          2  
        20       8.75          4  
        20       8.75          2  
        20         10          6  
        20       8.75          8  
        20       8.75          6  
        20         10         10  
        20       8.75         12  
        20       8.75         10  
        20         10         14  
        20       8.75         16  
        20       8.75         14  
        20         10         18  
        20       8.75         18  
        20       12.5          2  
        20      11.25          4  
        20      11.25          2  
        20       12.5          6  
        20      11.25          8  
        20      11.25          6  
        20       12.5         10  
        20      11.25         12  
        20      11.25         10  
        20       12.5         14  
        20      11.25         16  
        20      11.25         14  
        20       12.5         18  
        20      11.25         18  
        20         15          2  
        20      13.75          4  
        20      13.75          2  
        20         15          6  
        20      13.75          8  
        20      13.75          6  
        20         15         10  
        20      13.75         12  
        20      13.75         10  
        20         15         14  
        20      13.75         16  
        20      13.75         14  
        20         15         18  
        20      13.75         18  
        20       17.5          2  
        20      16.25          4  
        20      16.25          2  
        20       17.5          6  
        20      16.25          8  
        20      16.25          6  
        20       17.5         10  
        20      16.25         12  
        20      16.25         10  
        20       17.5         14  
        20      16.25         16  
        20      16.25         14  
        20       17.5         18  
        20      16.25         18  
        20      18.75          4  
        20      18.75          2  
        20      18.75          8  
        20      18.75          6  
        20      18.75         12  
        20      18.75         10  
        20      18.75         16  
        20      18.75         14  
        20      18.75         18  
      17.5         20          4  
      17.5         20          8  
      17.5         20         12  
      17.5         20         16  
        15         20          4  
        15         20          8  
        15         20         12  
        15         20         16  
      12.5         20          4  
      12.5         20          8  
      12.5         20         12  
      12.5         20         16  
        10         20          4  
        10         20          8  
        10         20         12  
        10         20         16  
       7.5         20          4  
       7.5         20          8  
       7.5         20         12  
       7.5         20         16  
         5         20          4  
         5         20          8  
         5         20         12  
         5         20         16  
       2.5         20          4  
       2.5         20          8  
       2.5         20         12  
       2.5         20         16  
      17.5         20          2  
     18.75         20          4  
     18.75         20          2  
      17.5         20          6  
     18.75         20          8  
     18.75         20          6  
      17.5         20         10  
     18.75         20         12  
     18.75         20         10  
      17.5         20         14  
     18.75         20         16  
     18.75         20         14  
      17.5         20         18  
     18.75         20         18  
        15         20          2  
     16.25         20          4  
     16.25         20          2  
        15         20          6  
     16.25         20          8  
     16.25         20          6  
        15         20         10  
     16.25         20         12  
     16.25         20         10  
        15         20         14  
     16.25         20         16  
     16.25         20         14  
        15         20         18  
     16.25         20         18  
      12.5         20          2  
     13.75         20          4  
     13.75         20          2  
      12.5         20          6  
     13.75         20          8  
     13.75         20          6  
      12.5         20         10  
     13.75         20         12  
     13.75         20         10  
      12.5         20         14  
     13.75         20         16  
     13.75         20         14  
      12.5         20         18  
     13.75         20         18  
        10         20          2  
     11.25         20          4  
     11.25         20          2  
        10         20          6  
     11.25         20          8  
     11.25         20          6  
        10         20         10  
     11.25         20         12  
     11.25         20         10  
        10         20         14  
     11.25         20         16  
     11.25         20         14  
        10         20         18  
     11.25         20         18  
       7.5         20          2  
      8.75         20          4  
      8.75         20          2  
       7.5         20          6  
      8.75         20          8  
      8.75         20          6  
       7.5         20         10  
      8.75         20         12  
      8.75         20         10  
       7.5         20         14  
      8.75         20         16  
      8.75         20         14  
       7.5         20         18  
      8.75         20         18  
         5         20          2  
      6.25         20          4  
      6.25         20          2  
         5         20          6  
      6.25         20          8  
      6.25         20          6  
         5         20         10  
      6.25         20         12  
      6.25         20         10  
         5         20         14  
      6.25         20         16  
      6.25         20         14  
         5         20         18  
      6.25         20         18  
       2.5         20          2  
      3.75         20          4  
      3.75         20          2  
       2.5         20          6  
      3.75         20          8  
      3.75         20          6  
       2.5         20         10  
      3.75         20         12  
      3.75         20         10  
       2.5         20         14  
      3.75         20         16  
      3.75         20         14  
       2.5         20         18  
      3.75         20         18  
      1.25         20          4  
      1.25         20          2  
      1.25         20          8  
      1.25         20          6  
      1.25         20         12  
      1.25         20         10  
      1.25         20         16  
      1.25         20         14  
      1.25         20         18  
         0       17.5          4  
         0       17.5          8  
         0       17.5         12  
         0       17.5         16  
         0         15          4  
         0         15          8  
         0         15         12  
         0         15         16  
         0       12.5          4  
         0       12.5          8  
         0       12.5         12  
         0       12.5         16  
         0         10          4  
         0         10          8  
         0         10         12  
         0         10         16  
         0        7.5          4  
         0        7.5          8  
         0        7.5         12  
         0        7.5         16  
         0          5          4  
         0          5          8  
         0          5         12  
         0          5         16  
         0        2.5          4  
         0        2.5          8  
         0        2.5         12  
         0        2.5         16  
         0       17.5          2  
         0      18.75          4  
         0      18.75          2  
         0       17.5          6  
         0      18.75          8  
         0      18.75          6  
         0       17.5         10  
         0      18.75         12  
         0      18.75         10  
         0       17.5         14  
         0      18.75         16  
         0      18.75         14  
         0       17.5         18  
         0      18.75         18  
         0         15          2  
         0      16.25          4  
         0      16.25          2  
         0         15          6  
         0      16.25          8  
         0      16.25          6  
         0         15         10  
         0      16.25         12  
         0      16.25         10  
         0         15         14  
         0      16.25         16  
         0      16.25         14  
         0         15         18  
         0      16.25         18  
         0       12.5          2  
         0      13.75          4  
         0      13.75          2  
         0       12.5          6  
         0      13.75          8  
         0      13.75          6  
         0       12.5         10  
         0      13.75         12  
         0      13.75         10  
         0       12.5         14  
         0      13.75         16  
         0      13.75         14  
         0       12.5         18  
         0      13.75         18  
         0         10          2  
         0      11.25          4  
         0      11.25          2  
         0         10          6  
         0      11.25          8  
         0      11.25          6  
         0         10         10  
         0      11.25         12  
         0      11.25         10  
         0         10         14  
         0      11.25         16  
         0      11.25         14  
         0         10         18  
         0      11.25         18  
         0        7.5          2  
         0       8.75          4  
         0       8.75          2  
         0        7.5          6  
         0       8.75          8  
         0       8.75          6  
         0        7.5         10  
         0       8.75         12  
         0       8.75         10  
         0        7.5         14  
         0       8.75         16  
         0       8.75         14  
         0        7.5         18  
         0       8.75         18  
         0          5          2  
         0       6.25          4  
         0       6.25          2  
         0          5          6  
         0       6.25          8  
         0       6.25          6  
         0          5         10  
         0       6.25         12  
         0       6.25         10  
         0          5         14  
         0       6.25         16  
         0       6.25         14  
         0          5         18  
         0       6.25         18  
         0        2.5          2  
         0       3.75          4  
         0       3.75          2  
         0        2.5          6  
         0       3.75          8  
         0       3.75          6  
         0        2.5         10  
         0       3.75         12  
         0       3.75         10  
         0        2.5         14  
         0       3.75         16  
         0       3.75         14  
         0        2.5         18  
         0       3.75         18  
         0       1.25          4  
         0       1.25          2  
         0       1.25          8  
         0       1.25          6  
         0       1.25         12  
         0       1.25         10  
         0       1.25         16  
         0       1.25         14  
         0       1.25         18  
   11.2941    5.17037          4  
   11.2941    5.17037          8  
   11.2941    5.17037         12  
   11.2941    5.17037         16  
      12.5    5.66987          4  
      12.5    5.66987          8  
      12.5    5.66987         12  
      12.5    5.66987         16  
   13.5355    6.46447          4  
   13.5355    6.46447          8  
   13.5355    6.46447         12  
   13.5355    6.46447         16  
   14.3301        7.5          4  
   14.3301        7.5          8  
   14.3301        7.5         12  
   14.3301        7.5         16  
   14.8296     8.7059          4  
   14.8296     8.7059          8  
   14.8296     8.7059         12  
   14.8296     8.7059         16  
   10.6526    5.04278          4  
   11.2941    5.17037          2  
   10.6526    5.04278          2  
   10.6526    5.04278          8  
   11.2941    5.17037          6  
   10.6526    5.04278          6  
   10.6526    5.04278         12  
   11.2941    5.17037         10  
   10.6526    5.04278         10  
   10.6526    5.04278         16  
   11.2941    5.17037         14  
   10.6526    5.04278         14  
   11.2941    5.17037         18  
   10.6526    5.04278         18  
   11.9134     5.3806          4  
      12.5    5.66987          2  
   11.9134     5.3806          2  
   11.9134     5.3806          8  
      12.5    5.66987          6  
   11.9134     5.3806          6  
   11.9134     5.3806         12  
      12.5    5.66987         10  
   11.9134     5.3806         10  
   11.9134     5.3806         16  
      12.5    5.66987         14  
   11.9134     5.3806         14  
      12.5    5.66987         18  
   11.9134     5.3806         18  
   13.0438    6.03323          4  
   13.5355    6.46447          2  
   13.0438    6.03323          2  
   13.0438    6.03323          8  
   13.5355    6.46447          6  
   13.0438    6.03323          6  
   13.0438    6.03323         12  
   13.5355    6.46447         10  
   13.0438    6.03323         10  
   13.0438    6.03323         16  
   13.5355    6.46447         14  
   13.0438    6.03323         14  
   13.5355    6.46447         18  
   13.0438    6.03323         18  
   13.9668    6.95619          4  
   14.3301        7.5          2  
   13.9668    6.95619          2  
   13.9668    6.95619          8  
   14.3301        7.5          6  
   13.9668    6.95619          6  
   13.9668    6.95619         12  
   14.3301        7.5         10  
   13.9668    6.95619         10  
   13.9668    6.95619         16  
   14.3301        7.5         14  
   13.9668    6.95619         14  
   14.3301        7.5         18  
   13.9668    6.95619         18  
   14.6194    8.08658          4  
   14.8296     8.7059          2  
   14.6194    8.08658          2  
   14.6194    8.08658          8  
   14.8296     8.7059          6  
   14.6194    8.08658          6  
   14.6194    8.08658         12  
   14.8296     8.7059         10  
   14.6194    8.08658         10  
   14.6194    8.08658         16  
   14.8296     8.7059         14  
   14.6194    8.08658         14  
   14.8296     8.7059         18  
   14.6194    8.08658         18  
   14.9572    9.34737          4  
   14.9572    9.34737          2  
   14.9572    9.34737          8  
   14.9572    9.34737          6  
   14.9572    9.34737         12  
   14.9572    9.34737         10  
   14.9572    9.34737         16  
   14.9572    9.34737         14  
   14.9572    9.34737         18  
   5.17037     8.7059          4  
   5.17037     8.7059          8  
   5.17037     8.7059         12  
   5.17037     8.7059         16  
   5.66987        7.5          4  
   5.66987        7.5          8  
   5.66987        7.5         12  
   5.66987        7.5         16  
   6.46447    6.46447          4  
   6.46447    6.46447          8  
   6.46447    6.46447         12  
   6.46447    6.46447         16  
       7.5    5.66987          4  
       7.5    5.66987          8  
       7.5    5.66987         12  
       7.5    5.66987         16  
    8.7059    5.17037          4  
    8.7059    5.17037          8  
    8.7059    5.17037         12  
    8.7059    5.17037         16  
   5.04278    9.34737          4  
   5.17037     8.7059          2  
   5.04278    9.34737          2  
   5.04278    9.34737          8  
   5.17037     8.7059          6  
   5.04278    9.34737          6  
   5.04278    9.34737         12  
   5.17037     8.7059         10  
   5.04278    9.34737         10  
   5.04278    9.34737         16  
   5.17037     8.7059         14  
   5.04278    9.34737         14  
   5.17037     8.7059         18  
   5.04278    9.34737         18  
    5.3806    8.08658          4  
   5.66987        7.5          2  
    5.3806    8.08658          2  
    5.3806    8.08658          8  
   5.66987        7.5          6  
    5.3806    8.08658          6  
    5.3806    8.08658         12  
   5.66987        7.5         10  
    5.3806    8.08658         10  
    5.3806    8.08658         16  
   5.66987        7.5         14  
    5.3806    8.08658         14  
   5.66987        7.5         18  
    5.3806    8.08658         18  
   6.03323    6.95619          4  
   6.46447    6.46447          2  
   6.03323    6.95619          2  
   6.03323    6.95619          8  
   6.46447    6.46447          6  
   6.03323    6.95619          6  
   6.03323    6.95619         12  
   6.46447    6.46447         10  
   6.03323    6.95619         10  
   6.03323    6.95619         16  
   6.46447    6.46447         14  
   6.03323    6.95619         14  
   6.46447    6.46447         18  
   6.03323    6.95619         18  
   6.95619    6.03323          4  
       7.5    5.66987          2  
   6.95619    6.03323          2  
   6.95619    6.03323          8  
       7.5    5.66987          6  
   6.95619    6.03323          6  
   6.95619    6.03323         12  
       7.5    5.66987         10  
   6.95619    6.03323         10  
   6.95619    6.03323         16  
       7.5    5.66987         14  
   6.95619    6.03323         14  
       7.5    5.66987         18  
   6.95619    6.03323         18  
   8.08658     5.3806          4  
    8.7059    5.17037          2  
   8.08658     5.3806          2  
   8.08658     5.3806          8  
    8.7059    5.17037          6  
   8.08658     5.3806          6  
   8.08658     5.3806         12  
    8.7059    5.17037         10  
   8.08658     5.3806         10  
   8.08658     5.3806         16  
    8.7059    5.17037         14  
   8.08658     5.3806         14  
    8.7059    5.17037         18  
   8.08658     5.3806         18  
   9.34737    5.04278          4  
   9.34737    5.04278          2  
   9.34737    5.04278          8  
   9.34737    5.04278          6  
   9.34737    5.04278         12  
   9.34737    5.04278         10  
   9.34737    5.04278         16  
   9.34737    5.04278         14  
   9.34737    5.04278         18  
    8.7059    14.8296          4  
    8.7059    14.8296          8  
    8.7059    14.8296         12  
    8.7059    14.8296         16  
       7.5    14.3301          4  
       7.5    14.3301          8  
       7.5    14.3301         12  
       7.5    14.3301         16  
   6.46447    13.5355          4  
   6.46447    13.5355          8  
   6.46447    13.5355         12  
   6.46447    13.5355         16  
   5.66987       12.5          4  
   5.66987       12.5          8  
   5.66987       12.5         12  
   5.66987       12.5         16  
   5.17037    11.2941          4  
   5.17037    11.2941          8  
   5.17037    11.2941         12  
   5.17037    11.2941         16  
   9.34737    14.9572          4  
    8.7059    14.8296          2  
   9.34737    14.9572          2  
   9.34737    14.9572          8  
    8.7059    14.8296          6  
   9.34737    14.9572          6  
   9.34737    14.9572         12  
    8.7059    14.8296         10  
   9.34737    14.9572         10  
   9.34737    14.9572         16  
    8.7059    14.8296         14  
   9.34737    14.9572         14  
    8.7059    14.8296         18  
   9.34737    14.9572         18  
   8.08658    14.6194          4  
       7.5    14.3301          2  
   8.08658    14.6194          2  
   8.08658    14.6194          8  
       7.5    14.3301          6  
   8.08658    14.6194          6  
   8.08658    14.6194         12  
       7.5    14.3301         10  
   8.08658    14.6194         10  
   8.08658    14.6194         16  
       7.5    14.3301         14  
   8.08658    14.6194         14  
       7.5    14.3301         18  
   8.08658    14.6194         18  
   6.95619    13.9668          4  
   6.46447    13.5355          2  
   6.95619    13.9668          2  
   6.95619    13.9668          8  
   6.46447    13.5355          6  
   6.95619    13.9668          6  
   6.95619    13.9668         12  
   6.46447    13.5355         10  
   6.95619    13.9668         10  
   6.95619    13.9668         16  
   6.46447    13.5355         14  
   6.95619    13.9668         14  
   6.46447    13.5355         18  
   6.95619    13.9668         18  
   6.03323    13.0438          4  
   5.66987       12.5          2  
   6.03323    13.0438          2  
   6.03323    13.0438          8  
   5.66987       12.5          6  
   6.03323    13.0438          6  
   6.03323    13.0438         12  
   5.66987       12.5         10  
   6.03323    13.0438         10  
   6.03323    13.0438         16  
   5.66987       12.5         14  
   6.03323    13.0438         14  
   5.66987       12.5         18  
   6.03323    13.0438         18  
    5.3806    11.9134          4  
   5.17037    11.2941          2  
    5.3806    11.9134          2  
    5.3806    11.9134          8  
   5.17037    11.2941          6  
    5.3806    11.9134          6  
    5.3806    11.9134         12  
   5.17037    11.2941         10  
    5.3806    11.9134         10  
    5.3806    11.9134         16  
   5.17037    11.2941         14  
    5.3806    11.9134         14  
   5.17037    11.2941         18  
    5.3806    11.9134         18  
   5.04278    10.6526          4  
   5.04278    10.6526          2  
   5.04278    10.6526          8  
   5.04278    10.6526          6  
   5.04278    10.6526         12  
   5.04278    10.6526         10  
   5.04278    10.6526         16  
   5.04278    10.6526         14  
   5.04278    10.6526         18  
   14.8296    11.2941          4  
   14.8296    11.2941          8  
   14.8296    11.2941         12  
   14.8296    11.2941         16  
   14.3301       12.5          4  
   14.3301       12.5          8  
   14.3301       12.5         12  
   14.3301       12.5         16  
   13.5355    13.5355          4  
   13.5355    13.5355          8  
   13.5355    13.5355         12  
   13.5355    13.5355         16  
      12.5    14.3301          4  
      12.5    14.3301          8  
      12.5    14.3301         12  
      12.5    14.3301         16  
   11.2941    14.8296          4  
   11.2941    14.8296          8  
   11.2941    14.8296         12  
   11.2941    14.8296         16  
   14.9572    10.6526          4  
   14.8296    11.2941          2  
   14.9572    10.6526          2  
   14.9572    10.6526          8  
   14.8296    11.2941          6  
   14.9572    10.6526          6  
   14.9572    10.6526         12  
   14.8296    11.2941         10  
   14.9572    10.6526         10  
   14.9572    10.6526         16  
   14.8296    11.2941         14  
   14.9572    10.6526         14  
   14.8296    11.2941         18  
   14.9572    10.6526         18  
   14.6194    11.9134          4  
   14.3301       12.5          2  
   14.6194    11.9134          2  
   14.6194    11.9134          8  
   14.3301       12.5          6  
   14.6194    11.9134          6  
   14.6194    11.9134         12  
   14.3301       12.5         10  
   14.6194    11.9134         10  
   14.6194    11.9134         16  
   14.3301       12.5         14  
   14.6194    11.9134         14  
   14.3301       12.5         18  
   14.6194    11.9134         18  
   13.9668    13.0438          4  
   13.5355    13.5355          2  
   13.9668    13.0438          2  
   13.9668    13.0438          8  
   13.5355    13.5355          6  
   13.9668    13.0438          6  
   13.9668    13.0438         12  
   13.5355    13.5355         10  
   13.9668    13.0438         10  
   13.9668    13.0438         16  
   13.5355    13.5355         14  
   13.9668    13.0438         14  
   13.5355    13.5355         18  
   13.9668    13.0438         18  
   13.0438    13.9668          4  
      12.5    14.3301          2  
   13.0438    13.9668          2  
   13.0438    13.9668          8  
      12.5    14.3301          6  
   13.0438    13.9668          6  
   13.0438    13.9668         12  
      12.5    14.3301         10  
   13.0438    13.9668         10  
   13.0438    13.9668         16  
      12.5    14.3301         14  
   13.0438    13.9668         14  
      12.5    14.3301         18  
   13.0438    13.9668         18  
   11.9134    14.6194          4  
   11.2941    14.8296          2  
   11.9134    14.6194          2  
   11.9134    14.6194          8  
   11.2941    14.8296          6  
   11.9134    14.6194          6  
   11.9134    14.6194         12  
   11.2941    14.8296         10  
   11.9134    14.6194         10  
   11.9134    14.6194         16  
   11.2941    14.8296         14  
   11.9134    14.6194         14  
   11.2941    14.8296         18  
   11.9134    14.6194         18  
   10.6526    14.9572          4  
   10.6526    14.9572          2  
   10.6526    14.9572          8  
   10.6526    14.9572          6  
   10.6526    14.9572         12  
   10.6526    14.9572         10  
   10.6526    14.9572         16  
   10.6526    14.9572         14  
   10.6526    14.9572         18  
   5.46438    5.67838         20  
   14.2839     5.4816         20  
   5.68467    14.5468         20  
   14.5468    14.3153         20  
   15.8262    7.94727         20  
    8.0407    3.71663         20  
   12.0525    15.8274         20  
   4.17262    12.0525         20  
   16.3771    11.4292         20  
   8.57078    16.3772         20  
   11.6431    4.20044         20  
   3.62325    8.57019         20  
   2.45694    16.1952         20  
   3.87766    2.53454         20  
   16.1952    17.5431         20  
   17.5021    3.81603         20  
   1.55256    6.37525         20  
   12.6567    1.55753         20  
   6.37586    18.4474         20  
   18.4474    13.6241         20  
   13.4422    15.2423         20  
   12.5994    17.0873         20  
   10.9607    17.5191         20  
   15.7062    15.3335         20  
    4.7577    13.4422         20  
   2.91273    12.5993         20  
   2.48095    10.9606         20  
   4.66651    15.7062         20  
   15.2328     6.5622         20  
    17.086    7.40086         20  
   17.5187    9.03923         20  
   15.2614    4.33536         20  
   10.0651    3.91035         20  
   6.52675    4.65573         20  
   4.33329    4.68205         20  
   13.0718    4.72126         20  
   15.4398    13.1226         20  
   4.56515     6.8767         20  
   6.87738    15.4398         20  
   10.4228    2.66937         20  
   1.84107    4.27132         20  
   15.5012    1.92064         20  
   4.27141     18.159         20  
    18.159    15.7286         20  
    8.1527    18.4356         20  
   18.4356    11.8473         20  
   1.56449    8.15236         20  
   8.70875    2.22835         20  
   12.2339    2.98353         20  
     3.822    10.4529         20  
    10.453     16.178         20  
   16.1777    9.54698         20  
   1.93078    9.34869         20  
   18.0692     10.651         20  
   9.34893    18.0693         20  
   13.9009    3.54462         20  
   3.37442    5.88696         20  
    16.635    14.1155         20  
    5.8845     16.635         20  
   18.3129    5.93358         20  
   14.0674    18.3174         20  
    6.4752    2.28369         20  
   1.68255    14.0674         20  
   2.07063    2.28376         20  
   17.6802    2.07343         20  
   2.27015    17.9425         20  
   17.9425    17.7298         20  
   10.9822    1.35749         20  
   3.34813    14.8446         20  
   5.34807     3.4654         20  
   14.8446    16.6519         20  
   16.6488    5.15733         20  
   18.5689    8.67145         20  
   11.3285    18.5692         20  
   1.43082    11.3285         20  
   16.0888    3.43194         20  
   16.6139    16.1893         20  
   3.43114    3.84328         20  
   3.81067    16.6139         20  
    7.1771    17.6102         20  
   2.39152    7.17696         20  
   17.6102    12.8229         20  
    18.504    7.33558         20  
   12.6647    18.5052         20  
   1.49483    12.6647         20  
   7.47492     1.5879         20  
   9.07917    1.35221         20  
    14.701    2.73263         20  
   13.0674    3.26408         20  
   12.4453    2.27053         20  
   14.0789    1.73908         20  
   13.5732    2.50158         20  
   18.2524    11.2492         20  
   18.0229    12.3351         20  
   16.9937    12.1261         20  
   17.2232    11.0401         20  
    17.623    11.6876         20  
   8.75082    18.2525         20  
    7.6649    18.0229         20  
   7.87394    16.9937         20  
   8.95985    17.2232         20  
   8.31238    17.6231         20  
   1.74764    8.75053         20  
     1.978    7.66466         20  
   3.00738    7.87357         20  
   2.77702    8.95944         20  
   2.37751    8.31205         20  
  0.920533    4.63566         20  
   1.69681    5.32328         20  
  0.776279    6.93762         20  
  0.848406    5.78664         20  
   15.2506   0.960319         20  
   12.5784   0.778765         20  
   13.9145   0.869542         20  
    4.6357    19.0795         20  
   5.32363    18.3032         20  
   6.93793    19.2237         20  
   5.78682    19.1516         20  
   19.0795    15.3643         20  
   18.3032    14.6764         20  
   19.2237    13.0621         20  
   19.1516    14.2132         20  
   5.17559    15.1265         20  
   4.00732    15.2754         20  
   4.05292    14.1434         20  
   5.22119    13.9945         20  
   4.61425    14.6349         20  
   4.89883    5.18021         20  
   4.84068    4.07372         20  
   5.93741    4.06056         20  
   5.99556    5.16705         20  
   5.41812    4.62039         20  
   15.1265    14.8244         20  
   15.2754    15.9927         20  
   14.1434    15.9471         20  
   13.9945    14.7788         20  
   14.6349    15.3857         20  
   14.7726    4.90848         20  
   15.9551    4.74634         20  
   15.9408    5.85976         20  
   14.7583     6.0219         20  
   15.3567    5.38412         20  
   5.21379    12.9711         20  
   6.07457    14.0411         20  
   5.62721    13.5191         20  
   12.9711    14.7862         20  
   14.0411    13.9254         20  
   13.5191    14.3728         20  
   7.01337     5.1628         20  
   5.96442    6.07142         20  
   6.47588    5.60014         20  
   14.7815     7.0311         20  
   13.9097    5.97303         20  
   14.3626    6.48905         20  
   19.0346    10.3255         20  
   19.2178    12.1736         20  
   19.1262    11.2496         20  
   9.67447    19.0347         20  
   7.82635    19.2178         20  
   8.75041    19.1262         20  
  0.965391    9.67435         20  
  0.782244    7.82618         20  
  0.873818    8.75026         20  
   7.48746   0.793948         20  
   8.28958   0.676107         20  
   8.89396    1.79028         20  
   8.09184    1.90812         20  
   8.19071    1.29211         20  
   6.97506    1.93579         20  
    5.7376    1.14184         20  
   6.61253   0.967896         20  
   2.28532    1.14188         20  
   1.03532    2.39188         20  
   1.14266    1.19594         20  
   18.8401    2.28672         20  
   17.5901    1.03672         20  
   18.7951    1.14336         20  
   1.13508    17.7212         20  
   2.38508    18.9712         20  
   1.19254    18.8606         20  
   17.7212    18.8649         20  
   18.9712    17.6149         20  
   18.8606    18.8075         20  
   19.1565    5.46679         20  
    19.252    7.41779         20  
   18.4085    6.63458         20  
   19.2042    6.44229         20  
   14.5337    19.1587         20  
   12.5823    19.2526         20  
    13.366    18.4113         20  
    13.558    19.2057         20  
  0.841277    14.5337         20  
  0.747414    12.5823         20  
   1.58869     13.366         20  
  0.794345     13.558         20  
   4.04104    17.3864         20  
   4.23859      16.16         20  
    5.2755    16.1706         20  
   5.07795     17.397         20  
   4.65827    16.7785         20  
   2.63611     4.0573         20  
   3.88222    4.26267         20  
   3.85386     5.2845         20  
   2.60774    5.07914         20  
   3.24498     4.6709         20  
   17.3864     15.959         20  
     16.16    15.7614         20  
   16.1706    14.7245         20  
    17.397     14.922         20  
   16.7785    15.3417         20  
    15.795    2.67629         20  
   15.6751    3.88365         20  
   14.5811    3.93999         20  
    15.188    3.30814         20  
   17.1226    13.4692         20  
   16.0374    13.6191         20  
   15.9084    12.2759         20  
   16.5155    12.8726         20  
   2.88297    6.53196         20  
   3.96979    6.38183         20  
    4.0942    7.72344         20  
   3.48859     7.1277         20  
    6.5308    17.1226         20  
   6.38094    16.0374         20  
   7.72408    15.9085         20  
   7.12744    16.5155         20  
   4.43883    1.26727         20  
   2.97415    2.40915         20  
   3.36207    1.20458         20  
    18.751    4.40801         20  
   17.5912    2.94473         20  
   18.7956    3.34736         20  
   1.22847    15.5976         20  
   2.36354    17.0688         20  
   1.18177    16.6594         20  
   15.5976    18.7715         20  
   17.0688    17.6365         20  
   16.6594    18.8182         20  
   5.01477    6.27754         20  
   5.11751    7.18835         20  
     5.524    6.61687         20  
   13.6779    5.10143         20  
   12.7859    5.19556         20  
   13.3608    5.56733         20  
   6.28102    14.9933         20  
   7.18869    14.8849         20  
   6.61861      14.48         20  
   14.9933     13.719         20  
   14.8849    12.8113         20  
     14.48    13.3814         20  
   6.77648    18.0288         20  
   7.30141    18.6233         20  
   18.0288    13.2235         20  
   18.6233    12.6986         20  
   1.97204     6.7761         20  
   1.37714    7.30114         20  
   13.4863    4.13294         20  
   12.3575    4.46085         20  
   11.9385    3.59199         20  
   12.7124    3.86246         20  
    3.1338    16.4045         20  
   3.27078    18.0507         20  
   3.20229    17.2276         20  
    3.6544    3.18891         20  
   1.95585    3.27754         20  
   2.80513    3.23323         20  
   16.4045    16.8662         20  
   18.0507    16.7292         20  
   17.2276    16.7977         20  
   16.7954    3.62398         20  
   16.5907    1.99704         20  
   16.6931    2.81051         20  
   10.8541     4.0554         20  
   10.2439    3.28986         20  
   11.3283    2.82645         20  
   11.0912    3.44093         20  
   3.72262    9.51152         20  
   4.39681    8.63805         20  
     4.411    10.2264         20  
    4.3827    9.42944         20  
   11.4686    4.68541         20  
   10.0326    4.45518         20  
   10.7534    4.54909         20  
   9.51188    16.2776         20  
   8.63834    15.6034         20  
   10.2265     15.589         20  
   9.42962    15.6174         20  
   16.2774    10.4881         20  
   15.6034    11.3616         20  
   15.5889    9.77349         20  
   15.6173    10.5704         20  
    16.002    8.74712         20  
   15.3279    8.32659         20  
   15.4796    9.04725         20  
   3.99731    11.2527         20  
   4.67149    11.6733         20  
   4.52004    10.9527         20  
   11.2528    16.0027         20  
   11.6733    15.3285         20  
   10.9527      15.48         20  
   12.1354    4.92073         20  
   15.2639    12.0947         20  
    4.7374    7.90501         20  
   7.90533    15.2639         20  
   14.1295    4.52071         20  
   4.43431    5.78102         20  
   15.5819    14.2217         20  
   5.77826    15.5819         20  
    9.0529    3.81349         20  
    8.3733     4.4435         20  
   9.20014    4.42813         20  
   3.15147    10.7067         20  
   2.20586    10.1547         20  
   2.96424    9.83309         20  
   10.7069    16.8486         20  
   10.1548    17.7942         20  
   9.83335    17.0359         20  
   16.8482     9.2931         20  
    17.794    9.84514         20  
   17.0357    10.1666         20  
   8.37473    2.97249         20  
   9.56576    2.44886         20  
   9.30933    3.13118         20  
  0.977925    3.51377         20  
   16.4204   0.998518         20  
   3.51039    19.0254         20  
   19.0254    16.4896         20  
   4.46516    12.7474         20  
   4.92288    12.3304         20  
   7.28372    4.18618         20  
   7.68515    4.78339         20  
   12.7474    15.5348         20  
   12.3304    15.0771         20  
   15.5295    7.25473         20  
   15.0745    7.67066         20  
   3.54267    12.3259         20  
   2.69684      11.78         20  
   3.34707    11.5163         20  
   12.3259    16.4573         20  
     11.78    17.3032         20  
   11.5164    16.6529         20  
   16.4561    7.67406         20  
   17.3023    8.22005         20  
   16.6522    8.48358         20  
   10.7025    2.01343         20  
   11.8195    1.45751         20  
   11.5739    2.14198         20  
   3.13043    13.7219         20  
   3.79779    13.2347         20  
   5.91164    2.87454         20  
   7.25795    3.00016         20  
   6.59768    3.53036         20  
    13.722    16.8696         20  
   13.2347    16.2022         20  
   16.8674    6.27909         20  
   16.1985    6.76691         20  
   10.4911   0.678743         20  
   11.5347   0.728754         20  
   7.67489    2.45414         20  
    17.795    7.36822         20  
   17.4809    5.54545         20  
   17.6379    6.45684         20  
   2.20378     12.632         20  
   2.51534     14.456         20  
   2.35956     13.544         20  
    12.632    17.7962         20  
    14.456    17.4847         20  
    13.544    17.6404         20  
   18.0438    8.85534         20  
   19.2844    9.33572         20  
   18.5392    9.59043         20  
   11.1446    18.0441         20  
   10.6643    19.2846         20  
   10.4095    18.5394         20  
   1.95589    11.1446         20  
  0.715412    10.6642         20  
   1.46064    10.4095         20  
   17.7129    14.0728         20  
   2.28989    5.92762         20  
   5.92722    17.7129         20  
   17.0755    4.48668         20  
    18.116    4.97673         20  
   15.5199    17.0975         20  
   15.0268    18.1281         20  
   4.61287    2.99997         20  
   5.17523    2.07091         20  
   2.90253    15.5199         20  
   1.87191    15.0268         20  
   10.0307    1.35485         20  
   9.79823    1.90186         20  
   9.39035   0.677425         20  
   16.3753    4.18516         20  
   4.24754    3.63132         20  
   15.8399    16.4294         20  
   3.57056    15.8399         20  
   18.5365    8.00351         20  
   17.9194    8.11178         20  
   11.9966    18.5372         20  
   11.8883    17.9202         20  
   1.46283    11.9966         20  
   2.07983    11.8883         20  
   19.2682    8.37676         20  
   11.6233    19.2686         20  
  0.731413    11.6233         20  
   13.3144     8.1943         20  
   6.58657    12.0125         20  
   11.8124     13.287         20  
   8.08124    6.34254         20  
   8.69868    13.4686         20  
   11.3576    6.43723         20  
   6.42316    8.63313         20  
   13.6196     11.448         20  
    6.5371    7.79344         20  
   7.61186    8.51566         20  
    7.6029    9.85077         20  
   8.59798     9.4393         20  
   8.42637    10.8111         20  
   9.21034     10.086         20  
   10.1111    9.04121         20  
   10.9074    10.2483         20  
   9.97168    11.2731         20  
   11.1756    8.81725         20  
   11.7117    9.50291         20  
   10.1998    7.57675         20  
     8.787    8.59144         20  
   8.98303    11.4644         20  
   9.81362    12.6087         20  
   11.2775    12.0365         20  
   11.5192    10.9039         20  
   7.67412    11.7404         20  
   12.5216    11.7364         20  
   12.4646    8.82274         20  
   11.5788    7.83535         20  
   10.1573    6.32879         20  
   12.6865    7.22876         20  
   6.29135    9.81799         20  
   12.5523     10.474         20  
   13.7541    10.2952         20  
   12.7528    12.7508         20  
   7.55852    7.27407         20  
   8.82581    12.2906         20  
   9.82647     13.711         20  
   7.65657    13.0992         20  
    7.1406    10.8252         20  
   12.9306    9.45051         20  
   13.5627    12.2368         20  
   8.94462    7.44167         20  
   6.34386     10.979         20  
   13.6799    9.18143         20  
   10.5956    12.7953         20  
   10.8756    13.6214         20  
   6.90599    12.8567         20  
   12.1788    6.47214         20  
   8.94129    6.32001         20  
   10.7575    6.38301         20  
   11.4682    7.13629         20  
   10.8893    7.70605         20  
   10.1786    6.95277         20  
   10.8234    7.04453         20  
   11.3259     5.8038         20  
   10.0787    5.66439         20  
   10.7051    5.71289         20  
   9.26258    13.5898         20  
   8.76225    12.8796         20  
   9.31972    12.4497         20  
   9.82004    13.1599         20  
   9.29115    13.0197         20  
   11.5449    12.6618         20  
   11.8995    11.8865         20  
   12.6372    12.2436         20  
   12.2826    13.0189         20  
   12.0911    12.4527         20  
   7.79062     6.0062         20  
   7.81988     6.8083         20  
   7.01149    6.86927         20  
   7.38804    6.42077         20  
   13.0004    7.71153         20  
    13.111    6.84661         20  
   13.8222    7.84715         20  
   13.4836    7.33386         20  
   8.70229    14.1491         20  
   9.91324    14.3555         20  
   9.30497    14.2735         20  
   14.2246     11.371         20  
   13.6868    10.8716         20  
    14.377    10.1476         20  
    14.322    10.7621         20  
   11.2133    10.5761         20  
   11.3983    11.4702         20  
   10.6246    11.6548         20  
   10.4396    10.7607         20  
   10.9189    11.1154         20  
   8.17763    13.2839         20  
   7.57828    13.7147         20  
    8.1321    13.9516         20  
   11.3096    9.87559         20  
   10.5093    9.64474         20  
   10.6433    8.92923         20  
   11.4437    9.16008         20  
   10.9765    9.40241         20  
   9.59101    10.6795         20  
   9.66071    9.56362         20  
   10.0501    10.1621         20  
   9.47736    11.3687         20  
    8.7047    11.1377         20  
   8.81836    10.4486         20  
   9.14786    10.9086         20  
   9.44904    8.81633         20  
   8.90416    9.76267         20  
   8.69249    9.01537         20  
    9.1766     9.2895         20  
   8.01464    10.3309         20  
   8.10044    9.64504         20  
    8.4594    10.0468         20  
   7.60738    9.18322         20  
   8.19943    8.55355         20  
   8.14994     9.0993         20  
   8.86581    8.01656         20  
   7.58519    7.89486         20  
   8.25157    7.35787         20  
    8.2255    7.95571         20  
   5.79677    8.66952         20  
   6.35725    9.22556         20  
   5.64567    9.90899         20  
   5.70001    9.28646         20  
   10.1555    8.30898         20  
   11.3772     8.3263         20  
   10.7663    8.31764         20  
   9.89265    11.9409         20  
   8.90442    11.8775         20  
   9.39854    11.9092         20  
   12.0357    10.6889         20  
   12.5369    11.1052         20  
   11.9676    11.2877         20  
   12.1562    13.8086         20  
   13.1442    13.1432         20  
   12.6632    13.4928         20  
   12.8895    8.50852         20  
   12.0217    8.32904         20  
   12.1326    7.53205         20  
    12.511    8.02029         20  
   6.94713    9.83438         20  
   7.01751     8.5744         20  
   6.98232    9.20439         20  
    12.132    9.98845         20  
   11.6726    10.2823         20  
   12.0882    9.16283         20  
   11.7327    8.74456         20  
   11.7682    6.45469         20  
   12.4326    6.85045         20  
   11.9504    6.99337         20  
   13.1532    10.3846         20  
   13.0706    11.5922         20  
   13.1119    10.9884         20  
   7.37175     10.338         20  
   6.74223    10.9021         20  
    6.3176    10.3985         20  
   6.84468    10.3682         20  
   9.57224    7.50921         20  
   9.51064    8.16277         20  
   7.04781    7.53375         20  
   6.10348    7.64672         20  
   6.54052    7.24497         20  
   6.48013    8.21329         20  
   5.93037    8.14993         20  
   7.40736    11.2828         20  
   8.05025    11.2757         20  
     7.711    10.8069         20  
   8.24997    12.0155         20  
   8.47733    11.5766         20  
   7.13034    11.8765         20  
   7.66534    12.4198         20  
   7.28128     12.978         20  
   6.74628    12.4346         20  
   7.20581    12.4272         20  
    9.5493     6.3244         20  
    8.8236    5.74519         20  
   9.44834    5.68359         20  
   10.9365    12.4159         20  
   10.2046     12.702         20  
   10.4146    12.1784         20  
   13.9464    12.3684         20  
   13.5912    11.8424         20  
   14.1053    11.8779         20  
   7.03266    8.05407         20  
   5.75711    11.1365         20  
   6.46521    11.4958         20  
   6.12822    12.2563         20  
   5.92291    11.7046         20  
    8.2138    12.6497         20  
   14.2548    8.94367         20  
   13.4971    8.68787         20  
   14.0583    8.38722         20  
    10.351    13.6662         20  
   11.0849    14.2255         20  
   10.5018    14.3117         20  
    11.344    13.4542         20  
   11.6287    14.0368         20  
   6.68523    13.1961         20  
   6.38976    12.7392         20  
   12.3394    6.07101         20  
   11.8408    5.91764         20  
   8.51127    6.33127         20  
   8.29892    5.85594         20  
   12.7382    6.44184         20  
   12.7414    9.96225         20  
   13.3052    9.31597         20  
    13.717    9.73832         20  
   13.2292    9.85029         20  
   14.3371    9.54285         20  
   12.6976    9.13663         20  
   12.4148    9.56254         20  
   5.68019    10.5256         20  
   7.11874    13.4724         20  
   13.1577    12.4938         20  
   13.5623    12.7688         20  
   6.93628    11.3893         20  
   13.1142     12.043         20  
   8.94296    6.88084         20  
   8.38142    6.84457         20  
   9.56077     6.9168         20  
   13.0973    8.91225         20  
   10.7356    13.2083         20  
   11.1403    12.9351         20  
   10.2778    13.1841         20  
   5.46438    5.67838          4  
   5.46438    5.67838          8  
   5.46438    5.67838         12  
   5.46438    5.67838         16  
   14.2839     5.4816          4  
   14.2839     5.4816          8  
   14.2839     5.4816         12  
   14.2839     5.4816         16  
   5.68467    14.5468          4  
   5.68467    14.5468          8  
   5.68467    14.5468         12  
   5.68467    14.5468         16  
   14.5468    14.3153          4  
   14.5468    14.3153          8  
   14.5468    14.3153         12  
   14.5468    14.3153         16  
   15.8262    7.94727          4  
   15.8262    7.94727          8  
   15.8262    7.94727         12  
   15.8262    7.94727         16  
    8.0407    3.71663          4  
    8.0407    3.71663          8  
    8.0407    3.71663         12  
    8.0407    3.71663         16  
   12.0525    15.8274          4  
   12.0525    15.8274          8  
   12.0525    15.8274         12  
   12.0525    15.8274         16  
   4.17262    12.0525          4  
   4.17262    12.0525          8  
   4.17262    12.0525         12  
   4.17262    12.0525         16  
   16.3771    11.4292          4  
   16.3771    11.4292          8  
   16.3771    11.4292         12  
   16.3771    11.4292         16  
   8.57078    16.3772          4  
   8.57078    16.3772          8  
   8.57078    16.3772         12  
   8.57078    16.3772         16  
   11.6431    4.20044          4  
   11.6431    4.20044          8  
   11.6431    4.20044         12  
   11.6431    4.20044         16  
   3.62325    8.57019          4  
   3.62325    8.57019          8  
   3.62325    8.57019         12  
   3.62325    8.57019         16  
   2.45694    16.1952          4  
   2.45694    16.1952          8  
   2.45694    16.1952         12  
   2.45694    16.1952         16  
   3.87766    2.53454          4  
   3.87766    2.53454          8  
   3.87766    2.53454         12  
   3.87766    2.53454         16  
   16.1952    17.5431          4  
   16.1952    17.5431          8  
   16.1952    17.5431         12  
   16.1952    17.5431         16  
   17.5021    3.81603          4  
   17.5021    3.81603          8  
   17.5021    3.81603         12  
   17.5021    3.81603         16  
   1.55256    6.37525          4  
   1.55256    6.37525          8  
   1.55256    6.37525         12  
   1.55256    6.37525         16  
   12.6567    1.55753          4  
   12.6567    1.55753          8  
   12.6567    1.55753         12  
   12.6567    1.55753         16  
   6.37586    18.4474          4  
   6.37586    18.4474          8  
   6.37586    18.4474         12  
   6.37586    18.4474         16  
   18.4474    13.6241          4  
   18.4474    13.6241          8  
   18.4474    13.6241         12  
   18.4474    13.6241         16  
   13.4422    15.2423          4  
   13.4422    15.2423          8  
   13.4422    15.2423         12  
   13.4422    15.2423         16  
   12.5994    17.0873          4  
   12.5994    17.0873          8  
   12.5994    17.0873         12  
   12.5994    17.0873         16  
   10.9607    17.5191          4  
   10.9607    17.5191          8  
   10.9607    17.5191         12  
   10.9607    17.5191         16  
   15.7062    15.3335          4  
   15.7062    15.3335          8  
   15.7062    15.3335         12  
   15.7062    15.3335         16  
    4.7577    13.4422          4  
    4.7577    13.4422          8  
    4.7577    13.4422         12  
    4.7577    13.4422         16  
   2.91273    12.5993          4  
   2.91273    12.5993          8  
   2.91273    12.5993         12  
   2.91273    12.5993         16  
   2.48095    10.9606          4  
   2.48095    10.9606          8  
   2.48095    10.9606         12  
   2.48095    10.9606         16  
   4.66651    15.7062          4  
   4.66651    15.7062          8  
   4.66651    15.7062         12  
   4.66651    15.7062         16  
   15.2328     6.5622          4  
   15.2328     6.5622          8  
   15.2328     6.5622         12  
   15.2328     6.5622         16  
    17.086    7.40086          4  
    17.086    7.40086          8  
    17.086    7.40086         12  
    17.086    7.40086         16  
   17.5187    9.03923          4  
   17.5187    9.03923          8  
   17.5187    9.03923         12  
   17.5187    9.03923         16  
   15.2614    4.33536          4  
   15.2614    4.33536          8  
   15.2614    4.33536         12  
   15.2614    4.33536         16  
   10.0651    3.91035          4  
   10.0651    3.91035          8  
   10.0651    3.91035         12  
   10.0651    3.91035         16  
   6.52675    4.65573          4  
   6.52675    4.65573          8  
   6.52675    4.65573         12  
   6.52675    4.65573         16  
   4.33329    4.68205          4  
   4.33329    4.68205          8  
   4.33329    4.68205         12  
   4.33329    4.68205         16  
   13.0718    4.72126          4  
   13.0718    4.72126          8  
   13.0718    4.72126         12  
   13.0718    4.72126         16  
   15.4398    13.1226          4  
   15.4398    13.1226          8  
   15.4398    13.1226         12  
   15.4398    13.1226         16  
   4.56515     6.8767          4  
   4.56515     6.8767          8  
   4.56515     6.8767         12  
   4.56515     6.8767         16  
   6.87738    15.4398          4  
   6.87738    15.4398          8  
   6.87738    15.4398         12  
   6.87738    15.4398         16  
   10.4228    2.66937          4  
   10.4228    2.66937          8  
   10.4228    2.66937         12  
   10.4228    2.66937         16  
   1.84107    4.27132          4  
   1.84107    4.27132          8  
   1.84107    4.27132         12  
   1.84107    4.27132         16  
   15.5012    1.92064          4  
   15.5012    1.92064          8  
   15.5012    1.92064         12  
   15.5012    1.92064         16  
   4.27141     18.159          4  
   4.27141     18.159          8  
   4.27141     18.159         12  
   4.27141     18.159         16  
    18.159    15.7286          4  
    18.159    15.7286          8  
    18.159    15.7286         12  
    18.159    15.7286         16  
    8.1527    18.4356          4  
    8.1527    18.4356          8  
    8.1527    18.4356         12  
    8.1527    18.4356         16  
   18.4356    11.8473          4  
   18.4356    11.8473          8  
   18.4356    11.8473         12  
   18.4356    11.8473         16  
   1.56449    8.15236          4  
   1.56449    8.15236          8  
   1.56449    8.15236         12  
   1.56449    8.15236         16  
   8.70875    2.22835          4  
   8.70875    2.22835          8  
   8.70875    2.22835         12  
   8.70875    2.22835         16  
   12.2339    2.98353          4  
   12.2339    2.98353          8  
   12.2339    2.98353         12  
   12.2339    2.98353         16  
     3.822    10.4529          4  
     3.822    10.4529          8  
     3.822    10.4529         12  
     3.822    10.4529         16  
    10.453     16.178          4  
    10.453     16.178          8  
    10.453     16.178         12  
    10.453     16.178         16  
   16.1777    9.54698          4  
   16.1777    9.54698          8  
   16.1777    9.54698         12  
   16.1777    9.54698         16  
   1.93078    9.34869          4  
   1.93078    9.34869          8  
   1.93078    9.34869         12  
   1.93078    9.34869         16  
   18.0692     10.651          4  
   18.0692     10.651          8  
   18.0692     10.651         12  
   18.0692     10.651         16  
   9.34893    18.0693          4  
   9.34893    18.0693          8  
   9.34893    18.0693         12  
   9.34893    18.0693         16  
   13.9009    3.54462          4  
   13.9009    3.54462          8  
   13.9009    3.54462         12  
   13.9009    3.54462         16  
   3.37442    5.88696          4  
   3.37442    5.88696          8  
   3.37442    5.88696         12  
   3.37442    5.88696         16  
    16.635    14.1155          4  
    16.635    14.1155          8  
    16.635    14.1155         12  
    16.635    14.1155         16  
    5.8845     16.635          4  
    5.8845     16.635          8  
    5.8845     16.635         12  
    5.8845     16.635         16  
   18.3129    5.93358          4  
   18.3129    5.93358          8  
   18.3129    5.93358         12  
   18.3129    5.93358         16  
   14.0674    18.3174          4  
   14.0674    18.3174          8  
   14.0674    18.3174         12  
   14.0674    18.3174         16  
    6.4752    2.28369          4  
    6.4752    2.28369          8  
    6.4752    2.28369         12  
    6.4752    2.28369         16  
   1.68255    14.0674          4  
   1.68255    14.0674          8  
   1.68255    14.0674         12  
   1.68255    14.0674         16  
   2.07063    2.28376          4  
   2.07063    2.28376          8  
   2.07063    2.28376         12  
   2.07063    2.28376         16  
   17.6802    2.07343          4  
   17.6802    2.07343          8  
   17.6802    2.07343         12  
   17.6802    2.07343         16  
   2.27015    17.9425          4  
   2.27015    17.9425          8  
   2.27015    17.9425         12  
   2.27015    17.9425         16  
   17.9425    17.7298          4  
   17.9425    17.7298          8  
   17.9425    17.7298         12  
   17.9425    17.7298         16  
   10.9822    1.35749          4  
   10.9822    1.35749          8  
   10.9822    1.35749         12  
   10.9822    1.35749         16  
   3.34813    14.8446          4  
   3.34813    14.8446          8  
   3.34813    14.8446         12  
   3.34813    14.8446         16  
   5.34807     3.4654          4  
   5.34807     3.4654          8  
   5.34807     3.4654         12  
   5.34807     3.4654         16  
   14.8446    16.6519          4  
   14.8446    16.6519          8  
   14.8446    16.6519         12  
   14.8446    16.6519         16  
   16.6488    5.15733          4  
   16.6488    5.15733          8  
   16.6488    5.15733         12  
   16.6488    5.15733         16  
   18.5689    8.67145          4  
   18.5689    8.67145          8  
   18.5689    8.67145         12  
   18.5689    8.67145         16  
   11.3285    18.5692          4  
   11.3285    18.5692          8  
   11.3285    18.5692         12  
   11.3285    18.5692         16  
   1.43082    11.3285          4  
   1.43082    11.3285          8  
   1.43082    11.3285         12  
   1.43082    11.3285         16  
   16.0888    3.43194          4  
   16.0888    3.43194          8  
   16.0888    3.43194         12  
   16.0888    3.43194         16  
   16.6139    16.1893          4  
   16.6139    16.1893          8  
   16.6139    16.1893         12  
   16.6139    16.1893         16  
   3.43114    3.84328          4  
   3.43114    3.84328          8  
   3.43114    3.84328         12  
   3.43114    3.84328         16  
   3.81067    16.6139          4  
   3.81067    16.6139          8  
   3.81067    16.6139         12  
   3.81067    16.6139         16  
    7.1771    17.6102          4  
    7.1771    17.6102          8  
    7.1771    17.6102         12  
    7.1771    17.6102         16  
   2.39152    7.17696          4  
   2.39152    7.17696          8  
   2.39152    7.17696         12  
   2.39152    7.17696         16  
   17.6102    12.8229          4  
   17.6102    12.8229          8  
   17.6102    12.8229         12  
   17.6102    12.8229         16  
    18.504    7.33558          4  
    18.504    7.33558          8  
    18.504    7.33558         12  
    18.504    7.33558         16  
   12.6647    18.5052          4  
   12.6647    18.5052          8  
   12.6647    18.5052         12  
   12.6647    18.5052         16  
   1.49483    12.6647          4  
   1.49483    12.6647          8  
   1.49483    12.6647         12  
   1.49483    12.6647         16  
   7.47492     1.5879          4  
   7.47492     1.5879          8  
   7.47492     1.5879         12  
   7.47492     1.5879         16  
   9.07917    1.35221          4  
   9.07917    1.35221          8  
   9.07917    1.35221         12  
   9.07917    1.35221         16  
   15.5012    1.92064          2  
   13.9009    3.54462          2  
   12.2339    2.98353          2  
   12.6567    1.55753          2  
    14.701    2.73263          4  
   14.0789    1.73908          4  
   13.0674    3.26408          4  
   12.4453    2.27053          4  
    14.701    2.73263          2  
   14.0789    1.73908          2  
   13.0674    3.26408          2  
   12.4453    2.27053          2  
   13.5732    2.50158          4  
   13.5732    2.50158          2  
   15.5012    1.92064          6  
   13.9009    3.54462          6  
   12.2339    2.98353          6  
   12.6567    1.55753          6  
    14.701    2.73263          8  
   14.0789    1.73908          8  
   13.0674    3.26408          8  
   12.4453    2.27053          8  
    14.701    2.73263          6  
   14.0789    1.73908          6  
   13.0674    3.26408          6  
   12.4453    2.27053          6  
   13.5732    2.50158          8  
   13.5732    2.50158          6  
   15.5012    1.92064         10  
   13.9009    3.54462         10  
   12.2339    2.98353         10  
   12.6567    1.55753         10  
    14.701    2.73263         12  
   14.0789    1.73908         12  
   13.0674    3.26408         12  
   12.4453    2.27053         12  
    14.701    2.73263         10  
   14.0789    1.73908         10  
   13.0674    3.26408         10  
   12.4453    2.27053         10  
   13.5732    2.50158         12  
   13.5732    2.50158         10  
   15.5012    1.92064         14  
   13.9009    3.54462         14  
   12.2339    2.98353         14  
   12.6567    1.55753         14  
    14.701    2.73263         16  
   14.0789    1.73908         16  
   13.0674    3.26408         16  
   12.4453    2.27053         16  
    14.701    2.73263         14  
   14.0789    1.73908         14  
   13.0674    3.26408         14  
   12.4453    2.27053         14  
   13.5732    2.50158         16  
   13.5732    2.50158         14  
   15.5012    1.92064         18  
   13.9009    3.54462         18  
   12.2339    2.98353         18  
   12.6567    1.55753         18  
    14.701    2.73263         18  
   14.0789    1.73908         18  
   13.0674    3.26408         18  
   12.4453    2.27053         18  
   13.5732    2.50158         18  
   18.0692     10.651          2  
   18.4356    11.8473          2  
   17.6102    12.8229          2  
   16.3771    11.4292          2  
   18.2524    11.2492          4  
   17.2232    11.0401          4  
   18.0229    12.3351          4  
   16.9937    12.1261          4  
   18.2524    11.2492          2  
   17.2232    11.0401          2  
   18.0229    12.3351          2  
   16.9937    12.1261          2  
    17.623    11.6876          4  
    17.623    11.6876          2  
   18.0692     10.651          6  
   18.4356    11.8473          6  
   17.6102    12.8229          6  
   16.3771    11.4292          6  
   18.2524    11.2492          8  
   17.2232    11.0401          8  
   18.0229    12.3351          8  
   16.9937    12.1261          8  
   18.2524    11.2492          6  
   17.2232    11.0401          6  
   18.0229    12.3351          6  
   16.9937    12.1261          6  
    17.623    11.6876          8  
    17.623    11.6876          6  
   18.0692     10.651         10  
   18.4356    11.8473         10  
   17.6102    12.8229         10  
   16.3771    11.4292         10  
   18.2524    11.2492         12  
   17.2232    11.0401         12  
   18.0229    12.3351         12  
   16.9937    12.1261         12  
   18.2524    11.2492         10  
   17.2232    11.0401         10  
   18.0229    12.3351         10  
   16.9937    12.1261         10  
    17.623    11.6876         12  
    17.623    11.6876         10  
   18.0692     10.651         14  
   18.4356    11.8473         14  
   17.6102    12.8229         14  
   16.3771    11.4292         14  
   18.2524    11.2492         16  
   17.2232    11.0401         16  
   18.0229    12.3351         16  
   16.9937    12.1261         16  
   18.2524    11.2492         14  
   17.2232    11.0401         14  
   18.0229    12.3351         14  
   16.9937    12.1261         14  
    17.623    11.6876         16  
    17.623    11.6876         14  
   18.0692     10.651         18  
   18.4356    11.8473         18  
   17.6102    12.8229         18  
   16.3771    11.4292         18  
   18.2524    11.2492         18  
   17.2232    11.0401         18  
   18.0229    12.3351         18  
   16.9937    12.1261         18  
    17.623    11.6876         18  
   9.34893    18.0693          2  
    8.1527    18.4356          2  
    7.1771    17.6102          2  
   8.57078    16.3772          2  
   8.75082    18.2525          4  
   8.95985    17.2232          4  
    7.6649    18.0229          4  
   7.87394    16.9937          4  
   8.75082    18.2525          2  
   8.95985    17.2232          2  
    7.6649    18.0229          2  
   7.87394    16.9937          2  
   8.31238    17.6231          4  
   8.31238    17.6231          2  
   9.34893    18.0693          6  
    8.1527    18.4356          6  
    7.1771    17.6102          6  
   8.57078    16.3772          6  
   8.75082    18.2525          8  
   8.95985    17.2232          8  
    7.6649    18.0229          8  
   7.87394    16.9937          8  
   8.75082    18.2525          6  
   8.95985    17.2232          6  
    7.6649    18.0229          6  
   7.87394    16.9937          6  
   8.31238    17.6231          8  
   8.31238    17.6231          6  
   9.34893    18.0693         10  
    8.1527    18.4356         10  
    7.1771    17.6102         10  
   8.57078    16.3772         10  
   8.75082    18.2525         12  
   8.95985    17.2232         12  
    7.6649    18.0229         12  
   7.87394    16.9937         12  
   8.75082    18.2525         10  
   8.95985    17.2232         10  
    7.6649    18.0229         10  
   7.87394    16.9937         10  
   8.31238    17.6231         12  
   8.31238    17.6231         10  
   9.34893    18.0693         14  
    8.1527    18.4356         14  
    7.1771    17.6102         14  
   8.57078    16.3772         14  
   8.75082    18.2525         16  
   8.95985    17.2232         16  
    7.6649    18.0229         16  
   7.87394    16.9937         16  
   8.75082    18.2525         14  
   8.95985    17.2232         14  
    7.6649    18.0229         14  
   7.87394    16.9937         14  
   8.31238    17.6231         16  
   8.31238    17.6231         14  
   9.34893    18.0693         18  
    8.1527    18.4356         18  
    7.1771    17.6102         18  
   8.57078    16.3772         18  
   8.75082    18.2525         18  
   8.95985    17.2232         18  
    7.6649    18.0229         18  
   7.87394    16.9937         18  
   8.31238    17.6231         18  
   1.93078    9.34869          2  
   1.56449    8.15236          2  
   2.39152    7.17696          2  
   3.62325    8.57019          2  
   1.74764    8.75053          4  
   2.77702    8.95944          4  
     1.978    7.66466          4  
   3.00738    7.87357          4  
   1.74764    8.75053          2  
   2.77702    8.95944          2  
     1.978    7.66466          2  
   3.00738    7.87357          2  
   2.37751    8.31205          4  
   2.37751    8.31205          2  
   1.93078    9.34869          6  
   1.56449    8.15236          6  
   2.39152    7.17696          6  
   3.62325    8.57019          6  
   1.74764    8.75053          8  
   2.77702    8.95944          8  
     1.978    7.66466          8  
   3.00738    7.87357          8  
   1.74764    8.75053          6  
   2.77702    8.95944          6  
     1.978    7.66466          6  
   3.00738    7.87357          6  
   2.37751    8.31205          8  
   2.37751    8.31205          6  
   1.93078    9.34869         10  
   1.56449    8.15236         10  
   2.39152    7.17696         10  
   3.62325    8.57019         10  
   1.74764    8.75053         12  
   2.77702    8.95944         12  
     1.978    7.66466         12  
   3.00738    7.87357         12  
   1.74764    8.75053         10  
   2.77702    8.95944         10  
     1.978    7.66466         10  
   3.00738    7.87357         10  
   2.37751    8.31205         12  
   2.37751    8.31205         10  
   1.93078    9.34869         14  
   1.56449    8.15236         14  
   2.39152    7.17696         14  
   3.62325    8.57019         14  
   1.74764    8.75053         16  
   2.77702    8.95944         16  
     1.978    7.66466         16  
   3.00738    7.87357         16  
   1.74764    8.75053         14  
   2.77702    8.95944         14  
     1.978    7.66466         14  
   3.00738    7.87357         14  
   2.37751    8.31205         16  
   2.37751    8.31205         14  
   1.93078    9.34869         18  
   1.56449    8.15236         18  
   2.39152    7.17696         18  
   3.62325    8.57019         18  
   1.74764    8.75053         18  
   2.77702    8.95944         18  
     1.978    7.66466         18  
   3.00738    7.87357         18  
   2.37751    8.31205         18  
   1.84107    4.27132          2  
   1.55256    6.37525          2  
  0.776279    6.93762          4  
  0.920533    4.63566          4  
   1.69681    5.32328          4  
  0.776279    6.93762          2  
  0.920533    4.63566          2  
   1.69681    5.32328          2  
  0.848406    5.78664          4  
  0.848406    5.78664          2  
   1.84107    4.27132          6  
   1.55256    6.37525          6  
  0.776279    6.93762          8  
  0.920533    4.63566          8  
   1.69681    5.32328          8  
  0.776279    6.93762          6  
  0.920533    4.63566          6  
   1.69681    5.32328          6  
  0.848406    5.78664          8  
  0.848406    5.78664          6  
   1.84107    4.27132         10  
   1.55256    6.37525         10  
  0.776279    6.93762         12  
  0.920533    4.63566         12  
   1.69681    5.32328         12  
  0.776279    6.93762         10  
  0.920533    4.63566         10  
   1.69681    5.32328         10  
  0.848406    5.78664         12  
  0.848406    5.78664         10  
   1.84107    4.27132         14  
   1.55256    6.37525         14  
  0.776279    6.93762         16  
  0.920533    4.63566         16  
   1.69681    5.32328         16  
  0.776279    6.93762         14  
  0.920533    4.63566         14  
   1.69681    5.32328         14  
  0.848406    5.78664         16  
  0.848406    5.78664         14  
   1.84107    4.27132         18  
   1.55256    6.37525         18  
  0.776279    6.93762         18  
  0.920533    4.63566         18  
   1.69681    5.32328         18  
  0.848406    5.78664         18  
   12.5784   0.778765          4  
   15.2506   0.960319          4  
   12.5784   0.778765          2  
   15.2506   0.960319          2  
   13.9145   0.869542          4  
   13.9145   0.869542          2  
   12.5784   0.778765          8  
   15.2506   0.960319          8  
   12.5784   0.778765          6  
   15.2506   0.960319          6  
   13.9145   0.869542          8  
   13.9145   0.869542          6  
   12.5784   0.778765         12  
   15.2506   0.960319         12  
   12.5784   0.778765         10  
   15.2506   0.960319         10  
   13.9145   0.869542         12  
   13.9145   0.869542         10  
   12.5784   0.778765         16  
   15.2506   0.960319         16  
   12.5784   0.778765         14  
   15.2506   0.960319         14  
   13.9145   0.869542         16  
   13.9145   0.869542         14  
   12.5784   0.778765         18  
   15.2506   0.960319         18  
   13.9145   0.869542         18  
   4.27141     18.159          2  
   6.37586    18.4474          2  
   6.93793    19.2237          4  
    4.6357    19.0795          4  
   5.32363    18.3032          4  
   6.93793    19.2237          2  
    4.6357    19.0795          2  
   5.32363    18.3032          2  
   5.78682    19.1516          4  
   5.78682    19.1516          2  
   4.27141     18.159          6  
   6.37586    18.4474          6  
   6.93793    19.2237          8  
    4.6357    19.0795          8  
   5.32363    18.3032          8  
   6.93793    19.2237          6  
    4.6357    19.0795          6  
   5.32363    18.3032          6  
   5.78682    19.1516          8  
   5.78682    19.1516          6  
   4.27141     18.159         10  
   6.37586    18.4474         10  
   6.93793    19.2237         12  
    4.6357    19.0795         12  
   5.32363    18.3032         12  
   6.93793    19.2237         10  
    4.6357    19.0795         10  
   5.32363    18.3032         10  
   5.78682    19.1516         12  
   5.78682    19.1516         10  
   4.27141     18.159         14  
   6.37586    18.4474         14  
   6.93793    19.2237         16  
    4.6357    19.0795         16  
   5.32363    18.3032         16  
   6.93793    19.2237         14  
    4.6357    19.0795         14  
   5.32363    18.3032         14  
   5.78682    19.1516         16  
   5.78682    19.1516         14  
   4.27141     18.159         18  
   6.37586    18.4474         18  
   6.93793    19.2237         18  
    4.6357    19.0795         18  
   5.32363    18.3032         18  
   5.78682    19.1516         18  
    18.159    15.7286          2  
   18.4474    13.6241          2  
   19.2237    13.0621          4  
   19.0795    15.3643          4  
   18.3032    14.6764          4  
   19.2237    13.0621          2  
   19.0795    15.3643          2  
   18.3032    14.6764          2  
   19.1516    14.2132          4  
   19.1516    14.2132          2  
    18.159    15.7286          6  
   18.4474    13.6241          6  
   19.2237    13.0621          8  
   19.0795    15.3643          8  
   18.3032    14.6764          8  
   19.2237    13.0621          6  
   19.0795    15.3643          6  
   18.3032    14.6764          6  
   19.1516    14.2132          8  
   19.1516    14.2132          6  
    18.159    15.7286         10  
   18.4474    13.6241         10  
   19.2237    13.0621         12  
   19.0795    15.3643         12  
   18.3032    14.6764         12  
   19.2237    13.0621         10  
   19.0795    15.3643         10  
   18.3032    14.6764         10  
   19.1516    14.2132         12  
   19.1516    14.2132         10  
    18.159    15.7286         14  
   18.4474    13.6241         14  
   19.2237    13.0621         16  
   19.0795    15.3643         16  
   18.3032    14.6764         16  
   19.2237    13.0621         14  
   19.0795    15.3643         14  
   18.3032    14.6764         14  
   19.1516    14.2132         16  
   19.1516    14.2132         14  
    18.159    15.7286         18  
   18.4474    13.6241         18  
   19.2237    13.0621         18  
   19.0795    15.3643         18  
   18.3032    14.6764         18  
   19.1516    14.2132         18  
   5.68467    14.5468          2  
   4.66651    15.7062          2  
   3.34813    14.8446          2  
    4.7577    13.4422          2  
   5.17559    15.1265          4  
   5.22119    13.9945          4  
   4.00732    15.2754          4  
   4.05292    14.1434          4  
   5.17559    15.1265          2  
   5.22119    13.9945          2  
   4.00732    15.2754          2  
   4.05292    14.1434          2  
   4.61425    14.6349          4  
   4.61425    14.6349          2  
   5.68467    14.5468          6  
   4.66651    15.7062          6  
   3.34813    14.8446          6  
    4.7577    13.4422          6  
   5.17559    15.1265          8  
   5.22119    13.9945          8  
   4.00732    15.2754          8  
   4.05292    14.1434          8  
   5.17559    15.1265          6  
   5.22119    13.9945          6  
   4.00732    15.2754          6  
   4.05292    14.1434          6  
   4.61425    14.6349          8  
   4.61425    14.6349          6  
   5.68467    14.5468         10  
   4.66651    15.7062         10  
   3.34813    14.8446         10  
    4.7577    13.4422         10  
   5.17559    15.1265         12  
   5.22119    13.9945         12  
   4.00732    15.2754         12  
   4.05292    14.1434         12  
   5.17559    15.1265         10  
   5.22119    13.9945         10  
   4.00732    15.2754         10  
   4.05292    14.1434         10  
   4.61425    14.6349         12  
   4.61425    14.6349         10  
   5.68467    14.5468         14  
   4.66651    15.7062         14  
   3.34813    14.8446         14  
    4.7577    13.4422         14  
   5.17559    15.1265         16  
   5.22119    13.9945         16  
   4.00732    15.2754         16  
   4.05292    14.1434         16  
   5.17559    15.1265         14  
   5.22119    13.9945         14  
   4.00732    15.2754         14  
   4.05292    14.1434         14  
   4.61425    14.6349         16  
   4.61425    14.6349         14  
   5.68467    14.5468         18  
   4.66651    15.7062         18  
   3.34813    14.8446         18  
    4.7577    13.4422         18  
   5.17559    15.1265         18  
   5.22119    13.9945         18  
   4.00732    15.2754         18  
   4.05292    14.1434         18  
   4.61425    14.6349         18  
   5.46438    5.67838          2  
   4.33329    4.68205          2  
   5.34807     3.4654          2  
   6.52675    4.65573          2  
   4.89883    5.18021          4  
   5.99556    5.16705          4  
   4.84068    4.07372          4  
   5.93741    4.06056          4  
   4.89883    5.18021          2  
   5.99556    5.16705          2  
   4.84068    4.07372          2  
   5.93741    4.06056          2  
   5.41812    4.62039          4  
   5.41812    4.62039          2  
   5.46438    5.67838          6  
   4.33329    4.68205          6  
   5.34807     3.4654          6  
   6.52675    4.65573          6  
   4.89883    5.18021          8  
   5.99556    5.16705          8  
   4.84068    4.07372          8  
   5.93741    4.06056          8  
   4.89883    5.18021          6  
   5.99556    5.16705          6  
   4.84068    4.07372          6  
   5.93741    4.06056          6  
   5.41812    4.62039          8  
   5.41812    4.62039          6  
   5.46438    5.67838         10  
   4.33329    4.68205         10  
   5.34807     3.4654         10  
   6.52675    4.65573         10  
   4.89883    5.18021         12  
   5.99556    5.16705         12  
   4.84068    4.07372         12  
   5.93741    4.06056         12  
   4.89883    5.18021         10  
   5.99556    5.16705         10  
   4.84068    4.07372         10  
   5.93741    4.06056         10  
   5.41812    4.62039         12  
   5.41812    4.62039         10  
   5.46438    5.67838         14  
   4.33329    4.68205         14  
   5.34807     3.4654         14  
   6.52675    4.65573         14  
   4.89883    5.18021         16  
   5.99556    5.16705         16  
   4.84068    4.07372         16  
   5.93741    4.06056         16  
   4.89883    5.18021         14  
   5.99556    5.16705         14  
   4.84068    4.07372         14  
   5.93741    4.06056         14  
   5.41812    4.62039         16  
   5.41812    4.62039         14  
   5.46438    5.67838         18  
   4.33329    4.68205         18  
   5.34807     3.4654         18  
   6.52675    4.65573         18  
   4.89883    5.18021         18  
   5.99556    5.16705         18  
   4.84068    4.07372         18  
   5.93741    4.06056         18  
   5.41812    4.62039         18  
   14.5468    14.3153          2  
   15.7062    15.3335          2  
   14.8446    16.6519          2  
   13.4422    15.2423          2  
   15.1265    14.8244          4  
   13.9945    14.7788          4  
   15.2754    15.9927          4  
   14.1434    15.9471          4  
   15.1265    14.8244          2  
   13.9945    14.7788          2  
   15.2754    15.9927          2  
   14.1434    15.9471          2  
   14.6349    15.3857          4  
   14.6349    15.3857          2  
   14.5468    14.3153          6  
   15.7062    15.3335          6  
   14.8446    16.6519          6  
   13.4422    15.2423          6  
   15.1265    14.8244          8  
   13.9945    14.7788          8  
   15.2754    15.9927          8  
   14.1434    15.9471          8  
   15.1265    14.8244          6  
   13.9945    14.7788          6  
   15.2754    15.9927          6  
   14.1434    15.9471          6  
   14.6349    15.3857          8  
   14.6349    15.3857          6  
   14.5468    14.3153         10  
   15.7062    15.3335         10  
   14.8446    16.6519         10  
   13.4422    15.2423         10  
   15.1265    14.8244         12  
   13.9945    14.7788         12  
   15.2754    15.9927         12  
   14.1434    15.9471         12  
   15.1265    14.8244         10  
   13.9945    14.7788         10  
   15.2754    15.9927         10  
   14.1434    15.9471         10  
   14.6349    15.3857         12  
   14.6349    15.3857         10  
   14.5468    14.3153         14  
   15.7062    15.3335         14  
   14.8446    16.6519         14  
   13.4422    15.2423         14  
   15.1265    14.8244         16  
   13.9945    14.7788         16  
   15.2754    15.9927         16  
   14.1434    15.9471         16  
   15.1265    14.8244         14  
   13.9945    14.7788         14  
   15.2754    15.9927         14  
   14.1434    15.9471         14  
   14.6349    15.3857         16  
   14.6349    15.3857         14  
   14.5468    14.3153         18  
   15.7062    15.3335         18  
   14.8446    16.6519         18  
   13.4422    15.2423         18  
   15.1265    14.8244         18  
   13.9945    14.7788         18  
   15.2754    15.9927         18  
   14.1434    15.9471         18  
   14.6349    15.3857         18  
   14.2839     5.4816          2  
   15.2614    4.33536          2  
   16.6488    5.15733          2  
   15.2328     6.5622          2  
   14.7726    4.90848          4  
   14.7583     6.0219          4  
   15.9551    4.74634          4  
   15.9408    5.85976          4  
   14.7726    4.90848          2  
   14.7583     6.0219          2  
   15.9551    4.74634          2  
   15.9408    5.85976          2  
   15.3567    5.38412          4  
   15.3567    5.38412          2  
   14.2839     5.4816          6  
   15.2614    4.33536          6  
   16.6488    5.15733          6  
   15.2328     6.5622          6  
   14.7726    4.90848          8  
   14.7583     6.0219          8  
   15.9551    4.74634          8  
   15.9408    5.85976          8  
   14.7726    4.90848          6  
   14.7583     6.0219          6  
   15.9551    4.74634          6  
   15.9408    5.85976          6  
   15.3567    5.38412          8  
   15.3567    5.38412          6  
   14.2839     5.4816         10  
   15.2614    4.33536         10  
   16.6488    5.15733         10  
   15.2328     6.5622         10  
   14.7726    4.90848         12  
   14.7583     6.0219         12  
   15.9551    4.74634         12  
   15.9408    5.85976         12  
   14.7726    4.90848         10  
   14.7583     6.0219         10  
   15.9551    4.74634         10  
   15.9408    5.85976         10  
   15.3567    5.38412         12  
   15.3567    5.38412         10  
   14.2839     5.4816         14  
   15.2614    4.33536         14  
   16.6488    5.15733         14  
   15.2328     6.5622         14  
   14.7726    4.90848         16  
   14.7583     6.0219         16  
   15.9551    4.74634         16  
   15.9408    5.85976         16  
   14.7726    4.90848         14  
   14.7583     6.0219         14  
   15.9551    4.74634         14  
   15.9408    5.85976         14  
   15.3567    5.38412         16  
   15.3567    5.38412         14  
   14.2839     5.4816         18  
   15.2614    4.33536         18  
   16.6488    5.15733         18  
   15.2328     6.5622         18  
   14.7726    4.90848         18  
   14.7583     6.0219         18  
   15.9551    4.74634         18  
   15.9408    5.85976         18  
   15.3567    5.38412         18  
   6.07457    14.0411          4  
   5.21379    12.9711          4  
   6.07457    14.0411          2  
   5.21379    12.9711          2  
   5.62721    13.5191          4  
   5.62721    13.5191          2  
   6.07457    14.0411          8  
   5.21379    12.9711          8  
   6.07457    14.0411          6  
   5.21379    12.9711          6  
   5.62721    13.5191          8  
   5.62721    13.5191          6  
   6.07457    14.0411         12  
   5.21379    12.9711         12  
   6.07457    14.0411         10  
   5.21379    12.9711         10  
   5.62721    13.5191         12  
   5.62721    13.5191         10  
   6.07457    14.0411         16  
   5.21379    12.9711         16  
   6.07457    14.0411         14  
   5.21379    12.9711         14  
   5.62721    13.5191         16  
   5.62721    13.5191         14  
   6.07457    14.0411         18  
   5.21379    12.9711         18  
   5.62721    13.5191         18  
   14.0411    13.9254          4  
   12.9711    14.7862          4  
   14.0411    13.9254          2  
   12.9711    14.7862          2  
   13.5191    14.3728          4  
   13.5191    14.3728          2  
   14.0411    13.9254          8  
   12.9711    14.7862          8  
   14.0411    13.9254          6  
   12.9711    14.7862          6  
   13.5191    14.3728          8  
   13.5191    14.3728          6  
   14.0411    13.9254         12  
   12.9711    14.7862         12  
   14.0411    13.9254         10  
   12.9711    14.7862         10  
   13.5191    14.3728         12  
   13.5191    14.3728         10  
   14.0411    13.9254         16  
   12.9711    14.7862         16  
   14.0411    13.9254         14  
   12.9711    14.7862         14  
   13.5191    14.3728         16  
   13.5191    14.3728         14  
   14.0411    13.9254         18  
   12.9711    14.7862         18  
   13.5191    14.3728         18  
   5.96442    6.07142          4  
   7.01337     5.1628          4  
   5.96442    6.07142          2  
   7.01337     5.1628          2  
   6.47588    5.60014          4  
   6.47588    5.60014          2  
   5.96442    6.07142          8  
   7.01337     5.1628          8  
   5.96442    6.07142          6  
   7.01337     5.1628          6  
   6.47588    5.60014          8  
   6.47588    5.60014          6  
   5.96442    6.07142         12  
   7.01337     5.1628         12  
   5.96442    6.07142         10  
   7.01337     5.1628         10  
   6.47588    5.60014         12  
   6.47588    5.60014         10  
   5.96442    6.07142         16  
   7.01337     5.1628         16  
   5.96442    6.07142         14  
   7.01337     5.1628         14  
   6.47588    5.60014         16  
   6.47588    5.60014         14  
   5.96442    6.07142         18  
   7.01337     5.1628         18  
   6.47588    5.60014         18  
   13.9097    5.97303          4  
   14.7815     7.0311          4  
   13.9097    5.97303          2  
   14.7815     7.0311          2  
   14.3626    6.48905          4  
   14.3626    6.48905          2  
   13.9097    5.97303          8  
   14.7815     7.0311          8  
   13.9097    5.97303          6  
   14.7815     7.0311          6  
   14.3626    6.48905          8  
   14.3626    6.48905          6  
   13.9097    5.97303         12  
   14.7815     7.0311         12  
   13.9097    5.97303         10  
   14.7815     7.0311         10  
   14.3626    6.48905         12  
   14.3626    6.48905         10  
   13.9097    5.97303         16  
   14.7815     7.0311         16  
   13.9097    5.97303         14  
   14.7815     7.0311         14  
   14.3626    6.48905         16  
   14.3626    6.48905         14  
   13.9097    5.97303         18  
   14.7815     7.0311         18  
   14.3626    6.48905         18  
   19.0346    10.3255          4  
   19.2178    12.1736          4  
   19.0346    10.3255          2  
   19.2178    12.1736          2  
   19.1262    11.2496          4  
   19.1262    11.2496          2  
   19.0346    10.3255          8  
   19.2178    12.1736          8  
   19.0346    10.3255          6  
   19.2178    12.1736          6  
   19.1262    11.2496          8  
   19.1262    11.2496          6  
   19.0346    10.3255         12  
   19.2178    12.1736         12  
   19.0346    10.3255         10  
   19.2178    12.1736         10  
   19.1262    11.2496         12  
   19.1262    11.2496         10  
   19.0346    10.3255         16  
   19.2178    12.1736         16  
   19.0346    10.3255         14  
   19.2178    12.1736         14  
   19.1262    11.2496         16  
   19.1262    11.2496         14  
   19.0346    10.3255         18  
   19.2178    12.1736         18  
   19.1262    11.2496         18  
   9.67447    19.0347          4  
   7.82635    19.2178          4  
   9.67447    19.0347          2  
   7.82635    19.2178          2  
   8.75041    19.1262          4  
   8.75041    19.1262          2  
   9.67447    19.0347          8  
   7.82635    19.2178          8  
   9.67447    19.0347          6  
   7.82635    19.2178          6  
   8.75041    19.1262          8  
   8.75041    19.1262          6  
   9.67447    19.0347         12  
   7.82635    19.2178         12  
   9.67447    19.0347         10  
   7.82635    19.2178         10  
   8.75041    19.1262         12  
   8.75041    19.1262         10  
   9.67447    19.0347         16  
   7.82635    19.2178         16  
   9.67447    19.0347         14  
   7.82635    19.2178         14  
   8.75041    19.1262         16  
   8.75041    19.1262         14  
   9.67447    19.0347         18  
   7.82635    19.2178         18  
   8.75041    19.1262         18  
  0.965391    9.67435          4  
  0.782244    7.82618          4  
  0.965391    9.67435          2  
  0.782244    7.82618          2  
  0.873818    8.75026          4  
  0.873818    8.75026          2  
  0.965391    9.67435          8  
  0.782244    7.82618          8  
  0.965391    9.67435          6  
  0.782244    7.82618          6  
  0.873818    8.75026          8  
  0.873818    8.75026          6  
  0.965391    9.67435         12  
  0.782244    7.82618         12  
  0.965391    9.67435         10  
  0.782244    7.82618         10  
  0.873818    8.75026         12  
  0.873818    8.75026         10  
  0.965391    9.67435         16  
  0.782244    7.82618         16  
  0.965391    9.67435         14  
  0.782244    7.82618         14  
  0.873818    8.75026         16  
  0.873818    8.75026         14  
  0.965391    9.67435         18  
  0.782244    7.82618         18  
  0.873818    8.75026         18  
   7.47492     1.5879          2  
   9.07917    1.35221          2  
   8.70875    2.22835          2  
   7.48746   0.793948          4  
   8.09184    1.90812          4  
   8.28958   0.676107          4  
   8.89396    1.79028          4  
   7.48746   0.793948          2  
   8.09184    1.90812          2  
   8.28958   0.676107          2  
   8.89396    1.79028          2  
   8.19071    1.29211          4  
   8.19071    1.29211          2  
   7.47492     1.5879          6  
   9.07917    1.35221          6  
   8.70875    2.22835          6  
   7.48746   0.793948          8  
   8.09184    1.90812          8  
   8.28958   0.676107          8  
   8.89396    1.79028          8  
   7.48746   0.793948          6  
   8.09184    1.90812          6  
   8.28958   0.676107          6  
   8.89396    1.79028          6  
   8.19071    1.29211          8  
   8.19071    1.29211          6  
   7.47492     1.5879         10  
   9.07917    1.35221         10  
   8.70875    2.22835         10  
   7.48746   0.793948         12  
   8.09184    1.90812         12  
   8.28958   0.676107         12  
   8.89396    1.79028         12  
   7.48746   0.793948         10  
   8.09184    1.90812         10  
   8.28958   0.676107         10  
   8.89396    1.79028         10  
   8.19071    1.29211         12  
   8.19071    1.29211         10  
   7.47492     1.5879         14  
   9.07917    1.35221         14  
   8.70875    2.22835         14  
   7.48746   0.793948         16  
   8.09184    1.90812         16  
   8.28958   0.676107         16  
   8.89396    1.79028         16  
   7.48746   0.793948         14  
   8.09184    1.90812         14  
   8.28958   0.676107         14  
   8.89396    1.79028         14  
   8.19071    1.29211         16  
   8.19071    1.29211         14  
   7.47492     1.5879         18  
   9.07917    1.35221         18  
   8.70875    2.22835         18  
   7.48746   0.793948         18  
   8.09184    1.90812         18  
   8.28958   0.676107         18  
   8.89396    1.79028         18  
   8.19071    1.29211         18  
    6.4752    2.28369          2  
   6.97506    1.93579          4  
    5.7376    1.14184          4  
   6.97506    1.93579          2  
    5.7376    1.14184          2  
   6.61253   0.967896          4  
   6.61253   0.967896          2  
    6.4752    2.28369          6  
   6.97506    1.93579          8  
    5.7376    1.14184          8  
   6.97506    1.93579          6  
    5.7376    1.14184          6  
   6.61253   0.967896          8  
   6.61253   0.967896          6  
    6.4752    2.28369         10  
   6.97506    1.93579         12  
    5.7376    1.14184         12  
   6.97506    1.93579         10  
    5.7376    1.14184         10  
   6.61253   0.967896         12  
   6.61253   0.967896         10  
    6.4752    2.28369         14  
   6.97506    1.93579         16  
    5.7376    1.14184         16  
   6.97506    1.93579         14  
    5.7376    1.14184         14  
   6.61253   0.967896         16  
   6.61253   0.967896         14  
    6.4752    2.28369         18  
   6.97506    1.93579         18  
    5.7376    1.14184         18  
   6.61253   0.967896         18  
   2.07063    2.28376          2  
   2.28532    1.14188          4  
   1.03532    2.39188          4  
   2.28532    1.14188          2  
   1.03532    2.39188          2  
   1.14266    1.19594          4  
   1.14266    1.19594          2  
   2.07063    2.28376          6  
   2.28532    1.14188          8  
   1.03532    2.39188          8  
   2.28532    1.14188          6  
   1.03532    2.39188          6  
   1.14266    1.19594          8  
   1.14266    1.19594          6  
   2.07063    2.28376         10  
   2.28532    1.14188         12  
   1.03532    2.39188         12  
   2.28532    1.14188         10  
   1.03532    2.39188         10  
   1.14266    1.19594         12  
   1.14266    1.19594         10  
   2.07063    2.28376         14  
   2.28532    1.14188         16  
   1.03532    2.39188         16  
   2.28532    1.14188         14  
   1.03532    2.39188         14  
   1.14266    1.19594         16  
   1.14266    1.19594         14  
   2.07063    2.28376         18  
   2.28532    1.14188         18  
   1.03532    2.39188         18  
   1.14266    1.19594         18  
   17.6802    2.07343          2  
   18.8401    2.28672          4  
   17.5901    1.03672          4  
   18.8401    2.28672          2  
   17.5901    1.03672          2  
   18.7951    1.14336          4  
   18.7951    1.14336          2  
   17.6802    2.07343          6  
   18.8401    2.28672          8  
   17.5901    1.03672          8  
   18.8401    2.28672          6  
   17.5901    1.03672          6  
   18.7951    1.14336          8  
   18.7951    1.14336          6  
   17.6802    2.07343         10  
   18.8401    2.28672         12  
   17.5901    1.03672         12  
   18.8401    2.28672         10  
   17.5901    1.03672         10  
   18.7951    1.14336         12  
   18.7951    1.14336         10  
   17.6802    2.07343         14  
   18.8401    2.28672         16  
   17.5901    1.03672         16  
   18.8401    2.28672         14  
   17.5901    1.03672         14  
   18.7951    1.14336         16  
   18.7951    1.14336         14  
   17.6802    2.07343         18  
   18.8401    2.28672         18  
   17.5901    1.03672         18  
   18.7951    1.14336         18  
   2.27015    17.9425          2  
   1.13508    17.7212          4  
   2.38508    18.9712          4  
   1.13508    17.7212          2  
   2.38508    18.9712          2  
   1.19254    18.8606          4  
   1.19254    18.8606          2  
   2.27015    17.9425          6  
   1.13508    17.7212          8  
   2.38508    18.9712          8  
   1.13508    17.7212          6  
   2.38508    18.9712          6  
   1.19254    18.8606          8  
   1.19254    18.8606          6  
   2.27015    17.9425         10  
   1.13508    17.7212         12  
   2.38508    18.9712         12  
   1.13508    17.7212         10  
   2.38508    18.9712         10  
   1.19254    18.8606         12  
   1.19254    18.8606         10  
   2.27015    17.9425         14  
   1.13508    17.7212         16  
   2.38508    18.9712         16  
   1.13508    17.7212         14  
   2.38508    18.9712         14  
   1.19254    18.8606         16  
   1.19254    18.8606         14  
   2.27015    17.9425         18  
   1.13508    17.7212         18  
   2.38508    18.9712         18  
   1.19254    18.8606         18  
   17.9425    17.7298          2  
   17.7212    18.8649          4  
   18.9712    17.6149          4  
   17.7212    18.8649          2  
   18.9712    17.6149          2  
   18.8606    18.8075          4  
   18.8606    18.8075          2  
   17.9425    17.7298          6  
   17.7212    18.8649          8  
   18.9712    17.6149          8  
   17.7212    18.8649          6  
   18.9712    17.6149          6  
   18.8606    18.8075          8  
   18.8606    18.8075          6  
   17.9425    17.7298         10  
   17.7212    18.8649         12  
   18.9712    17.6149         12  
   17.7212    18.8649         10  
   18.9712    17.6149         10  
   18.8606    18.8075         12  
   18.8606    18.8075         10  
   17.9425    17.7298         14  
   17.7212    18.8649         16  
   18.9712    17.6149         16  
   17.7212    18.8649         14  
   18.9712    17.6149         14  
   18.8606    18.8075         16  
   18.8606    18.8075         14  
   17.9425    17.7298         18  
   17.7212    18.8649         18  
   18.9712    17.6149         18  
   18.8606    18.8075         18  
   18.3129    5.93358          2  
    18.504    7.33558          2  
   19.1565    5.46679          4  
   18.4085    6.63458          4  
    19.252    7.41779          4  
   19.1565    5.46679          2  
   18.4085    6.63458          2  
    19.252    7.41779          2  
   19.2042    6.44229          4  
   19.2042    6.44229          2  
   18.3129    5.93358          6  
    18.504    7.33558          6  
   19.1565    5.46679          8  
   18.4085    6.63458          8  
    19.252    7.41779          8  
   19.1565    5.46679          6  
   18.4085    6.63458          6  
    19.252    7.41779          6  
   19.2042    6.44229          8  
   19.2042    6.44229          6  
   18.3129    5.93358         10  
    18.504    7.33558         10  
   19.1565    5.46679         12  
   18.4085    6.63458         12  
    19.252    7.41779         12  
   19.1565    5.46679         10  
   18.4085    6.63458         10  
    19.252    7.41779         10  
   19.2042    6.44229         12  
   19.2042    6.44229         10  
   18.3129    5.93358         14  
    18.504    7.33558         14  
   19.1565    5.46679         16  
   18.4085    6.63458         16  
    19.252    7.41779         16  
   19.1565    5.46679         14  
   18.4085    6.63458         14  
    19.252    7.41779         14  
   19.2042    6.44229         16  
   19.2042    6.44229         14  
   18.3129    5.93358         18  
    18.504    7.33558         18  
   19.1565    5.46679         18  
   18.4085    6.63458         18  
    19.252    7.41779         18  
   19.2042    6.44229         18  
   14.0674    18.3174          2  
   12.6647    18.5052          2  
   14.5337    19.1587          4  
    13.366    18.4113          4  
   12.5823    19.2526          4  
   14.5337    19.1587          2  
    13.366    18.4113          2  
   12.5823    19.2526          2  
    13.558    19.2057          4  
    13.558    19.2057          2  
   14.0674    18.3174          6  
   12.6647    18.5052          6  
   14.5337    19.1587          8  
    13.366    18.4113          8  
   12.5823    19.2526          8  
   14.5337    19.1587          6  
    13.366    18.4113          6  
   12.5823    19.2526          6  
    13.558    19.2057          8  
    13.558    19.2057          6  
   14.0674    18.3174         10  
   12.6647    18.5052         10  
   14.5337    19.1587         12  
    13.366    18.4113         12  
   12.5823    19.2526         12  
   14.5337    19.1587         10  
    13.366    18.4113         10  
   12.5823    19.2526         10  
    13.558    19.2057         12  
    13.558    19.2057         10  
   14.0674    18.3174         14  
   12.6647    18.5052         14  
   14.5337    19.1587         16  
    13.366    18.4113         16  
   12.5823    19.2526         16  
   14.5337    19.1587         14  
    13.366    18.4113         14  
   12.5823    19.2526         14  
    13.558    19.2057         16  
    13.558    19.2057         14  
   14.0674    18.3174         18  
   12.6647    18.5052         18  
   14.5337    19.1587         18  
    13.366    18.4113         18  
   12.5823    19.2526         18  
    13.558    19.2057         18  
   1.68255    14.0674          2  
   1.49483    12.6647          2  
  0.841277    14.5337          4  
   1.58869     13.366          4  
  0.747414    12.5823          4  
  0.841277    14.5337          2  
   1.58869     13.366          2  
  0.747414    12.5823          2  
  0.794345     13.558          4  
  0.794345     13.558          2  
   1.68255    14.0674          6  
   1.49483    12.6647          6  
  0.841277    14.5337          8  
   1.58869     13.366          8  
  0.747414    12.5823          8  
  0.841277    14.5337          6  
   1.58869     13.366          6  
  0.747414    12.5823          6  
  0.794345     13.558          8  
  0.794345     13.558          6  
   1.68255    14.0674         10  
   1.49483    12.6647         10  
  0.841277    14.5337         12  
   1.58869     13.366         12  
  0.747414    12.5823         12  
  0.841277    14.5337         10  
   1.58869     13.366         10  
  0.747414    12.5823         10  
  0.794345     13.558         12  
  0.794345     13.558         10  
   1.68255    14.0674         14  
   1.49483    12.6647         14  
  0.841277    14.5337         16  
   1.58869     13.366         16  
  0.747414    12.5823         16  
  0.841277    14.5337         14  
   1.58869     13.366         14  
  0.747414    12.5823         14  
  0.794345     13.558         16  
  0.794345     13.558         14  
   1.68255    14.0674         18  
   1.49483    12.6647         18  
  0.841277    14.5337         18  
   1.58869     13.366         18  
  0.747414    12.5823         18  
  0.794345     13.558         18  
   3.81067    16.6139          2  
    5.8845     16.635          2  
   4.04104    17.3864          4  
   5.07795     17.397          4  
   4.23859      16.16          4  
    5.2755    16.1706          4  
   4.04104    17.3864          2  
   5.07795     17.397          2  
   4.23859      16.16          2  
    5.2755    16.1706          2  
   4.65827    16.7785          4  
   4.65827    16.7785          2  
   3.81067    16.6139          6  
    5.8845     16.635          6  
   4.04104    17.3864          8  
   5.07795     17.397          8  
   4.23859      16.16          8  
    5.2755    16.1706          8  
   4.04104    17.3864          6  
   5.07795     17.397          6  
   4.23859      16.16          6  
    5.2755    16.1706          6  
   4.65827    16.7785          8  
   4.65827    16.7785          6  
   3.81067    16.6139         10  
    5.8845     16.635         10  
   4.04104    17.3864         12  
   5.07795     17.397         12  
   4.23859      16.16         12  
    5.2755    16.1706         12  
   4.04104    17.3864         10  
   5.07795     17.397         10  
   4.23859      16.16         10  
    5.2755    16.1706         10  
   4.65827    16.7785         12  
   4.65827    16.7785         10  
   3.81067    16.6139         14  
    5.8845     16.635         14  
   4.04104    17.3864         16  
   5.07795     17.397         16  
   4.23859      16.16         16  
    5.2755    16.1706         16  
   4.04104    17.3864         14  
   5.07795     17.397         14  
   4.23859      16.16         14  
    5.2755    16.1706         14  
   4.65827    16.7785         16  
   4.65827    16.7785         14  
   3.81067    16.6139         18  
    5.8845     16.635         18  
   4.04104    17.3864         18  
   5.07795     17.397         18  
   4.23859      16.16         18  
    5.2755    16.1706         18  
   4.65827    16.7785         18  
   3.43114    3.84328          2  
   3.37442    5.88696          2  
   2.63611     4.0573          4  
   2.60774    5.07914          4  
   3.88222    4.26267          4  
   3.85386     5.2845          4  
   2.63611     4.0573          2  
   2.60774    5.07914          2  
   3.88222    4.26267          2  
   3.85386     5.2845          2  
   3.24498     4.6709          4  
   3.24498     4.6709          2  
   3.43114    3.84328          6  
   3.37442    5.88696          6  
   2.63611     4.0573          8  
   2.60774    5.07914          8  
   3.88222    4.26267          8  
   3.85386     5.2845          8  
   2.63611     4.0573          6  
   2.60774    5.07914          6  
   3.88222    4.26267          6  
   3.85386     5.2845          6  
   3.24498     4.6709          8  
   3.24498     4.6709          6  
   3.43114    3.84328         10  
   3.37442    5.88696         10  
   2.63611     4.0573         12  
   2.60774    5.07914         12  
   3.88222    4.26267         12  
   3.85386     5.2845         12  
   2.63611     4.0573         10  
   2.60774    5.07914         10  
   3.88222    4.26267         10  
   3.85386     5.2845         10  
   3.24498     4.6709         12  
   3.24498     4.6709         10  
   3.43114    3.84328         14  
   3.37442    5.88696         14  
   2.63611     4.0573         16  
   2.60774    5.07914         16  
   3.88222    4.26267         16  
   3.85386     5.2845         16  
   2.63611     4.0573         14  
   2.60774    5.07914         14  
   3.88222    4.26267         14  
   3.85386     5.2845         14  
   3.24498     4.6709         16  
   3.24498     4.6709         14  
   3.43114    3.84328         18  
   3.37442    5.88696         18  
   2.63611     4.0573         18  
   2.60774    5.07914         18  
   3.88222    4.26267         18  
   3.85386     5.2845         18  
   3.24498     4.6709         18  
   16.6139    16.1893          2  
    16.635    14.1155          2  
   17.3864     15.959          4  
    17.397     14.922          4  
     16.16    15.7614          4  
   16.1706    14.7245          4  
   17.3864     15.959          2  
    17.397     14.922          2  
     16.16    15.7614          2  
   16.1706    14.7245          2  
   16.7785    15.3417          4  
   16.7785    15.3417          2  
   16.6139    16.1893          6  
    16.635    14.1155          6  
   17.3864     15.959          8  
    17.397     14.922          8  
     16.16    15.7614          8  
   16.1706    14.7245          8  
   17.3864     15.959          6  
    17.397     14.922          6  
     16.16    15.7614          6  
   16.1706    14.7245          6  
   16.7785    15.3417          8  
   16.7785    15.3417          6  
   16.6139    16.1893         10  
    16.635    14.1155         10  
   17.3864     15.959         12  
    17.397     14.922         12  
     16.16    15.7614         12  
   16.1706    14.7245         12  
   17.3864     15.959         10  
    17.397     14.922         10  
     16.16    15.7614         10  
   16.1706    14.7245         10  
   16.7785    15.3417         12  
   16.7785    15.3417         10  
   16.6139    16.1893         14  
    16.635    14.1155         14  
   17.3864     15.959         16  
    17.397     14.922         16  
     16.16    15.7614         16  
   16.1706    14.7245         16  
   17.3864     15.959         14  
    17.397     14.922         14  
     16.16    15.7614         14  
   16.1706    14.7245         14  
   16.7785    15.3417         16  
   16.7785    15.3417         14  
   16.6139    16.1893         18  
    16.635    14.1155         18  
   17.3864     15.959         18  
    17.397     14.922         18  
     16.16    15.7614         18  
   16.1706    14.7245         18  
   16.7785    15.3417         18  
   16.0888    3.43194          2  
    15.795    2.67629          4  
   15.6751    3.88365          4  
   14.5811    3.93999          4  
    15.795    2.67629          2  
   15.6751    3.88365          2  
   14.5811    3.93999          2  
    15.188    3.30814          4  
    15.188    3.30814          2  
   16.0888    3.43194          6  
    15.795    2.67629          8  
   15.6751    3.88365          8  
   14.5811    3.93999          8  
    15.795    2.67629          6  
   15.6751    3.88365          6  
   14.5811    3.93999          6  
    15.188    3.30814          8  
    15.188    3.30814          6  
   16.0888    3.43194         10  
    15.795    2.67629         12  
   15.6751    3.88365         12  
   14.5811    3.93999         12  
    15.795    2.67629         10  
   15.6751    3.88365         10  
   14.5811    3.93999         10  
    15.188    3.30814         12  
    15.188    3.30814         10  
   16.0888    3.43194         14  
    15.795    2.67629         16  
   15.6751    3.88365         16  
   14.5811    3.93999         16  
    15.795    2.67629         14  
   15.6751    3.88365         14  
   14.5811    3.93999         14  
    15.188    3.30814         16  
    15.188    3.30814         14  
   16.0888    3.43194         18  
    15.795    2.67629         18  
   15.6751    3.88365         18  
   14.5811    3.93999         18  
    15.188    3.30814         18  
   15.4398    13.1226          2  
   15.9084    12.2759          4  
   17.1226    13.4692          4  
   16.0374    13.6191          4  
   15.9084    12.2759          2  
   17.1226    13.4692          2  
   16.0374    13.6191          2  
   16.5155    12.8726          4  
   16.5155    12.8726          2  
   15.4398    13.1226          6  
   15.9084    12.2759          8  
   17.1226    13.4692          8  
   16.0374    13.6191          8  
   15.9084    12.2759          6  
   17.1226    13.4692          6  
   16.0374    13.6191          6  
   16.5155    12.8726          8  
   16.5155    12.8726          6  
   15.4398    13.1226         10  
   15.9084    12.2759         12  
   17.1226    13.4692         12  
   16.0374    13.6191         12  
   15.9084    12.2759         10  
   17.1226    13.4692         10  
   16.0374    13.6191         10  
   16.5155    12.8726         12  
   16.5155    12.8726         10  
   15.4398    13.1226         14  
   15.9084    12.2759         16  
   17.1226    13.4692         16  
   16.0374    13.6191         16  
   15.9084    12.2759         14  
   17.1226    13.4692         14  
   16.0374    13.6191         14  
   16.5155    12.8726         16  
   16.5155    12.8726         14  
   15.4398    13.1226         18  
   15.9084    12.2759         18  
   17.1226    13.4692         18  
   16.0374    13.6191         18  
   16.5155    12.8726         18  
   4.56515     6.8767          2  
    4.0942    7.72344          4  
   2.88297    6.53196          4  
   3.96979    6.38183          4  
    4.0942    7.72344          2  
   2.88297    6.53196          2  
   3.96979    6.38183          2  
   3.48859     7.1277          4  
   3.48859     7.1277          2  
   4.56515     6.8767          6  
    4.0942    7.72344          8  
   2.88297    6.53196          8  
   3.96979    6.38183          8  
    4.0942    7.72344          6  
   2.88297    6.53196          6  
   3.96979    6.38183          6  
   3.48859     7.1277          8  
   3.48859     7.1277          6  
   4.56515     6.8767         10  
    4.0942    7.72344         12  
   2.88297    6.53196         12  
   3.96979    6.38183         12  
    4.0942    7.72344         10  
   2.88297    6.53196         10  
   3.96979    6.38183         10  
   3.48859     7.1277         12  
   3.48859     7.1277         10  
   4.56515     6.8767         14  
    4.0942    7.72344         16  
   2.88297    6.53196         16  
   3.96979    6.38183         16  
    4.0942    7.72344         14  
   2.88297    6.53196         14  
   3.96979    6.38183         14  
   3.48859     7.1277         16  
   3.48859     7.1277         14  
   4.56515     6.8767         18  
    4.0942    7.72344         18  
   2.88297    6.53196         18  
   3.96979    6.38183         18  
   3.48859     7.1277         18  
   6.87738    15.4398          2  
   7.72408    15.9085          4  
    6.5308    17.1226          4  
   6.38094    16.0374          4  
   7.72408    15.9085          2  
    6.5308    17.1226          2  
   6.38094    16.0374          2  
   7.12744    16.5155          4  
   7.12744    16.5155          2  
   6.87738    15.4398          6  
   7.72408    15.9085          8  
    6.5308    17.1226          8  
   6.38094    16.0374          8  
   7.72408    15.9085          6  
    6.5308    17.1226          6  
   6.38094    16.0374          6  
   7.12744    16.5155          8  
   7.12744    16.5155          6  
   6.87738    15.4398         10  
   7.72408    15.9085         12  
    6.5308    17.1226         12  
   6.38094    16.0374         12  
   7.72408    15.9085         10  
    6.5308    17.1226         10  
   6.38094    16.0374         10  
   7.12744    16.5155         12  
   7.12744    16.5155         10  
   6.87738    15.4398         14  
   7.72408    15.9085         16  
    6.5308    17.1226         16  
   6.38094    16.0374         16  
   7.72408    15.9085         14  
    6.5308    17.1226         14  
   6.38094    16.0374         14  
   7.12744    16.5155         16  
   7.12744    16.5155         14  
   6.87738    15.4398         18  
   7.72408    15.9085         18  
    6.5308    17.1226         18  
   6.38094    16.0374         18  
   7.12744    16.5155         18  
   3.87766    2.53454          2  
   4.43883    1.26727          4  
   2.97415    2.40915          4  
   4.43883    1.26727          2  
   2.97415    2.40915          2  
   3.36207    1.20458          4  
   3.36207    1.20458          2  
   3.87766    2.53454          6  
   4.43883    1.26727          8  
   2.97415    2.40915          8  
   4.43883    1.26727          6  
   2.97415    2.40915          6  
   3.36207    1.20458          8  
   3.36207    1.20458          6  
   3.87766    2.53454         10  
   4.43883    1.26727         12  
   2.97415    2.40915         12  
   4.43883    1.26727         10  
   2.97415    2.40915         10  
   3.36207    1.20458         12  
   3.36207    1.20458         10  
   3.87766    2.53454         14  
   4.43883    1.26727         16  
   2.97415    2.40915         16  
   4.43883    1.26727         14  
   2.97415    2.40915         14  
   3.36207    1.20458         16  
   3.36207    1.20458         14  
   3.87766    2.53454         18  
   4.43883    1.26727         18  
   2.97415    2.40915         18  
   3.36207    1.20458         18  
   17.5021    3.81603          2  
    18.751    4.40801          4  
   17.5912    2.94473          4  
    18.751    4.40801          2  
   17.5912    2.94473          2  
   18.7956    3.34736          4  
   18.7956    3.34736          2  
   17.5021    3.81603          6  
    18.751    4.40801          8  
   17.5912    2.94473          8  
    18.751    4.40801          6  
   17.5912    2.94473          6  
   18.7956    3.34736          8  
   18.7956    3.34736          6  
   17.5021    3.81603         10  
    18.751    4.40801         12  
   17.5912    2.94473         12  
    18.751    4.40801         10  
   17.5912    2.94473         10  
   18.7956    3.34736         12  
   18.7956    3.34736         10  
   17.5021    3.81603         14  
    18.751    4.40801         16  
   17.5912    2.94473         16  
    18.751    4.40801         14  
   17.5912    2.94473         14  
   18.7956    3.34736         16  
   18.7956    3.34736         14  
   17.5021    3.81603         18  
    18.751    4.40801         18  
   17.5912    2.94473         18  
   18.7956    3.34736         18  
   2.45694    16.1952          2  
   1.22847    15.5976          4  
   2.36354    17.0688          4  
   1.22847    15.5976          2  
   2.36354    17.0688          2  
   1.18177    16.6594          4  
   1.18177    16.6594          2  
   2.45694    16.1952          6  
   1.22847    15.5976          8  
   2.36354    17.0688          8  
   1.22847    15.5976          6  
   2.36354    17.0688          6  
   1.18177    16.6594          8  
   1.18177    16.6594          6  
   2.45694    16.1952         10  
   1.22847    15.5976         12  
   2.36354    17.0688         12  
   1.22847    15.5976         10  
   2.36354    17.0688         10  
   1.18177    16.6594         12  
   1.18177    16.6594         10  
   2.45694    16.1952         14  
   1.22847    15.5976         16  
   2.36354    17.0688         16  
   1.22847    15.5976         14  
   2.36354    17.0688         14  
   1.18177    16.6594         16  
   1.18177    16.6594         14  
   2.45694    16.1952         18  
   1.22847    15.5976         18  
   2.36354    17.0688         18  
   1.18177    16.6594         18  
   16.1952    17.5431          2  
   15.5976    18.7715          4  
   17.0688    17.6365          4  
   15.5976    18.7715          2  
   17.0688    17.6365          2  
   16.6594    18.8182          4  
   16.6594    18.8182          2  
   16.1952    17.5431          6  
   15.5976    18.7715          8  
   17.0688    17.6365          8  
   15.5976    18.7715          6  
   17.0688    17.6365          6  
   16.6594    18.8182          8  
   16.6594    18.8182          6  
   16.1952    17.5431         10  
   15.5976    18.7715         12  
   17.0688    17.6365         12  
   15.5976    18.7715         10  
   17.0688    17.6365         10  
   16.6594    18.8182         12  
   16.6594    18.8182         10  
   16.1952    17.5431         14  
   15.5976    18.7715         16  
   17.0688    17.6365         16  
   15.5976    18.7715         14  
   17.0688    17.6365         14  
   16.6594    18.8182         16  
   16.6594    18.8182         14  
   16.1952    17.5431         18  
   15.5976    18.7715         18  
   17.0688    17.6365         18  
   16.6594    18.8182         18  
   5.01477    6.27754          4  
   5.11751    7.18835          4  
   5.01477    6.27754          2  
   5.11751    7.18835          2  
     5.524    6.61687          4  
     5.524    6.61687          2  
   5.01477    6.27754          8  
   5.11751    7.18835          8  
   5.01477    6.27754          6  
   5.11751    7.18835          6  
     5.524    6.61687          8  
     5.524    6.61687          6  
   5.01477    6.27754         12  
   5.11751    7.18835         12  
   5.01477    6.27754         10  
   5.11751    7.18835         10  
     5.524    6.61687         12  
     5.524    6.61687         10  
   5.01477    6.27754         16  
   5.11751    7.18835         16  
   5.01477    6.27754         14  
   5.11751    7.18835         14  
     5.524    6.61687         16  
     5.524    6.61687         14  
   5.01477    6.27754         18  
   5.11751    7.18835         18  
     5.524    6.61687         18  
   13.0718    4.72126          2  
   13.6779    5.10143          4  
   12.7859    5.19556          4  
   13.6779    5.10143          2  
   12.7859    5.19556          2  
   13.3608    5.56733          4  
   13.3608    5.56733          2  
   13.0718    4.72126          6  
   13.6779    5.10143          8  
   12.7859    5.19556          8  
   13.6779    5.10143          6  
   12.7859    5.19556          6  
   13.3608    5.56733          8  
   13.3608    5.56733          6  
   13.0718    4.72126         10  
   13.6779    5.10143         12  
   12.7859    5.19556         12  
   13.6779    5.10143         10  
   12.7859    5.19556         10  
   13.3608    5.56733         12  
   13.3608    5.56733         10  
   13.0718    4.72126         14  
   13.6779    5.10143         16  
   12.7859    5.19556         16  
   13.6779    5.10143         14  
   12.7859    5.19556         14  
   13.3608    5.56733         16  
   13.3608    5.56733         14  
   13.0718    4.72126         18  
   13.6779    5.10143         18  
   12.7859    5.19556         18  
   13.3608    5.56733         18  
   6.28102    14.9933          4  
   7.18869    14.8849          4  
   6.28102    14.9933          2  
   7.18869    14.8849          2  
   6.61861      14.48          4  
   6.61861      14.48          2  
   6.28102    14.9933          8  
   7.18869    14.8849          8  
   6.28102    14.9933          6  
   7.18869    14.8849          6  
   6.61861      14.48          8  
   6.61861      14.48          6  
   6.28102    14.9933         12  
   7.18869    14.8849         12  
   6.28102    14.9933         10  
   7.18869    14.8849         10  
   6.61861      14.48         12  
   6.61861      14.48         10  
   6.28102    14.9933         16  
   7.18869    14.8849         16  
   6.28102    14.9933         14  
   7.18869    14.8849         14  
   6.61861      14.48         16  
   6.61861      14.48         14  
   6.28102    14.9933         18  
   7.18869    14.8849         18  
   6.61861      14.48         18  
   14.9933     13.719          4  
   14.8849    12.8113          4  
   14.9933     13.719          2  
   14.8849    12.8113          2  
     14.48    13.3814          4  
     14.48    13.3814          2  
   14.9933     13.719          8  
   14.8849    12.8113          8  
   14.9933     13.719          6  
   14.8849    12.8113          6  
     14.48    13.3814          8  
     14.48    13.3814          6  
   14.9933     13.719         12  
   14.8849    12.8113         12  
   14.9933     13.719         10  
   14.8849    12.8113         10  
     14.48    13.3814         12  
     14.48    13.3814         10  
   14.9933     13.719         16  
   14.8849    12.8113         16  
   14.9933     13.719         14  
   14.8849    12.8113         14  
     14.48    13.3814         16  
     14.48    13.3814         14  
   14.9933     13.719         18  
   14.8849    12.8113         18  
     14.48    13.3814         18  
   6.77648    18.0288          4  
   6.77648    18.0288          2  
   7.30141    18.6233          4  
   7.30141    18.6233          2  
   6.77648    18.0288          8  
   6.77648    18.0288          6  
   7.30141    18.6233          8  
   7.30141    18.6233          6  
   6.77648    18.0288         12  
   6.77648    18.0288         10  
   7.30141    18.6233         12  
   7.30141    18.6233         10  
   6.77648    18.0288         16  
   6.77648    18.0288         14  
   7.30141    18.6233         16  
   7.30141    18.6233         14  
   6.77648    18.0288         18  
   7.30141    18.6233         18  
   18.0288    13.2235          4  
   18.0288    13.2235          2  
   18.6233    12.6986          4  
   18.6233    12.6986          2  
   18.0288    13.2235          8  
   18.0288    13.2235          6  
   18.6233    12.6986          8  
   18.6233    12.6986          6  
   18.0288    13.2235         12  
   18.0288    13.2235         10  
   18.6233    12.6986         12  
   18.6233    12.6986         10  
   18.0288    13.2235         16  
   18.0288    13.2235         14  
   18.6233    12.6986         16  
   18.6233    12.6986         14  
   18.0288    13.2235         18  
   18.6233    12.6986         18  
   1.97204     6.7761          4  
   1.97204     6.7761          2  
   1.37714    7.30114          4  
   1.37714    7.30114          2  
   1.97204     6.7761          8  
   1.97204     6.7761          6  
   1.37714    7.30114          8  
   1.37714    7.30114          6  
   1.97204     6.7761         12  
   1.97204     6.7761         10  
   1.37714    7.30114         12  
   1.37714    7.30114         10  
   1.97204     6.7761         16  
   1.97204     6.7761         14  
   1.37714    7.30114         16  
   1.37714    7.30114         14  
   1.97204     6.7761         18  
   1.37714    7.30114         18  
   11.6431    4.20044          2  
   13.4863    4.13294          4  
   12.3575    4.46085          4  
   11.9385    3.59199          4  
   13.4863    4.13294          2  
   12.3575    4.46085          2  
   11.9385    3.59199          2  
   12.7124    3.86246          4  
   12.7124    3.86246          2  
   11.6431    4.20044          6  
   13.4863    4.13294          8  
   12.3575    4.46085          8  
   11.9385    3.59199          8  
   13.4863    4.13294          6  
   12.3575    4.46085          6  
   11.9385    3.59199          6  
   12.7124    3.86246          8  
   12.7124    3.86246          6  
   11.6431    4.20044         10  
   13.4863    4.13294         12  
   12.3575    4.46085         12  
   11.9385    3.59199         12  
   13.4863    4.13294         10  
   12.3575    4.46085         10  
   11.9385    3.59199         10  
   12.7124    3.86246         12  
   12.7124    3.86246         10  
   11.6431    4.20044         14  
   13.4863    4.13294         16  
   12.3575    4.46085         16  
   11.9385    3.59199         16  
   13.4863    4.13294         14  
   12.3575    4.46085         14  
   11.9385    3.59199         14  
   12.7124    3.86246         16  
   12.7124    3.86246         14  
   11.6431    4.20044         18  
   13.4863    4.13294         18  
   12.3575    4.46085         18  
   11.9385    3.59199         18  
   12.7124    3.86246         18  
    3.1338    16.4045          4  
   3.27078    18.0507          4  
    3.1338    16.4045          2  
   3.27078    18.0507          2  
   3.20229    17.2276          4  
   3.20229    17.2276          2  
    3.1338    16.4045          8  
   3.27078    18.0507          8  
    3.1338    16.4045          6  
   3.27078    18.0507          6  
   3.20229    17.2276          8  
   3.20229    17.2276          6  
    3.1338    16.4045         12  
   3.27078    18.0507         12  
    3.1338    16.4045         10  
   3.27078    18.0507         10  
   3.20229    17.2276         12  
   3.20229    17.2276         10  
    3.1338    16.4045         16  
   3.27078    18.0507         16  
    3.1338    16.4045         14  
   3.27078    18.0507         14  
   3.20229    17.2276         16  
   3.20229    17.2276         14  
    3.1338    16.4045         18  
   3.27078    18.0507         18  
   3.20229    17.2276         18  
    3.6544    3.18891          4  
   1.95585    3.27754          4  
    3.6544    3.18891          2  
   1.95585    3.27754          2  
   2.80513    3.23323          4  
   2.80513    3.23323          2  
    3.6544    3.18891          8  
   1.95585    3.27754          8  
    3.6544    3.18891          6  
   1.95585    3.27754          6  
   2.80513    3.23323          8  
   2.80513    3.23323          6  
    3.6544    3.18891         12  
   1.95585    3.27754         12  
    3.6544    3.18891         10  
   1.95585    3.27754         10  
   2.80513    3.23323         12  
   2.80513    3.23323         10  
    3.6544    3.18891         16  
   1.95585    3.27754         16  
    3.6544    3.18891         14  
   1.95585    3.27754         14  
   2.80513    3.23323         16  
   2.80513    3.23323         14  
    3.6544    3.18891         18  
   1.95585    3.27754         18  
   2.80513    3.23323         18  
   16.4045    16.8662          4  
   18.0507    16.7292          4  
   16.4045    16.8662          2  
   18.0507    16.7292          2  
   17.2276    16.7977          4  
   17.2276    16.7977          2  
   16.4045    16.8662          8  
   18.0507    16.7292          8  
   16.4045    16.8662          6  
   18.0507    16.7292          6  
   17.2276    16.7977          8  
   17.2276    16.7977          6  
   16.4045    16.8662         12  
   18.0507    16.7292         12  
   16.4045    16.8662         10  
   18.0507    16.7292         10  
   17.2276    16.7977         12  
   17.2276    16.7977         10  
   16.4045    16.8662         16  
   18.0507    16.7292         16  
   16.4045    16.8662         14  
   18.0507    16.7292         14  
   17.2276    16.7977         16  
   17.2276    16.7977         14  
   16.4045    16.8662         18  
   18.0507    16.7292         18  
   17.2276    16.7977         18  
   16.7954    3.62398          4  
   16.5907    1.99704          4  
   16.7954    3.62398          2  
   16.5907    1.99704          2  
   16.6931    2.81051          4  
   16.6931    2.81051          2  
   16.7954    3.62398          8  
   16.5907    1.99704          8  
   16.7954    3.62398          6  
   16.5907    1.99704          6  
   16.6931    2.81051          8  
   16.6931    2.81051          6  
   16.7954    3.62398         12  
   16.5907    1.99704         12  
   16.7954    3.62398         10  
   16.5907    1.99704         10  
   16.6931    2.81051         12  
   16.6931    2.81051         10  
   16.7954    3.62398         16  
   16.5907    1.99704         16  
   16.7954    3.62398         14  
   16.5907    1.99704         14  
   16.6931    2.81051         16  
   16.6931    2.81051         14  
   16.7954    3.62398         18  
   16.5907    1.99704         18  
   16.6931    2.81051         18  
   10.0651    3.91035          2  
   10.4228    2.66937          2  
   11.3283    2.82645          4  
   10.8541     4.0554          4  
   10.2439    3.28986          4  
   11.3283    2.82645          2  
   10.8541     4.0554          2  
   10.2439    3.28986          2  
   11.0912    3.44093          4  
   11.0912    3.44093          2  
   10.0651    3.91035          6  
   10.4228    2.66937          6  
   11.3283    2.82645          8  
   10.8541     4.0554          8  
   10.2439    3.28986          8  
   11.3283    2.82645          6  
   10.8541     4.0554          6  
   10.2439    3.28986          6  
   11.0912    3.44093          8  
   11.0912    3.44093          6  
   10.0651    3.91035         10  
   10.4228    2.66937         10  
   11.3283    2.82645         12  
   10.8541     4.0554         12  
   10.2439    3.28986         12  
   11.3283    2.82645         10  
   10.8541     4.0554         10  
   10.2439    3.28986         10  
   11.0912    3.44093         12  
   11.0912    3.44093         10  
   10.0651    3.91035         14  
   10.4228    2.66937         14  
   11.3283    2.82645         16  
   10.8541     4.0554         16  
   10.2439    3.28986         16  
   11.3283    2.82645         14  
   10.8541     4.0554         14  
   10.2439    3.28986         14  
   11.0912    3.44093         16  
   11.0912    3.44093         14  
   10.0651    3.91035         18  
   10.4228    2.66937         18  
   11.3283    2.82645         18  
   10.8541     4.0554         18  
   10.2439    3.28986         18  
   11.0912    3.44093         18  
     3.822    10.4529          2  
   3.72262    9.51152          4  
     4.411    10.2264          4  
   4.39681    8.63805          4  
   3.72262    9.51152          2  
     4.411    10.2264          2  
   4.39681    8.63805          2  
    4.3827    9.42944          4  
    4.3827    9.42944          2  
     3.822    10.4529          6  
   3.72262    9.51152          8  
     4.411    10.2264          8  
   4.39681    8.63805          8  
   3.72262    9.51152          6  
     4.411    10.2264          6  
   4.39681    8.63805          6  
    4.3827    9.42944          8  
    4.3827    9.42944          6  
     3.822    10.4529         10  
   3.72262    9.51152         12  
     4.411    10.2264         12  
   4.39681    8.63805         12  
   3.72262    9.51152         10  
     4.411    10.2264         10  
   4.39681    8.63805         10  
    4.3827    9.42944         12  
    4.3827    9.42944         10  
     3.822    10.4529         14  
   3.72262    9.51152         16  
     4.411    10.2264         16  
   4.39681    8.63805         16  
   3.72262    9.51152         14  
     4.411    10.2264         14  
   4.39681    8.63805         14  
    4.3827    9.42944         16  
    4.3827    9.42944         14  
     3.822    10.4529         18  
   3.72262    9.51152         18  
     4.411    10.2264         18  
   4.39681    8.63805         18  
    4.3827    9.42944         18  
   10.0326    4.45518          4  
   11.4686    4.68541          4  
   10.0326    4.45518          2  
   11.4686    4.68541          2  
   10.7534    4.54909          4  
   10.7534    4.54909          2  
   10.0326    4.45518          8  
   11.4686    4.68541          8  
   10.0326    4.45518          6  
   11.4686    4.68541          6  
   10.7534    4.54909          8  
   10.7534    4.54909          6  
   10.0326    4.45518         12  
   11.4686    4.68541         12  
   10.0326    4.45518         10  
   11.4686    4.68541         10  
   10.7534    4.54909         12  
   10.7534    4.54909         10  
   10.0326    4.45518         16  
   11.4686    4.68541         16  
   10.0326    4.45518         14  
   11.4686    4.68541         14  
   10.7534    4.54909         16  
   10.7534    4.54909         14  
   10.0326    4.45518         18  
   11.4686    4.68541         18  
   10.7534    4.54909         18  
    10.453     16.178          2  
   9.51188    16.2776          4  
   10.2265     15.589          4  
   8.63834    15.6034          4  
   9.51188    16.2776          2  
   10.2265     15.589          2  
   8.63834    15.6034          2  
   9.42962    15.6174          4  
   9.42962    15.6174          2  
    10.453     16.178          6  
   9.51188    16.2776          8  
   10.2265     15.589          8  
   8.63834    15.6034          8  
   9.51188    16.2776          6  
   10.2265     15.589          6  
   8.63834    15.6034          6  
   9.42962    15.6174          8  
   9.42962    15.6174          6  
    10.453     16.178         10  
   9.51188    16.2776         12  
   10.2265     15.589         12  
   8.63834    15.6034         12  
   9.51188    16.2776         10  
   10.2265     15.589         10  
   8.63834    15.6034         10  
   9.42962    15.6174         12  
   9.42962    15.6174         10  
    10.453     16.178         14  
   9.51188    16.2776         16  
   10.2265     15.589         16  
   8.63834    15.6034         16  
   9.51188    16.2776         14  
   10.2265     15.589         14  
   8.63834    15.6034         14  
   9.42962    15.6174         16  
   9.42962    15.6174         14  
    10.453     16.178         18  
   9.51188    16.2776         18  
   10.2265     15.589         18  
   8.63834    15.6034         18  
   9.42962    15.6174         18  
   16.1777    9.54698          2  
   16.2774    10.4881          4  
   15.5889    9.77349          4  
   15.6034    11.3616          4  
   16.2774    10.4881          2  
   15.5889    9.77349          2  
   15.6034    11.3616          2  
   15.6173    10.5704          4  
   15.6173    10.5704          2  
   16.1777    9.54698          6  
   16.2774    10.4881          8  
   15.5889    9.77349          8  
   15.6034    11.3616          8  
   16.2774    10.4881          6  
   15.5889    9.77349          6  
   15.6034    11.3616          6  
   15.6173    10.5704          8  
   15.6173    10.5704          6  
   16.1777    9.54698         10  
   16.2774    10.4881         12  
   15.5889    9.77349         12  
   15.6034    11.3616         12  
   16.2774    10.4881         10  
   15.5889    9.77349         10  
   15.6034    11.3616         10  
   15.6173    10.5704         12  
   15.6173    10.5704         10  
   16.1777    9.54698         14  
   16.2774    10.4881         16  
   15.5889    9.77349         16  
   15.6034    11.3616         16  
   16.2774    10.4881         14  
   15.5889    9.77349         14  
   15.6034    11.3616         14  
   15.6173    10.5704         16  
   15.6173    10.5704         14  
   16.1777    9.54698         18  
   16.2774    10.4881         18  
   15.5889    9.77349         18  
   15.6034    11.3616         18  
   15.6173    10.5704         18  
   15.8262    7.94727          2  
    16.002    8.74712          4  
   15.3279    8.32659          4  
    16.002    8.74712          2  
   15.3279    8.32659          2  
   15.4796    9.04725          4  
   15.4796    9.04725          2  
   15.8262    7.94727          6  
    16.002    8.74712          8  
   15.3279    8.32659          8  
    16.002    8.74712          6  
   15.3279    8.32659          6  
   15.4796    9.04725          8  
   15.4796    9.04725          6  
   15.8262    7.94727         10  
    16.002    8.74712         12  
   15.3279    8.32659         12  
    16.002    8.74712         10  
   15.3279    8.32659         10  
   15.4796    9.04725         12  
   15.4796    9.04725         10  
   15.8262    7.94727         14  
    16.002    8.74712         16  
   15.3279    8.32659         16  
    16.002    8.74712         14  
   15.3279    8.32659         14  
   15.4796    9.04725         16  
   15.4796    9.04725         14  
   15.8262    7.94727         18  
    16.002    8.74712         18  
   15.3279    8.32659         18  
   15.4796    9.04725         18  
   4.17262    12.0525          2  
   3.99731    11.2527          4  
   4.67149    11.6733          4  
   3.99731    11.2527          2  
   4.67149    11.6733          2  
   4.52004    10.9527          4  
   4.52004    10.9527          2  
   4.17262    12.0525          6  
   3.99731    11.2527          8  
   4.67149    11.6733          8  
   3.99731    11.2527          6  
   4.67149    11.6733          6  
   4.52004    10.9527          8  
   4.52004    10.9527          6  
   4.17262    12.0525         10  
   3.99731    11.2527         12  
   4.67149    11.6733         12  
   3.99731    11.2527         10  
   4.67149    11.6733         10  
   4.52004    10.9527         12  
   4.52004    10.9527         10  
   4.17262    12.0525         14  
   3.99731    11.2527         16  
   4.67149    11.6733         16  
   3.99731    11.2527         14  
   4.67149    11.6733         14  
   4.52004    10.9527         16  
   4.52004    10.9527         14  
   4.17262    12.0525         18  
   3.99731    11.2527         18  
   4.67149    11.6733         18  
   4.52004    10.9527         18  
   12.0525    15.8274          2  
   11.2528    16.0027          4  
   11.6733    15.3285          4  
   11.2528    16.0027          2  
   11.6733    15.3285          2  
   10.9527      15.48          4  
   10.9527      15.48          2  
   12.0525    15.8274          6  
   11.2528    16.0027          8  
   11.6733    15.3285          8  
   11.2528    16.0027          6  
   11.6733    15.3285          6  
   10.9527      15.48          8  
   10.9527      15.48          6  
   12.0525    15.8274         10  
   11.2528    16.0027         12  
   11.6733    15.3285         12  
   11.2528    16.0027         10  
   11.6733    15.3285         10  
   10.9527      15.48         12  
   10.9527      15.48         10  
   12.0525    15.8274         14  
   11.2528    16.0027         16  
   11.6733    15.3285         16  
   11.2528    16.0027         14  
   11.6733    15.3285         14  
   10.9527      15.48         16  
   10.9527      15.48         14  
   12.0525    15.8274         18  
   11.2528    16.0027         18  
   11.6733    15.3285         18  
   10.9527      15.48         18  
   12.1354    4.92073          4  
   12.1354    4.92073          2  
   12.1354    4.92073          8  
   12.1354    4.92073          6  
   12.1354    4.92073         12  
   12.1354    4.92073         10  
   12.1354    4.92073         16  
   12.1354    4.92073         14  
   12.1354    4.92073         18  
   15.2639    12.0947          4  
   15.2639    12.0947          2  
   15.2639    12.0947          8  
   15.2639    12.0947          6  
   15.2639    12.0947         12  
   15.2639    12.0947         10  
   15.2639    12.0947         16  
   15.2639    12.0947         14  
   15.2639    12.0947         18  
    4.7374    7.90501          4  
    4.7374    7.90501          2  
    4.7374    7.90501          8  
    4.7374    7.90501          6  
    4.7374    7.90501         12  
    4.7374    7.90501         10  
    4.7374    7.90501         16  
    4.7374    7.90501         14  
    4.7374    7.90501         18  
   7.90533    15.2639          4  
   7.90533    15.2639          2  
   7.90533    15.2639          8  
   7.90533    15.2639          6  
   7.90533    15.2639         12  
   7.90533    15.2639         10  
   7.90533    15.2639         16  
   7.90533    15.2639         14  
   7.90533    15.2639         18  
   14.1295    4.52071          4  
   14.1295    4.52071          2  
   14.1295    4.52071          8  
   14.1295    4.52071          6  
   14.1295    4.52071         12  
   14.1295    4.52071         10  
   14.1295    4.52071         16  
   14.1295    4.52071         14  
   14.1295    4.52071         18  
   4.43431    5.78102          4  
   4.43431    5.78102          2  
   4.43431    5.78102          8  
   4.43431    5.78102          6  
   4.43431    5.78102         12  
   4.43431    5.78102         10  
   4.43431    5.78102         16  
   4.43431    5.78102         14  
   4.43431    5.78102         18  
   15.5819    14.2217          4  
   15.5819    14.2217          2  
   15.5819    14.2217          8  
   15.5819    14.2217          6  
   15.5819    14.2217         12  
   15.5819    14.2217         10  
   15.5819    14.2217         16  
   15.5819    14.2217         14  
   15.5819    14.2217         18  
   5.77826    15.5819          4  
   5.77826    15.5819          2  
   5.77826    15.5819          8  
   5.77826    15.5819          6  
   5.77826    15.5819         12  
   5.77826    15.5819         10  
   5.77826    15.5819         16  
   5.77826    15.5819         14  
   5.77826    15.5819         18  
    8.0407    3.71663          2  
    9.0529    3.81349          4  
    8.3733     4.4435          4  
    9.0529    3.81349          2  
    8.3733     4.4435          2  
   9.20014    4.42813          4  
   9.20014    4.42813          2  
    8.0407    3.71663          6  
    9.0529    3.81349          8  
    8.3733     4.4435          8  
    9.0529    3.81349          6  
    8.3733     4.4435          6  
   9.20014    4.42813          8  
   9.20014    4.42813          6  
    8.0407    3.71663         10  
    9.0529    3.81349         12  
    8.3733     4.4435         12  
    9.0529    3.81349         10  
    8.3733     4.4435         10  
   9.20014    4.42813         12  
   9.20014    4.42813         10  
    8.0407    3.71663         14  
    9.0529    3.81349         16  
    8.3733     4.4435         16  
    9.0529    3.81349         14  
    8.3733     4.4435         14  
   9.20014    4.42813         16  
   9.20014    4.42813         14  
    8.0407    3.71663         18  
    9.0529    3.81349         18  
    8.3733     4.4435         18  
   9.20014    4.42813         18  
   2.48095    10.9606          2  
   3.15147    10.7067          4  
   2.20586    10.1547          4  
   3.15147    10.7067          2  
   2.20586    10.1547          2  
   2.96424    9.83309          4  
   2.96424    9.83309          2  
   2.48095    10.9606          6  
   3.15147    10.7067          8  
   2.20586    10.1547          8  
   3.15147    10.7067          6  
   2.20586    10.1547          6  
   2.96424    9.83309          8  
   2.96424    9.83309          6  
   2.48095    10.9606         10  
   3.15147    10.7067         12  
   2.20586    10.1547         12  
   3.15147    10.7067         10  
   2.20586    10.1547         10  
   2.96424    9.83309         12  
   2.96424    9.83309         10  
   2.48095    10.9606         14  
   3.15147    10.7067         16  
   2.20586    10.1547         16  
   3.15147    10.7067         14  
   2.20586    10.1547         14  
   2.96424    9.83309         16  
   2.96424    9.83309         14  
   2.48095    10.9606         18  
   3.15147    10.7067         18  
   2.20586    10.1547         18  
   2.96424    9.83309         18  
   10.9607    17.5191          2  
   10.7069    16.8486          4  
   10.1548    17.7942          4  
   10.7069    16.8486          2  
   10.1548    17.7942          2  
   9.83335    17.0359          4  
   9.83335    17.0359          2  
   10.9607    17.5191          6  
   10.7069    16.8486          8  
   10.1548    17.7942          8  
   10.7069    16.8486          6  
   10.1548    17.7942          6  
   9.83335    17.0359          8  
   9.83335    17.0359          6  
   10.9607    17.5191         10  
   10.7069    16.8486         12  
   10.1548    17.7942         12  
   10.7069    16.8486         10  
   10.1548    17.7942         10  
   9.83335    17.0359         12  
   9.83335    17.0359         10  
   10.9607    17.5191         14  
   10.7069    16.8486         16  
   10.1548    17.7942         16  
   10.7069    16.8486         14  
   10.1548    17.7942         14  
   9.83335    17.0359         16  
   9.83335    17.0359         14  
   10.9607    17.5191         18  
   10.7069    16.8486         18  
   10.1548    17.7942         18  
   9.83335    17.0359         18  
   17.5187    9.03923          2  
   16.8482     9.2931          4  
    17.794    9.84514          4  
   16.8482     9.2931          2  
    17.794    9.84514          2  
   17.0357    10.1666          4  
   17.0357    10.1666          2  
   17.5187    9.03923          6  
   16.8482     9.2931          8  
    17.794    9.84514          8  
   16.8482     9.2931          6  
    17.794    9.84514          6  
   17.0357    10.1666          8  
   17.0357    10.1666          6  
   17.5187    9.03923         10  
   16.8482     9.2931         12  
    17.794    9.84514         12  
   16.8482     9.2931         10  
    17.794    9.84514         10  
   17.0357    10.1666         12  
   17.0357    10.1666         10  
   17.5187    9.03923         14  
   16.8482     9.2931         16  
    17.794    9.84514         16  
   16.8482     9.2931         14  
    17.794    9.84514         14  
   17.0357    10.1666         16  
   17.0357    10.1666         14  
   17.5187    9.03923         18  
   16.8482     9.2931         18  
    17.794    9.84514         18  
   17.0357    10.1666         18  
   8.37473    2.97249          4  
   9.56576    2.44886          4  
   8.37473    2.97249          2  
   9.56576    2.44886          2  
   9.30933    3.13118          4  
   9.30933    3.13118          2  
   8.37473    2.97249          8  
   9.56576    2.44886          8  
   8.37473    2.97249          6  
   9.56576    2.44886          6  
   9.30933    3.13118          8  
   9.30933    3.13118          6  
   8.37473    2.97249         12  
   9.56576    2.44886         12  
   8.37473    2.97249         10  
   9.56576    2.44886         10  
   9.30933    3.13118         12  
   9.30933    3.13118         10  
   8.37473    2.97249         16  
   9.56576    2.44886         16  
   8.37473    2.97249         14  
   9.56576    2.44886         14  
   9.30933    3.13118         16  
   9.30933    3.13118         14  
   8.37473    2.97249         18  
   9.56576    2.44886         18  
   9.30933    3.13118         18  
  0.977925    3.51377          4  
  0.977925    3.51377          2  
  0.977925    3.51377          8  
  0.977925    3.51377          6  
  0.977925    3.51377         12  
  0.977925    3.51377         10  
  0.977925    3.51377         16  
  0.977925    3.51377         14  
  0.977925    3.51377         18  
   16.4204   0.998518          4  
   16.4204   0.998518          2  
   16.4204   0.998518          8  
   16.4204   0.998518          6  
   16.4204   0.998518         12  
   16.4204   0.998518         10  
   16.4204   0.998518         16  
   16.4204   0.998518         14  
   16.4204   0.998518         18  
   3.51039    19.0254          4  
   3.51039    19.0254          2  
   3.51039    19.0254          8  
   3.51039    19.0254          6  
   3.51039    19.0254         12  
   3.51039    19.0254         10  
   3.51039    19.0254         16  
   3.51039    19.0254         14  
   3.51039    19.0254         18  
   19.0254    16.4896          4  
   19.0254    16.4896          2  
   19.0254    16.4896          8  
   19.0254    16.4896          6  
   19.0254    16.4896         12  
   19.0254    16.4896         10  
   19.0254    16.4896         16  
   19.0254    16.4896         14  
   19.0254    16.4896         18  
   4.46516    12.7474          4  
   4.46516    12.7474          2  
   4.92288    12.3304          4  
   4.92288    12.3304          2  
   4.46516    12.7474          8  
   4.46516    12.7474          6  
   4.92288    12.3304          8  
   4.92288    12.3304          6  
   4.46516    12.7474         12  
   4.46516    12.7474         10  
   4.92288    12.3304         12  
   4.92288    12.3304         10  
   4.46516    12.7474         16  
   4.46516    12.7474         14  
   4.92288    12.3304         16  
   4.92288    12.3304         14  
   4.46516    12.7474         18  
   4.92288    12.3304         18  
   7.28372    4.18618          4  
   7.28372    4.18618          2  
   7.68515    4.78339          4  
   7.68515    4.78339          2  
   7.28372    4.18618          8  
   7.28372    4.18618          6  
   7.68515    4.78339          8  
   7.68515    4.78339          6  
   7.28372    4.18618         12  
   7.28372    4.18618         10  
   7.68515    4.78339         12  
   7.68515    4.78339         10  
   7.28372    4.18618         16  
   7.28372    4.18618         14  
   7.68515    4.78339         16  
   7.68515    4.78339         14  
   7.28372    4.18618         18  
   7.68515    4.78339         18  
   12.7474    15.5348          4  
   12.7474    15.5348          2  
   12.3304    15.0771          4  
   12.3304    15.0771          2  
   12.7474    15.5348          8  
   12.7474    15.5348          6  
   12.3304    15.0771          8  
   12.3304    15.0771          6  
   12.7474    15.5348         12  
   12.7474    15.5348         10  
   12.3304    15.0771         12  
   12.3304    15.0771         10  
   12.7474    15.5348         16  
   12.7474    15.5348         14  
   12.3304    15.0771         16  
   12.3304    15.0771         14  
   12.7474    15.5348         18  
   12.3304    15.0771         18  
   15.5295    7.25473          4  
   15.5295    7.25473          2  
   15.0745    7.67066          4  
   15.0745    7.67066          2  
   15.5295    7.25473          8  
   15.5295    7.25473          6  
   15.0745    7.67066          8  
   15.0745    7.67066          6  
   15.5295    7.25473         12  
   15.5295    7.25473         10  
   15.0745    7.67066         12  
   15.0745    7.67066         10  
   15.5295    7.25473         16  
   15.5295    7.25473         14  
   15.0745    7.67066         16  
   15.0745    7.67066         14  
   15.5295    7.25473         18  
   15.0745    7.67066         18  
   2.91273    12.5993          2  
   3.54267    12.3259          4  
   2.69684      11.78          4  
   3.54267    12.3259          2  
   2.69684      11.78          2  
   3.34707    11.5163          4  
   3.34707    11.5163          2  
   2.91273    12.5993          6  
   3.54267    12.3259          8  
   2.69684      11.78          8  
   3.54267    12.3259          6  
   2.69684      11.78          6  
   3.34707    11.5163          8  
   3.34707    11.5163          6  
   2.91273    12.5993         10  
   3.54267    12.3259         12  
   2.69684      11.78         12  
   3.54267    12.3259         10  
   2.69684      11.78         10  
   3.34707    11.5163         12  
   3.34707    11.5163         10  
   2.91273    12.5993         14  
   3.54267    12.3259         16  
   2.69684      11.78         16  
   3.54267    12.3259         14  
   2.69684      11.78         14  
   3.34707    11.5163         16  
   3.34707    11.5163         14  
   2.91273    12.5993         18  
   3.54267    12.3259         18  
   2.69684      11.78         18  
   3.34707    11.5163         18  
   12.5994    17.0873          2  
   12.3259    16.4573          4  
     11.78    17.3032          4  
   12.3259    16.4573          2  
     11.78    17.3032          2  
   11.5164    16.6529          4  
   11.5164    16.6529          2  
   12.5994    17.0873          6  
   12.3259    16.4573          8  
     11.78    17.3032          8  
   12.3259    16.4573          6  
     11.78    17.3032          6  
   11.5164    16.6529          8  
   11.5164    16.6529          6  
   12.5994    17.0873         10  
   12.3259    16.4573         12  
     11.78    17.3032         12  
   12.3259    16.4573         10  
     11.78    17.3032         10  
   11.5164    16.6529         12  
   11.5164    16.6529         10  
   12.5994    17.0873         14  
   12.3259    16.4573         16  
     11.78    17.3032         16  
   12.3259    16.4573         14  
     11.78    17.3032         14  
   11.5164    16.6529         16  
   11.5164    16.6529         14  
   12.5994    17.0873         18  
   12.3259    16.4573         18  
     11.78    17.3032         18  
   11.5164    16.6529         18  
    17.086    7.40086          2  
   16.4561    7.67406          4  
   17.3023    8.22005          4  
   16.4561    7.67406          2  
   17.3023    8.22005          2  
   16.6522    8.48358          4  
   16.6522    8.48358          2  
    17.086    7.40086          6  
   16.4561    7.67406          8  
   17.3023    8.22005          8  
   16.4561    7.67406          6  
   17.3023    8.22005          6  
   16.6522    8.48358          8  
   16.6522    8.48358          6  
    17.086    7.40086         10  
   16.4561    7.67406         12  
   17.3023    8.22005         12  
   16.4561    7.67406         10  
   17.3023    8.22005         10  
   16.6522    8.48358         12  
   16.6522    8.48358         10  
    17.086    7.40086         14  
   16.4561    7.67406         16  
   17.3023    8.22005         16  
   16.4561    7.67406         14  
   17.3023    8.22005         14  
   16.6522    8.48358         16  
   16.6522    8.48358         14  
    17.086    7.40086         18  
   16.4561    7.67406         18  
   17.3023    8.22005         18  
   16.6522    8.48358         18  
   10.9822    1.35749          2  
   11.8195    1.45751          4  
   10.7025    2.01343          4  
   11.8195    1.45751          2  
   10.7025    2.01343          2  
   11.5739    2.14198          4  
   11.5739    2.14198          2  
   10.9822    1.35749          6  
   11.8195    1.45751          8  
   10.7025    2.01343          8  
   11.8195    1.45751          6  
   10.7025    2.01343          6  
   11.5739    2.14198          8  
   11.5739    2.14198          6  
   10.9822    1.35749         10  
   11.8195    1.45751         12  
   10.7025    2.01343         12  
   11.8195    1.45751         10  
   10.7025    2.01343         10  
   11.5739    2.14198         12  
   11.5739    2.14198         10  
   10.9822    1.35749         14  
   11.8195    1.45751         16  
   10.7025    2.01343         16  
   11.8195    1.45751         14  
   10.7025    2.01343         14  
   11.5739    2.14198         16  
   11.5739    2.14198         14  
   10.9822    1.35749         18  
   11.8195    1.45751         18  
   10.7025    2.01343         18  
   11.5739    2.14198         18  
   3.13043    13.7219          4  
   3.13043    13.7219          2  
   3.79779    13.2347          4  
   3.79779    13.2347          2  
   3.13043    13.7219          8  
   3.13043    13.7219          6  
   3.79779    13.2347          8  
   3.79779    13.2347          6  
   3.13043    13.7219         12  
   3.13043    13.7219         10  
   3.79779    13.2347         12  
   3.79779    13.2347         10  
   3.13043    13.7219         16  
   3.13043    13.7219         14  
   3.79779    13.2347         16  
   3.79779    13.2347         14  
   3.13043    13.7219         18  
   3.79779    13.2347         18  
   5.91164    2.87454          4  
   7.25795    3.00016          4  
   5.91164    2.87454          2  
   7.25795    3.00016          2  
   6.59768    3.53036          4  
   6.59768    3.53036          2  
   5.91164    2.87454          8  
   7.25795    3.00016          8  
   5.91164    2.87454          6  
   7.25795    3.00016          6  
   6.59768    3.53036          8  
   6.59768    3.53036          6  
   5.91164    2.87454         12  
   7.25795    3.00016         12  
   5.91164    2.87454         10  
   7.25795    3.00016         10  
   6.59768    3.53036         12  
   6.59768    3.53036         10  
   5.91164    2.87454         16  
   7.25795    3.00016         16  
   5.91164    2.87454         14  
   7.25795    3.00016         14  
   6.59768    3.53036         16  
   6.59768    3.53036         14  
   5.91164    2.87454         18  
   7.25795    3.00016         18  
   6.59768    3.53036         18  
    13.722    16.8696          4  
    13.722    16.8696          2  
   13.2347    16.2022          4  
   13.2347    16.2022          2  
    13.722    16.8696          8  
    13.722    16.8696          6  
   13.2347    16.2022          8  
   13.2347    16.2022          6  
    13.722    16.8696         12  
    13.722    16.8696         10  
   13.2347    16.2022         12  
   13.2347    16.2022         10  
    13.722    16.8696         16  
    13.722    16.8696         14  
   13.2347    16.2022         16  
   13.2347    16.2022         14  
    13.722    16.8696         18  
   13.2347    16.2022         18  
   16.8674    6.27909          4  
   16.8674    6.27909          2  
   16.1985    6.76691          4  
   16.1985    6.76691          2  
   16.8674    6.27909          8  
   16.8674    6.27909          6  
   16.1985    6.76691          8  
   16.1985    6.76691          6  
   16.8674    6.27909         12  
   16.8674    6.27909         10  
   16.1985    6.76691         12  
   16.1985    6.76691         10  
   16.8674    6.27909         16  
   16.8674    6.27909         14  
   16.1985    6.76691         16  
   16.1985    6.76691         14  
   16.8674    6.27909         18  
   16.1985    6.76691         18  
   10.4911   0.678743          4  
   10.4911   0.678743          2  
   11.5347   0.728754          4  
   11.5347   0.728754          2  
   10.4911   0.678743          8  
   10.4911   0.678743          6  
   11.5347   0.728754          8  
   11.5347   0.728754          6  
   10.4911   0.678743         12  
   10.4911   0.678743         10  
   11.5347   0.728754         12  
   11.5347   0.728754         10  
   10.4911   0.678743         16  
   10.4911   0.678743         14  
   11.5347   0.728754         16  
   11.5347   0.728754         14  
   10.4911   0.678743         18  
   11.5347   0.728754         18  
   7.67489    2.45414          4  
   7.67489    2.45414          2  
   7.67489    2.45414          8  
   7.67489    2.45414          6  
   7.67489    2.45414         12  
   7.67489    2.45414         10  
   7.67489    2.45414         16  
   7.67489    2.45414         14  
   7.67489    2.45414         18  
    17.795    7.36822          4  
   17.4809    5.54545          4  
    17.795    7.36822          2  
   17.4809    5.54545          2  
   17.6379    6.45684          4  
   17.6379    6.45684          2  
    17.795    7.36822          8  
   17.4809    5.54545          8  
    17.795    7.36822          6  
   17.4809    5.54545          6  
   17.6379    6.45684          8  
   17.6379    6.45684          6  
    17.795    7.36822         12  
   17.4809    5.54545         12  
    17.795    7.36822         10  
   17.4809    5.54545         10  
   17.6379    6.45684         12  
   17.6379    6.45684         10  
    17.795    7.36822         16  
   17.4809    5.54545         16  
    17.795    7.36822         14  
   17.4809    5.54545         14  
   17.6379    6.45684         16  
   17.6379    6.45684         14  
    17.795    7.36822         18  
   17.4809    5.54545         18  
   17.6379    6.45684         18  
   2.20378     12.632          4  
   2.51534     14.456          4  
   2.20378     12.632          2  
   2.51534     14.456          2  
   2.35956     13.544          4  
   2.35956     13.544          2  
   2.20378     12.632          8  
   2.51534     14.456          8  
   2.20378     12.632          6  
   2.51534     14.456          6  
   2.35956     13.544          8  
   2.35956     13.544          6  
   2.20378     12.632         12  
   2.51534     14.456         12  
   2.20378     12.632         10  
   2.51534     14.456         10  
   2.35956     13.544         12  
   2.35956     13.544         10  
   2.20378     12.632         16  
   2.51534     14.456         16  
   2.20378     12.632         14  
   2.51534     14.456         14  
   2.35956     13.544         16  
   2.35956     13.544         14  
   2.20378     12.632         18  
   2.51534     14.456         18  
   2.35956     13.544         18  
    12.632    17.7962          4  
    14.456    17.4847          4  
    12.632    17.7962          2  
    14.456    17.4847          2  
    13.544    17.6404          4  
    13.544    17.6404          2  
    12.632    17.7962          8  
    14.456    17.4847          8  
    12.632    17.7962          6  
    14.456    17.4847          6  
    13.544    17.6404          8  
    13.544    17.6404          6  
    12.632    17.7962         12  
    14.456    17.4847         12  
    12.632    17.7962         10  
    14.456    17.4847         10  
    13.544    17.6404         12  
    13.544    17.6404         10  
    12.632    17.7962         16  
    14.456    17.4847         16  
    12.632    17.7962         14  
    14.456    17.4847         14  
    13.544    17.6404         16  
    13.544    17.6404         14  
    12.632    17.7962         18  
    14.456    17.4847         18  
    13.544    17.6404         18  
   18.5689    8.67145          2  
   19.2844    9.33572          4  
   18.0438    8.85534          4  
   19.2844    9.33572          2  
   18.0438    8.85534          2  
   18.5392    9.59043          4  
   18.5392    9.59043          2  
   18.5689    8.67145          6  
   19.2844    9.33572          8  
   18.0438    8.85534          8  
   19.2844    9.33572          6  
   18.0438    8.85534          6  
   18.5392    9.59043          8  
   18.5392    9.59043          6  
   18.5689    8.67145         10  
   19.2844    9.33572         12  
   18.0438    8.85534         12  
   19.2844    9.33572         10  
   18.0438    8.85534         10  
   18.5392    9.59043         12  
   18.5392    9.59043         10  
   18.5689    8.67145         14  
   19.2844    9.33572         16  
   18.0438    8.85534         16  
   19.2844    9.33572         14  
   18.0438    8.85534         14  
   18.5392    9.59043         16  
   18.5392    9.59043         14  
   18.5689    8.67145         18  
   19.2844    9.33572         18  
   18.0438    8.85534         18  
   18.5392    9.59043         18  
   11.3285    18.5692          2  
   10.6643    19.2846          4  
   11.1446    18.0441          4  
   10.6643    19.2846          2  
   11.1446    18.0441          2  
   10.4095    18.5394          4  
   10.4095    18.5394          2  
   11.3285    18.5692          6  
   10.6643    19.2846          8  
   11.1446    18.0441          8  
   10.6643    19.2846          6  
   11.1446    18.0441          6  
   10.4095    18.5394          8  
   10.4095    18.5394          6  
   11.3285    18.5692         10  
   10.6643    19.2846         12  
   11.1446    18.0441         12  
   10.6643    19.2846         10  
   11.1446    18.0441         10  
   10.4095    18.5394         12  
   10.4095    18.5394         10  
   11.3285    18.5692         14  
   10.6643    19.2846         16  
   11.1446    18.0441         16  
   10.6643    19.2846         14  
   11.1446    18.0441         14  
   10.4095    18.5394         16  
   10.4095    18.5394         14  
   11.3285    18.5692         18  
   10.6643    19.2846         18  
   11.1446    18.0441         18  
   10.4095    18.5394         18  
   1.43082    11.3285          2  
  0.715412    10.6642          4  
   1.95589    11.1446          4  
  0.715412    10.6642          2  
   1.95589    11.1446          2  
   1.46064    10.4095          4  
   1.46064    10.4095          2  
   1.43082    11.3285          6  
  0.715412    10.6642          8  
   1.95589    11.1446          8  
  0.715412    10.6642          6  
   1.95589    11.1446          6  
   1.46064    10.4095          8  
   1.46064    10.4095          6  
   1.43082    11.3285         10  
  0.715412    10.6642         12  
   1.95589    11.1446         12  
  0.715412    10.6642         10  
   1.95589    11.1446         10  
   1.46064    10.4095         12  
   1.46064    10.4095         10  
   1.43082    11.3285         14  
  0.715412    10.6642         16  
   1.95589    11.1446         16  
  0.715412    10.6642         14  
   1.95589    11.1446         14  
   1.46064    10.4095         16  
   1.46064    10.4095         14  
   1.43082    11.3285         18  
  0.715412    10.6642         18  
   1.95589    11.1446         18  
   1.46064    10.4095         18  
   17.7129    14.0728          4  
   17.7129    14.0728          2  
   17.7129    14.0728          8  
   17.7129    14.0728          6  
   17.7129    14.0728         12  
   17.7129    14.0728         10  
   17.7129    14.0728         16  
   17.7129    14.0728         14  
   17.7129    14.0728         18  
   2.28989    5.92762          4  
   2.28989    5.92762          2  
   2.28989    5.92762          8  
   2.28989    5.92762          6  
   2.28989    5.92762         12  
   2.28989    5.92762         10  
   2.28989    5.92762         16  
   2.28989    5.92762         14  
   2.28989    5.92762         18  
   5.92722    17.7129          4  
   5.92722    17.7129          2  
   5.92722    17.7129          8  
   5.92722    17.7129          6  
   5.92722    17.7129         12  
   5.92722    17.7129         10  
   5.92722    17.7129         16  
   5.92722    17.7129         14  
   5.92722    17.7129         18  
   17.0755    4.48668          4  
   17.0755    4.48668          2  
    18.116    4.97673          4  
    18.116    4.97673          2  
   17.0755    4.48668          8  
   17.0755    4.48668          6  
    18.116    4.97673          8  
    18.116    4.97673          6  
   17.0755    4.48668         12  
   17.0755    4.48668         10  
    18.116    4.97673         12  
    18.116    4.97673         10  
   17.0755    4.48668         16  
   17.0755    4.48668         14  
    18.116    4.97673         16  
    18.116    4.97673         14  
   17.0755    4.48668         18  
    18.116    4.97673         18  
   15.5199    17.0975          4  
   15.5199    17.0975          2  
   15.0268    18.1281          4  
   15.0268    18.1281          2  
   15.5199    17.0975          8  
   15.5199    17.0975          6  
   15.0268    18.1281          8  
   15.0268    18.1281          6  
   15.5199    17.0975         12  
   15.5199    17.0975         10  
   15.0268    18.1281         12  
   15.0268    18.1281         10  
   15.5199    17.0975         16  
   15.5199    17.0975         14  
   15.0268    18.1281         16  
   15.0268    18.1281         14  
   15.5199    17.0975         18  
   15.0268    18.1281         18  
   4.61287    2.99997          4  
   4.61287    2.99997          2  
   5.17523    2.07091          4  
   5.17523    2.07091          2  
   4.61287    2.99997          8  
   4.61287    2.99997          6  
   5.17523    2.07091          8  
   5.17523    2.07091          6  
   4.61287    2.99997         12  
   4.61287    2.99997         10  
   5.17523    2.07091         12  
   5.17523    2.07091         10  
   4.61287    2.99997         16  
   4.61287    2.99997         14  
   5.17523    2.07091         16  
   5.17523    2.07091         14  
   4.61287    2.99997         18  
   5.17523    2.07091         18  
   2.90253    15.5199          4  
   2.90253    15.5199          2  
   1.87191    15.0268          4  
   1.87191    15.0268          2  
   2.90253    15.5199          8  
   2.90253    15.5199          6  
   1.87191    15.0268          8  
   1.87191    15.0268          6  
   2.90253    15.5199         12  
   2.90253    15.5199         10  
   1.87191    15.0268         12  
   1.87191    15.0268         10  
   2.90253    15.5199         16  
   2.90253    15.5199         14  
   1.87191    15.0268         16  
   1.87191    15.0268         14  
   2.90253    15.5199         18  
   1.87191    15.0268         18  
   10.0307    1.35485          4  
   10.0307    1.35485          2  
   9.79823    1.90186          4  
   9.79823    1.90186          2  
   10.0307    1.35485          8  
   10.0307    1.35485          6  
   9.79823    1.90186          8  
   9.79823    1.90186          6  
   10.0307    1.35485         12  
   10.0307    1.35485         10  
   9.79823    1.90186         12  
   9.79823    1.90186         10  
   10.0307    1.35485         16  
   10.0307    1.35485         14  
   9.79823    1.90186         16  
   9.79823    1.90186         14  
   10.0307    1.35485         18  
   9.79823    1.90186         18  
   9.39035   0.677425          4  
   9.39035   0.677425          2  
   9.39035   0.677425          8  
   9.39035   0.677425          6  
   9.39035   0.677425         12  
   9.39035   0.677425         10  
   9.39035   0.677425         16  
   9.39035   0.677425         14  
   9.39035   0.677425         18  
   16.3753    4.18516          4  
   16.3753    4.18516          2  
   16.3753    4.18516          8  
   16.3753    4.18516          6  
   16.3753    4.18516         12  
   16.3753    4.18516         10  
   16.3753    4.18516         16  
   16.3753    4.18516         14  
   16.3753    4.18516         18  
   4.24754    3.63132          4  
   4.24754    3.63132          2  
   4.24754    3.63132          8  
   4.24754    3.63132          6  
   4.24754    3.63132         12  
   4.24754    3.63132         10  
   4.24754    3.63132         16  
   4.24754    3.63132         14  
   4.24754    3.63132         18  
   15.8399    16.4294          4  
   15.8399    16.4294          2  
   15.8399    16.4294          8  
   15.8399    16.4294          6  
   15.8399    16.4294         12  
   15.8399    16.4294         10  
   15.8399    16.4294         16  
   15.8399    16.4294         14  
   15.8399    16.4294         18  
   3.57056    15.8399          4  
   3.57056    15.8399          2  
   3.57056    15.8399          8  
   3.57056    15.8399          6  
   3.57056    15.8399         12  
   3.57056    15.8399         10  
   3.57056    15.8399         16  
   3.57056    15.8399         14  
   3.57056    15.8399         18  
   18.5365    8.00351          4  
   18.5365    8.00351          2  
   17.9194    8.11178          4  
   17.9194    8.11178          2  
   18.5365    8.00351          8  
   18.5365    8.00351          6  
   17.9194    8.11178          8  
   17.9194    8.11178          6  
   18.5365    8.00351         12  
   18.5365    8.00351         10  
   17.9194    8.11178         12  
   17.9194    8.11178         10  
   18.5365    8.00351         16  
   18.5365    8.00351         14  
   17.9194    8.11178         16  
   17.9194    8.11178         14  
   18.5365    8.00351         18  
   17.9194    8.11178         18  
   11.9966    18.5372          4  
   11.9966    18.5372          2  
   11.8883    17.9202          4  
   11.8883    17.9202          2  
   11.9966    18.5372          8  
   11.9966    18.5372          6  
   11.8883    17.9202          8  
   11.8883    17.9202          6  
   11.9966    18.5372         12  
   11.9966    18.5372         10  
   11.8883    17.9202         12  
   11.8883    17.9202         10  
   11.9966    18.5372         16  
   11.9966    18.5372         14  
   11.8883    17.9202         16  
   11.8883    17.9202         14  
   11.9966    18.5372         18  
   11.8883    17.9202         18  
   1.46283    11.9966          4  
   1.46283    11.9966          2  
   2.07983    11.8883          4  
   2.07983    11.8883          2  
   1.46283    11.9966          8  
   1.46283    11.9966          6  
   2.07983    11.8883          8  
   2.07983    11.8883          6  
   1.46283    11.9966         12  
   1.46283    11.9966         10  
   2.07983    11.8883         12  
   2.07983    11.8883         10  
   1.46283    11.9966         16  
   1.46283    11.9966         14  
   2.07983    11.8883         16  
   2.07983    11.8883         14  
   1.46283    11.9966         18  
   2.07983    11.8883         18  
   19.2682    8.37676          4  
   19.2682    8.37676          2  
   19.2682    8.37676          8  
   19.2682    8.37676          6  
   19.2682    8.37676         12  
   19.2682    8.37676         10  
   19.2682    8.37676         16  
   19.2682    8.37676         14  
   19.2682    8.37676         18  
   11.6233    19.2686          4  
   11.6233    19.2686          2  
   11.6233    19.2686          8  
   11.6233    19.2686          6  
   11.6233    19.2686         12  
   11.6233    19.2686         10  
   11.6233    19.2686         16  
   11.6233    19.2686         14  
   11.6233    19.2686         18  
  0.731413    11.6233          4  
  0.731413    11.6233          2  
  0.731413    11.6233          8  
  0.731413    11.6233          6  
  0.731413    11.6233         12  
  0.731413    11.6233         10  
  0.731413    11.6233         16  
  0.731413    11.6233         14  
  0.731413    11.6233         18  
   13.3144     8.1943          4  
   13.3144     8.1943          8  
   13.3144     8.1943         12  
   13.3144     8.1943         16  
   6.58657    12.0125          4  
   6.58657    12.0125          8  
   6.58657    12.0125         12  
   6.58657    12.0125         16  
   11.8124     13.287          4  
   11.8124     13.287          8  
   11.8124     13.287         12  
   11.8124     13.287         16  
   8.08124    6.34254          4  
   8.08124    6.34254          8  
   8.08124    6.34254         12  
   8.08124    6.34254         16  
   8.69868    13.4686          4  
   8.69868    13.4686          8  
   8.69868    13.4686         12  
   8.69868    13.4686         16  
   11.3576    6.43723          4  
   11.3576    6.43723          8  
   11.3576    6.43723         12  
   11.3576    6.43723         16  
   6.42316    8.63313          4  
   6.42316    8.63313          8  
   6.42316    8.63313         12  
   6.42316    8.63313         16  
   13.6196     11.448          4  
   13.6196     11.448          8  
   13.6196     11.448         12  
   13.6196     11.448         16  
    6.5371    7.79344          4  
    6.5371    7.79344          8  
    6.5371    7.79344         12  
    6.5371    7.79344         16  
   7.61186    8.51566          4  
   7.61186    8.51566          8  
   7.61186    8.51566         12  
   7.61186    8.51566         16  
    7.6029    9.85077          4  
    7.6029    9.85077          8  
    7.6029    9.85077         12  
    7.6029    9.85077         16  
   8.59798     9.4393          4  
   8.59798     9.4393          8  
   8.59798     9.4393         12  
   8.59798     9.4393         16  
   8.42637    10.8111          4  
   8.42637    10.8111          8  
   8.42637    10.8111         12  
   8.42637    10.8111         16  
   9.21034     10.086          4  
   9.21034     10.086          8  
   9.21034     10.086         12  
   9.21034     10.086         16  
   10.1111    9.04121          4  
   10.1111    9.04121          8  
   10.1111    9.04121         12  
   10.1111    9.04121         16  
   10.9074    10.2483          4  
   10.9074    10.2483          8  
   10.9074    10.2483         12  
   10.9074    10.2483         16  
   9.97168    11.2731          4  
   9.97168    11.2731          8  
   9.97168    11.2731         12  
   9.97168    11.2731         16  
   11.1756    8.81725          4  
   11.1756    8.81725          8  
   11.1756    8.81725         12  
   11.1756    8.81725         16  
   11.7117    9.50291          4  
   11.7117    9.50291          8  
   11.7117    9.50291         12  
   11.7117    9.50291         16  
   10.1998    7.57675          4  
   10.1998    7.57675          8  
   10.1998    7.57675         12  
   10.1998    7.57675         16  
     8.787    8.59144          4  
     8.787    8.59144          8  
     8.787    8.59144         12  
     8.787    8.59144         16  
   8.98303    11.4644          4  
   8.98303    11.4644          8  
   8.98303    11.4644         12  
   8.98303    11.4644         16  
   9.81362    12.6087          4  
   9.81362    12.6087          8  
   9.81362    12.6087         12  
   9.81362    12.6087         16  
   11.2775    12.0365          4  
   11.2775    12.0365          8  
   11.2775    12.0365         12  
   11.2775    12.0365         16  
   11.5192    10.9039          4  
   11.5192    10.9039          8  
   11.5192    10.9039         12  
   11.5192    10.9039         16  
   7.67412    11.7404          4  
   7.67412    11.7404          8  
   7.67412    11.7404         12  
   7.67412    11.7404         16  
   12.5216    11.7364          4  
   12.5216    11.7364          8  
   12.5216    11.7364         12  
   12.5216    11.7364         16  
   12.4646    8.82274          4  
   12.4646    8.82274          8  
   12.4646    8.82274         12  
   12.4646    8.82274         16  
   11.5788    7.83535          4  
   11.5788    7.83535          8  
   11.5788    7.83535         12  
   11.5788    7.83535         16  
   10.1573    6.32879          4  
   10.1573    6.32879          8  
   10.1573    6.32879         12  
   10.1573    6.32879         16  
   12.6865    7.22876          4  
   12.6865    7.22876          8  
   12.6865    7.22876         12  
   12.6865    7.22876         16  
   6.29135    9.81799          4  
   6.29135    9.81799          8  
   6.29135    9.81799         12  
   6.29135    9.81799         16  
   12.5523     10.474          4  
   12.5523     10.474          8  
   12.5523     10.474         12  
   12.5523     10.474         16  
   13.7541    10.2952          4  
   13.7541    10.2952          8  
   13.7541    10.2952         12  
   13.7541    10.2952         16  
   12.7528    12.7508          4  
   12.7528    12.7508          8  
   12.7528    12.7508         12  
   12.7528    12.7508         16  
   7.55852    7.27407          4  
   7.55852    7.27407          8  
   7.55852    7.27407         12  
   7.55852    7.27407         16  
   8.82581    12.2906          4  
   8.82581    12.2906          8  
   8.82581    12.2906         12  
   8.82581    12.2906         16  
   9.82647     13.711          4  
   9.82647     13.711          8  
   9.82647     13.711         12  
   9.82647     13.711         16  
   7.65657    13.0992          4  
   7.65657    13.0992          8  
   7.65657    13.0992         12  
   7.65657    13.0992         16  
    7.1406    10.8252          4  
    7.1406    10.8252          8  
    7.1406    10.8252         12  
    7.1406    10.8252         16  
   12.9306    9.45051          4  
   12.9306    9.45051          8  
   12.9306    9.45051         12  
   12.9306    9.45051         16  
   13.5627    12.2368          4  
   13.5627    12.2368          8  
   13.5627    12.2368         12  
   13.5627    12.2368         16  
   8.94462    7.44167          4  
   8.94462    7.44167          8  
   8.94462    7.44167         12  
   8.94462    7.44167         16  
   6.34386     10.979          4  
   6.34386     10.979          8  
   6.34386     10.979         12  
   6.34386     10.979         16  
   13.6799    9.18143          4  
   13.6799    9.18143          8  
   13.6799    9.18143         12  
   13.6799    9.18143         16  
   10.5956    12.7953          4  
   10.5956    12.7953          8  
   10.5956    12.7953         12  
   10.5956    12.7953         16  
   10.8756    13.6214          4  
   10.8756    13.6214          8  
   10.8756    13.6214         12  
   10.8756    13.6214         16  
   6.90599    12.8567          4  
   6.90599    12.8567          8  
   6.90599    12.8567         12  
   6.90599    12.8567         16  
   12.1788    6.47214          4  
   12.1788    6.47214          8  
   12.1788    6.47214         12  
   12.1788    6.47214         16  
   8.94129    6.32001          4  
   8.94129    6.32001          8  
   8.94129    6.32001         12  
   8.94129    6.32001         16  
   10.1573    6.32879          2  
   11.3576    6.43723          2  
   11.5788    7.83535          2  
   10.1998    7.57675          2  
   10.7575    6.38301          4  
   10.1786    6.95277          4  
   11.4682    7.13629          4  
   10.8893    7.70605          4  
   10.7575    6.38301          2  
   10.1786    6.95277          2  
   11.4682    7.13629          2  
   10.8893    7.70605          2  
   10.8234    7.04453          4  
   10.8234    7.04453          2  
   10.1573    6.32879          6  
   11.3576    6.43723          6  
   11.5788    7.83535          6  
   10.1998    7.57675          6  
   10.7575    6.38301          8  
   10.1786    6.95277          8  
   11.4682    7.13629          8  
   10.8893    7.70605          8  
   10.7575    6.38301          6  
   10.1786    6.95277          6  
   11.4682    7.13629          6  
   10.8893    7.70605          6  
   10.8234    7.04453          8  
   10.8234    7.04453          6  
   10.1573    6.32879         10  
   11.3576    6.43723         10  
   11.5788    7.83535         10  
   10.1998    7.57675         10  
   10.7575    6.38301         12  
   10.1786    6.95277         12  
   11.4682    7.13629         12  
   10.8893    7.70605         12  
   10.7575    6.38301         10  
   10.1786    6.95277         10  
   11.4682    7.13629         10  
   10.8893    7.70605         10  
   10.8234    7.04453         12  
   10.8234    7.04453         10  
   10.1573    6.32879         14  
   11.3576    6.43723         14  
   11.5788    7.83535         14  
   10.1998    7.57675         14  
   10.7575    6.38301         16  
   10.1786    6.95277         16  
   11.4682    7.13629         16  
   10.8893    7.70605         16  
   10.7575    6.38301         14  
   10.1786    6.95277         14  
   11.4682    7.13629         14  
   10.8893    7.70605         14  
   10.8234    7.04453         16  
   10.8234    7.04453         14  
   10.1573    6.32879         18  
   11.3576    6.43723         18  
   11.5788    7.83535         18  
   10.1998    7.57675         18  
   10.7575    6.38301         18  
   10.1786    6.95277         18  
   11.4682    7.13629         18  
   10.8893    7.70605         18  
   10.8234    7.04453         18  
   10.0787    5.66439          4  
   11.3259     5.8038          4  
   10.0787    5.66439          2  
   11.3259     5.8038          2  
   10.7051    5.71289          4  
   10.7051    5.71289          2  
   10.0787    5.66439          8  
   11.3259     5.8038          8  
   10.0787    5.66439          6  
   11.3259     5.8038          6  
   10.7051    5.71289          8  
   10.7051    5.71289          6  
   10.0787    5.66439         12  
   11.3259     5.8038         12  
   10.0787    5.66439         10  
   11.3259     5.8038         10  
   10.7051    5.71289         12  
   10.7051    5.71289         10  
   10.0787    5.66439         16  
   11.3259     5.8038         16  
   10.0787    5.66439         14  
   11.3259     5.8038         14  
   10.7051    5.71289         16  
   10.7051    5.71289         14  
   10.0787    5.66439         18  
   11.3259     5.8038         18  
   10.7051    5.71289         18  
   9.82647     13.711          2  
   8.69868    13.4686          2  
   8.82581    12.2906          2  
   9.81362    12.6087          2  
   9.26258    13.5898          4  
   9.82004    13.1599          4  
   8.76225    12.8796          4  
   9.31972    12.4497          4  
   9.26258    13.5898          2  
   9.82004    13.1599          2  
   8.76225    12.8796          2  
   9.31972    12.4497          2  
   9.29115    13.0197          4  
   9.29115    13.0197          2  
   9.82647     13.711          6  
   8.69868    13.4686          6  
   8.82581    12.2906          6  
   9.81362    12.6087          6  
   9.26258    13.5898          8  
   9.82004    13.1599          8  
   8.76225    12.8796          8  
   9.31972    12.4497          8  
   9.26258    13.5898          6  
   9.82004    13.1599          6  
   8.76225    12.8796          6  
   9.31972    12.4497          6  
   9.29115    13.0197          8  
   9.29115    13.0197          6  
   9.82647     13.711         10  
   8.69868    13.4686         10  
   8.82581    12.2906         10  
   9.81362    12.6087         10  
   9.26258    13.5898         12  
   9.82004    13.1599         12  
   8.76225    12.8796         12  
   9.31972    12.4497         12  
   9.26258    13.5898         10  
   9.82004    13.1599         10  
   8.76225    12.8796         10  
   9.31972    12.4497         10  
   9.29115    13.0197         12  
   9.29115    13.0197         10  
   9.82647     13.711         14  
   8.69868    13.4686         14  
   8.82581    12.2906         14  
   9.81362    12.6087         14  
   9.26258    13.5898         16  
   9.82004    13.1599         16  
   8.76225    12.8796         16  
   9.31972    12.4497         16  
   9.26258    13.5898         14  
   9.82004    13.1599         14  
   8.76225    12.8796         14  
   9.31972    12.4497         14  
   9.29115    13.0197         16  
   9.29115    13.0197         14  
   9.82647     13.711         18  
   8.69868    13.4686         18  
   8.82581    12.2906         18  
   9.81362    12.6087         18  
   9.26258    13.5898         18  
   9.82004    13.1599         18  
   8.76225    12.8796         18  
   9.31972    12.4497         18  
   9.29115    13.0197         18  
   11.8124     13.287          2  
   11.2775    12.0365          2  
   12.5216    11.7364          2  
   12.7528    12.7508          2  
   11.5449    12.6618          4  
   12.2826    13.0189          4  
   11.8995    11.8865          4  
   12.6372    12.2436          4  
   11.5449    12.6618          2  
   12.2826    13.0189          2  
   11.8995    11.8865          2  
   12.6372    12.2436          2  
   12.0911    12.4527          4  
   12.0911    12.4527          2  
   11.8124     13.287          6  
   11.2775    12.0365          6  
   12.5216    11.7364          6  
   12.7528    12.7508          6  
   11.5449    12.6618          8  
   12.2826    13.0189          8  
   11.8995    11.8865          8  
   12.6372    12.2436          8  
   11.5449    12.6618          6  
   12.2826    13.0189          6  
   11.8995    11.8865          6  
   12.6372    12.2436          6  
   12.0911    12.4527          8  
   12.0911    12.4527          6  
   11.8124     13.287         10  
   11.2775    12.0365         10  
   12.5216    11.7364         10  
   12.7528    12.7508         10  
   11.5449    12.6618         12  
   12.2826    13.0189         12  
   11.8995    11.8865         12  
   12.6372    12.2436         12  
   11.5449    12.6618         10  
   12.2826    13.0189         10  
   11.8995    11.8865         10  
   12.6372    12.2436         10  
   12.0911    12.4527         12  
   12.0911    12.4527         10  
   11.8124     13.287         14  
   11.2775    12.0365         14  
   12.5216    11.7364         14  
   12.7528    12.7508         14  
   11.5449    12.6618         16  
   12.2826    13.0189         16  
   11.8995    11.8865         16  
   12.6372    12.2436         16  
   11.5449    12.6618         14  
   12.2826    13.0189         14  
   11.8995    11.8865         14  
   12.6372    12.2436         14  
   12.0911    12.4527         16  
   12.0911    12.4527         14  
   11.8124     13.287         18  
   11.2775    12.0365         18  
   12.5216    11.7364         18  
   12.7528    12.7508         18  
   11.5449    12.6618         18  
   12.2826    13.0189         18  
   11.8995    11.8865         18  
   12.6372    12.2436         18  
   12.0911    12.4527         18  
   8.08124    6.34254          2  
   7.55852    7.27407          2  
   7.01149    6.86927          4  
   7.79062     6.0062          4  
   7.81988     6.8083          4  
   7.01149    6.86927          2  
   7.79062     6.0062          2  
   7.81988     6.8083          2  
   7.38804    6.42077          4  
   7.38804    6.42077          2  
   8.08124    6.34254          6  
   7.55852    7.27407          6  
   7.01149    6.86927          8  
   7.79062     6.0062          8  
   7.81988     6.8083          8  
   7.01149    6.86927          6  
   7.79062     6.0062          6  
   7.81988     6.8083          6  
   7.38804    6.42077          8  
   7.38804    6.42077          6  
   8.08124    6.34254         10  
   7.55852    7.27407         10  
   7.01149    6.86927         12  
   7.79062     6.0062         12  
   7.81988     6.8083         12  
   7.01149    6.86927         10  
   7.79062     6.0062         10  
   7.81988     6.8083         10  
   7.38804    6.42077         12  
   7.38804    6.42077         10  
   8.08124    6.34254         14  
   7.55852    7.27407         14  
   7.01149    6.86927         16  
   7.79062     6.0062         16  
   7.81988     6.8083         16  
   7.01149    6.86927         14  
   7.79062     6.0062         14  
   7.81988     6.8083         14  
   7.38804    6.42077         16  
   7.38804    6.42077         14  
   8.08124    6.34254         18  
   7.55852    7.27407         18  
   7.01149    6.86927         18  
   7.79062     6.0062         18  
   7.81988     6.8083         18  
   7.38804    6.42077         18  
   13.3144     8.1943          2  
   12.6865    7.22876          2  
   13.0004    7.71153          4  
   13.8222    7.84715          4  
    13.111    6.84661          4  
   13.0004    7.71153          2  
   13.8222    7.84715          2  
    13.111    6.84661          2  
   13.4836    7.33386          4  
   13.4836    7.33386          2  
   13.3144     8.1943          6  
   12.6865    7.22876          6  
   13.0004    7.71153          8  
   13.8222    7.84715          8  
    13.111    6.84661          8  
   13.0004    7.71153          6  
   13.8222    7.84715          6  
    13.111    6.84661          6  
   13.4836    7.33386          8  
   13.4836    7.33386          6  
   13.3144     8.1943         10  
   12.6865    7.22876         10  
   13.0004    7.71153         12  
   13.8222    7.84715         12  
    13.111    6.84661         12  
   13.0004    7.71153         10  
   13.8222    7.84715         10  
    13.111    6.84661         10  
   13.4836    7.33386         12  
   13.4836    7.33386         10  
   13.3144     8.1943         14  
   12.6865    7.22876         14  
   13.0004    7.71153         16  
   13.8222    7.84715         16  
    13.111    6.84661         16  
   13.0004    7.71153         14  
   13.8222    7.84715         14  
    13.111    6.84661         14  
   13.4836    7.33386         16  
   13.4836    7.33386         14  
   13.3144     8.1943         18  
   12.6865    7.22876         18  
   13.0004    7.71153         18  
   13.8222    7.84715         18  
    13.111    6.84661         18  
   13.4836    7.33386         18  
   9.91324    14.3555          4  
   8.70229    14.1491          4  
   9.91324    14.3555          2  
   8.70229    14.1491          2  
   9.30497    14.2735          4  
   9.30497    14.2735          2  
   9.91324    14.3555          8  
   8.70229    14.1491          8  
   9.91324    14.3555          6  
   8.70229    14.1491          6  
   9.30497    14.2735          8  
   9.30497    14.2735          6  
   9.91324    14.3555         12  
   8.70229    14.1491         12  
   9.91324    14.3555         10  
   8.70229    14.1491         10  
   9.30497    14.2735         12  
   9.30497    14.2735         10  
   9.91324    14.3555         16  
   8.70229    14.1491         16  
   9.91324    14.3555         14  
   8.70229    14.1491         14  
   9.30497    14.2735         16  
   9.30497    14.2735         14  
   9.91324    14.3555         18  
   8.70229    14.1491         18  
   9.30497    14.2735         18  
   13.6196     11.448          2  
   13.7541    10.2952          2  
    14.377    10.1476          4  
   14.2246     11.371          4  
   13.6868    10.8716          4  
    14.377    10.1476          2  
   14.2246     11.371          2  
   13.6868    10.8716          2  
    14.322    10.7621          4  
    14.322    10.7621          2  
   13.6196     11.448          6  
   13.7541    10.2952          6  
    14.377    10.1476          8  
   14.2246     11.371          8  
   13.6868    10.8716          8  
    14.377    10.1476          6  
   14.2246     11.371          6  
   13.6868    10.8716          6  
    14.322    10.7621          8  
    14.322    10.7621          6  
   13.6196     11.448         10  
   13.7541    10.2952         10  
    14.377    10.1476         12  
   14.2246     11.371         12  
   13.6868    10.8716         12  
    14.377    10.1476         10  
   14.2246     11.371         10  
   13.6868    10.8716         10  
    14.322    10.7621         12  
    14.322    10.7621         10  
   13.6196     11.448         14  
   13.7541    10.2952         14  
    14.377    10.1476         16  
   14.2246     11.371         16  
   13.6868    10.8716         16  
    14.377    10.1476         14  
   14.2246     11.371         14  
   13.6868    10.8716         14  
    14.322    10.7621         16  
    14.322    10.7621         14  
   13.6196     11.448         18  
   13.7541    10.2952         18  
    14.377    10.1476         18  
   14.2246     11.371         18  
   13.6868    10.8716         18  
    14.322    10.7621         18  
   10.9074    10.2483          2  
   11.5192    10.9039          2  
   9.97168    11.2731          2  
   11.2133    10.5761          4  
   10.4396    10.7607          4  
   11.3983    11.4702          4  
   10.6246    11.6548          4  
   11.2133    10.5761          2  
   10.4396    10.7607          2  
   11.3983    11.4702          2  
   10.6246    11.6548          2  
   10.9189    11.1154          4  
   10.9189    11.1154          2  
   10.9074    10.2483          6  
   11.5192    10.9039          6  
   9.97168    11.2731          6  
   11.2133    10.5761          8  
   10.4396    10.7607          8  
   11.3983    11.4702          8  
   10.6246    11.6548          8  
   11.2133    10.5761          6  
   10.4396    10.7607          6  
   11.3983    11.4702          6  
   10.6246    11.6548          6  
   10.9189    11.1154          8  
   10.9189    11.1154          6  
   10.9074    10.2483         10  
   11.5192    10.9039         10  
   9.97168    11.2731         10  
   11.2133    10.5761         12  
   10.4396    10.7607         12  
   11.3983    11.4702         12  
   10.6246    11.6548         12  
   11.2133    10.5761         10  
   10.4396    10.7607         10  
   11.3983    11.4702         10  
   10.6246    11.6548         10  
   10.9189    11.1154         12  
   10.9189    11.1154         10  
   10.9074    10.2483         14  
   11.5192    10.9039         14  
   9.97168    11.2731         14  
   11.2133    10.5761         16  
   10.4396    10.7607         16  
   11.3983    11.4702         16  
   10.6246    11.6548         16  
   11.2133    10.5761         14  
   10.4396    10.7607         14  
   11.3983    11.4702         14  
   10.6246    11.6548         14  
   10.9189    11.1154         16  
   10.9189    11.1154         14  
   10.9074    10.2483         18  
   11.5192    10.9039         18  
   9.97168    11.2731         18  
   11.2133    10.5761         18  
   10.4396    10.7607         18  
   11.3983    11.4702         18  
   10.6246    11.6548         18  
   10.9189    11.1154         18  
   7.65657    13.0992          2  
   8.17763    13.2839          4  
   7.57828    13.7147          4  
   8.17763    13.2839          2  
   7.57828    13.7147          2  
    8.1321    13.9516          4  
    8.1321    13.9516          2  
   7.65657    13.0992          6  
   8.17763    13.2839          8  
   7.57828    13.7147          8  
   8.17763    13.2839          6  
   7.57828    13.7147          6  
    8.1321    13.9516          8  
    8.1321    13.9516          6  
   7.65657    13.0992         10  
   8.17763    13.2839         12  
   7.57828    13.7147         12  
   8.17763    13.2839         10  
   7.57828    13.7147         10  
    8.1321    13.9516         12  
    8.1321    13.9516         10  
   7.65657    13.0992         14  
   8.17763    13.2839         16  
   7.57828    13.7147         16  
   8.17763    13.2839         14  
   7.57828    13.7147         14  
    8.1321    13.9516         16  
    8.1321    13.9516         14  
   7.65657    13.0992         18  
   8.17763    13.2839         18  
   7.57828    13.7147         18  
    8.1321    13.9516         18  
   11.7117    9.50291          2  
   10.1111    9.04121          2  
   11.1756    8.81725          2  
   11.3096    9.87559          4  
   11.4437    9.16008          4  
   10.5093    9.64474          4  
   10.6433    8.92923          4  
   11.3096    9.87559          2  
   11.4437    9.16008          2  
   10.5093    9.64474          2  
   10.6433    8.92923          2  
   10.9765    9.40241          4  
   10.9765    9.40241          2  
   11.7117    9.50291          6  
   10.1111    9.04121          6  
   11.1756    8.81725          6  
   11.3096    9.87559          8  
   11.4437    9.16008          8  
   10.5093    9.64474          8  
   10.6433    8.92923          8  
   11.3096    9.87559          6  
   11.4437    9.16008          6  
   10.5093    9.64474          6  
   10.6433    8.92923          6  
   10.9765    9.40241          8  
   10.9765    9.40241          6  
   11.7117    9.50291         10  
   10.1111    9.04121         10  
   11.1756    8.81725         10  
   11.3096    9.87559         12  
   11.4437    9.16008         12  
   10.5093    9.64474         12  
   10.6433    8.92923         12  
   11.3096    9.87559         10  
   11.4437    9.16008         10  
   10.5093    9.64474         10  
   10.6433    8.92923         10  
   10.9765    9.40241         12  
   10.9765    9.40241         10  
   11.7117    9.50291         14  
   10.1111    9.04121         14  
   11.1756    8.81725         14  
   11.3096    9.87559         16  
   11.4437    9.16008         16  
   10.5093    9.64474         16  
   10.6433    8.92923         16  
   11.3096    9.87559         14  
   11.4437    9.16008         14  
   10.5093    9.64474         14  
   10.6433    8.92923         14  
   10.9765    9.40241         16  
   10.9765    9.40241         14  
   11.7117    9.50291         18  
   10.1111    9.04121         18  
   11.1756    8.81725         18  
   11.3096    9.87559         18  
   11.4437    9.16008         18  
   10.5093    9.64474         18  
   10.6433    8.92923         18  
   10.9765    9.40241         18  
   9.21034     10.086          2  
   9.59101    10.6795          4  
   9.66071    9.56362          4  
   9.59101    10.6795          2  
   9.66071    9.56362          2  
   10.0501    10.1621          4  
   10.0501    10.1621          2  
   9.21034     10.086          6  
   9.59101    10.6795          8  
   9.66071    9.56362          8  
   9.59101    10.6795          6  
   9.66071    9.56362          6  
   10.0501    10.1621          8  
   10.0501    10.1621          6  
   9.21034     10.086         10  
   9.59101    10.6795         12  
   9.66071    9.56362         12  
   9.59101    10.6795         10  
   9.66071    9.56362         10  
   10.0501    10.1621         12  
   10.0501    10.1621         10  
   9.21034     10.086         14  
   9.59101    10.6795         16  
   9.66071    9.56362         16  
   9.59101    10.6795         14  
   9.66071    9.56362         14  
   10.0501    10.1621         16  
   10.0501    10.1621         14  
   9.21034     10.086         18  
   9.59101    10.6795         18  
   9.66071    9.56362         18  
   10.0501    10.1621         18  
   8.98303    11.4644          2  
   8.42637    10.8111          2  
   9.47736    11.3687          4  
    8.7047    11.1377          4  
   8.81836    10.4486          4  
   9.47736    11.3687          2  
    8.7047    11.1377          2  
   8.81836    10.4486          2  
   9.14786    10.9086          4  
   9.14786    10.9086          2  
   8.98303    11.4644          6  
   8.42637    10.8111          6  
   9.47736    11.3687          8  
    8.7047    11.1377          8  
   8.81836    10.4486          8  
   9.47736    11.3687          6  
    8.7047    11.1377          6  
   8.81836    10.4486          6  
   9.14786    10.9086          8  
   9.14786    10.9086          6  
   8.98303    11.4644         10  
   8.42637    10.8111         10  
   9.47736    11.3687         12  
    8.7047    11.1377         12  
   8.81836    10.4486         12  
   9.47736    11.3687         10  
    8.7047    11.1377         10  
   8.81836    10.4486         10  
   9.14786    10.9086         12  
   9.14786    10.9086         10  
   8.98303    11.4644         14  
   8.42637    10.8111         14  
   9.47736    11.3687         16  
    8.7047    11.1377         16  
   8.81836    10.4486         16  
   9.47736    11.3687         14  
    8.7047    11.1377         14  
   8.81836    10.4486         14  
   9.14786    10.9086         16  
   9.14786    10.9086         14  
   8.98303    11.4644         18  
   8.42637    10.8111         18  
   9.47736    11.3687         18  
    8.7047    11.1377         18  
   8.81836    10.4486         18  
   9.14786    10.9086         18  
     8.787    8.59144          2  
   8.59798     9.4393          2  
   9.44904    8.81633          4  
   8.69249    9.01537          4  
   8.90416    9.76267          4  
   9.44904    8.81633          2  
   8.69249    9.01537          2  
   8.90416    9.76267          2  
    9.1766     9.2895          4  
    9.1766     9.2895          2  
     8.787    8.59144          6  
   8.59798     9.4393          6  
   9.44904    8.81633          8  
   8.69249    9.01537          8  
   8.90416    9.76267          8  
   9.44904    8.81633          6  
   8.69249    9.01537          6  
   8.90416    9.76267          6  
    9.1766     9.2895          8  
    9.1766     9.2895          6  
     8.787    8.59144         10  
   8.59798     9.4393         10  
   9.44904    8.81633         12  
   8.69249    9.01537         12  
   8.90416    9.76267         12  
   9.44904    8.81633         10  
   8.69249    9.01537         10  
   8.90416    9.76267         10  
    9.1766     9.2895         12  
    9.1766     9.2895         10  
     8.787    8.59144         14  
   8.59798     9.4393         14  
   9.44904    8.81633         16  
   8.69249    9.01537         16  
   8.90416    9.76267         16  
   9.44904    8.81633         14  
   8.69249    9.01537         14  
   8.90416    9.76267         14  
    9.1766     9.2895         16  
    9.1766     9.2895         14  
     8.787    8.59144         18  
   8.59798     9.4393         18  
   9.44904    8.81633         18  
   8.69249    9.01537         18  
   8.90416    9.76267         18  
    9.1766     9.2895         18  
    7.6029    9.85077          2  
   8.01464    10.3309          4  
   8.10044    9.64504          4  
   8.01464    10.3309          2  
   8.10044    9.64504          2  
    8.4594    10.0468          4  
    8.4594    10.0468          2  
    7.6029    9.85077          6  
   8.01464    10.3309          8  
   8.10044    9.64504          8  
   8.01464    10.3309          6  
   8.10044    9.64504          6  
    8.4594    10.0468          8  
    8.4594    10.0468          6  
    7.6029    9.85077         10  
   8.01464    10.3309         12  
   8.10044    9.64504         12  
   8.01464    10.3309         10  
   8.10044    9.64504         10  
    8.4594    10.0468         12  
    8.4594    10.0468         10  
    7.6029    9.85077         14  
   8.01464    10.3309         16  
   8.10044    9.64504         16  
   8.01464    10.3309         14  
   8.10044    9.64504         14  
    8.4594    10.0468         16  
    8.4594    10.0468         14  
    7.6029    9.85077         18  
   8.01464    10.3309         18  
   8.10044    9.64504         18  
    8.4594    10.0468         18  
   7.61186    8.51566          2  
   8.19943    8.55355          4  
   7.60738    9.18322          4  
   8.19943    8.55355          2  
   7.60738    9.18322          2  
   8.14994     9.0993          4  
   8.14994     9.0993          2  
   7.61186    8.51566          6  
   8.19943    8.55355          8  
   7.60738    9.18322          8  
   8.19943    8.55355          6  
   7.60738    9.18322          6  
   8.14994     9.0993          8  
   8.14994     9.0993          6  
   7.61186    8.51566         10  
   8.19943    8.55355         12  
   7.60738    9.18322         12  
   8.19943    8.55355         10  
   7.60738    9.18322         10  
   8.14994     9.0993         12  
   8.14994     9.0993         10  
   7.61186    8.51566         14  
   8.19943    8.55355         16  
   7.60738    9.18322         16  
   8.19943    8.55355         14  
   7.60738    9.18322         14  
   8.14994     9.0993         16  
   8.14994     9.0993         14  
   7.61186    8.51566         18  
   8.19943    8.55355         18  
   7.60738    9.18322         18  
   8.14994     9.0993         18  
   8.94462    7.44167          2  
   8.86581    8.01656          4  
   8.25157    7.35787          4  
   7.58519    7.89486          4  
   8.86581    8.01656          2  
   8.25157    7.35787          2  
   7.58519    7.89486          2  
    8.2255    7.95571          4  
    8.2255    7.95571          2  
   8.94462    7.44167          6  
   8.86581    8.01656          8  
   8.25157    7.35787          8  
   7.58519    7.89486          8  
   8.86581    8.01656          6  
   8.25157    7.35787          6  
   7.58519    7.89486          6  
    8.2255    7.95571          8  
    8.2255    7.95571          6  
   8.94462    7.44167         10  
   8.86581    8.01656         12  
   8.25157    7.35787         12  
   7.58519    7.89486         12  
   8.86581    8.01656         10  
   8.25157    7.35787         10  
   7.58519    7.89486         10  
    8.2255    7.95571         12  
    8.2255    7.95571         10  
   8.94462    7.44167         14  
   8.86581    8.01656         16  
   8.25157    7.35787         16  
   7.58519    7.89486         16  
   8.86581    8.01656         14  
   8.25157    7.35787         14  
   7.58519    7.89486         14  
    8.2255    7.95571         16  
    8.2255    7.95571         14  
   8.94462    7.44167         18  
   8.86581    8.01656         18  
   8.25157    7.35787         18  
   7.58519    7.89486         18  
    8.2255    7.95571         18  
   6.42316    8.63313          2  
   6.29135    9.81799          2  
   5.64567    9.90899          4  
   5.79677    8.66952          4  
   6.35725    9.22556          4  
   5.64567    9.90899          2  
   5.79677    8.66952          2  
   6.35725    9.22556          2  
   5.70001    9.28646          4  
   5.70001    9.28646          2  
   6.42316    8.63313          6  
   6.29135    9.81799          6  
   5.64567    9.90899          8  
   5.79677    8.66952          8  
   6.35725    9.22556          8  
   5.64567    9.90899          6  
   5.79677    8.66952          6  
   6.35725    9.22556          6  
   5.70001    9.28646          8  
   5.70001    9.28646          6  
   6.42316    8.63313         10  
   6.29135    9.81799         10  
   5.64567    9.90899         12  
   5.79677    8.66952         12  
   6.35725    9.22556         12  
   5.64567    9.90899         10  
   5.79677    8.66952         10  
   6.35725    9.22556         10  
   5.70001    9.28646         12  
   5.70001    9.28646         10  
   6.42316    8.63313         14  
   6.29135    9.81799         14  
   5.64567    9.90899         16  
   5.79677    8.66952         16  
   6.35725    9.22556         16  
   5.64567    9.90899         14  
   5.79677    8.66952         14  
   6.35725    9.22556         14  
   5.70001    9.28646         16  
   5.70001    9.28646         14  
   6.42316    8.63313         18  
   6.29135    9.81799         18  
   5.64567    9.90899         18  
   5.79677    8.66952         18  
   6.35725    9.22556         18  
   5.70001    9.28646         18  
   10.1555    8.30898          4  
   11.3772     8.3263          4  
   10.1555    8.30898          2  
   11.3772     8.3263          2  
   10.7663    8.31764          4  
   10.7663    8.31764          2  
   10.1555    8.30898          8  
   11.3772     8.3263          8  
   10.1555    8.30898          6  
   11.3772     8.3263          6  
   10.7663    8.31764          8  
   10.7663    8.31764          6  
   10.1555    8.30898         12  
   11.3772     8.3263         12  
   10.1555    8.30898         10  
   11.3772     8.3263         10  
   10.7663    8.31764         12  
   10.7663    8.31764         10  
   10.1555    8.30898         16  
   11.3772     8.3263         16  
   10.1555    8.30898         14  
   11.3772     8.3263         14  
   10.7663    8.31764         16  
   10.7663    8.31764         14  
   10.1555    8.30898         18  
   11.3772     8.3263         18  
   10.7663    8.31764         18  
   9.89265    11.9409          4  
   8.90442    11.8775          4  
   9.89265    11.9409          2  
   8.90442    11.8775          2  
   9.39854    11.9092          4  
   9.39854    11.9092          2  
   9.89265    11.9409          8  
   8.90442    11.8775          8  
   9.89265    11.9409          6  
   8.90442    11.8775          6  
   9.39854    11.9092          8  
   9.39854    11.9092          6  
   9.89265    11.9409         12  
   8.90442    11.8775         12  
   9.89265    11.9409         10  
   8.90442    11.8775         10  
   9.39854    11.9092         12  
   9.39854    11.9092         10  
   9.89265    11.9409         16  
   8.90442    11.8775         16  
   9.89265    11.9409         14  
   8.90442    11.8775         14  
   9.39854    11.9092         16  
   9.39854    11.9092         14  
   9.89265    11.9409         18  
   8.90442    11.8775         18  
   9.39854    11.9092         18  
   12.5523     10.474          2  
   12.0357    10.6889          4  
   12.5369    11.1052          4  
   12.0357    10.6889          2  
   12.5369    11.1052          2  
   11.9676    11.2877          4  
   11.9676    11.2877          2  
   12.5523     10.474          6  
   12.0357    10.6889          8  
   12.5369    11.1052          8  
   12.0357    10.6889          6  
   12.5369    11.1052          6  
   11.9676    11.2877          8  
   11.9676    11.2877          6  
   12.5523     10.474         10  
   12.0357    10.6889         12  
   12.5369    11.1052         12  
   12.0357    10.6889         10  
   12.5369    11.1052         10  
   11.9676    11.2877         12  
   11.9676    11.2877         10  
   12.5523     10.474         14  
   12.0357    10.6889         16  
   12.5369    11.1052         16  
   12.0357    10.6889         14  
   12.5369    11.1052         14  
   11.9676    11.2877         16  
   11.9676    11.2877         14  
   12.5523     10.474         18  
   12.0357    10.6889         18  
   12.5369    11.1052         18  
   11.9676    11.2877         18  
   13.1442    13.1432          4  
   12.1562    13.8086          4  
   13.1442    13.1432          2  
   12.1562    13.8086          2  
   12.6632    13.4928          4  
   12.6632    13.4928          2  
   13.1442    13.1432          8  
   12.1562    13.8086          8  
   13.1442    13.1432          6  
   12.1562    13.8086          6  
   12.6632    13.4928          8  
   12.6632    13.4928          6  
   13.1442    13.1432         12  
   12.1562    13.8086         12  
   13.1442    13.1432         10  
   12.1562    13.8086         10  
   12.6632    13.4928         12  
   12.6632    13.4928         10  
   13.1442    13.1432         16  
   12.1562    13.8086         16  
   13.1442    13.1432         14  
   12.1562    13.8086         14  
   12.6632    13.4928         16  
   12.6632    13.4928         14  
   13.1442    13.1432         18  
   12.1562    13.8086         18  
   12.6632    13.4928         18  
   12.4646    8.82274          2  
   12.8895    8.50852          4  
   12.0217    8.32904          4  
   12.1326    7.53205          4  
   12.8895    8.50852          2  
   12.0217    8.32904          2  
   12.1326    7.53205          2  
    12.511    8.02029          4  
    12.511    8.02029          2  
   12.4646    8.82274          6  
   12.8895    8.50852          8  
   12.0217    8.32904          8  
   12.1326    7.53205          8  
   12.8895    8.50852          6  
   12.0217    8.32904          6  
   12.1326    7.53205          6  
    12.511    8.02029          8  
    12.511    8.02029          6  
   12.4646    8.82274         10  
   12.8895    8.50852         12  
   12.0217    8.32904         12  
   12.1326    7.53205         12  
   12.8895    8.50852         10  
   12.0217    8.32904         10  
   12.1326    7.53205         10  
    12.511    8.02029         12  
    12.511    8.02029         10  
   12.4646    8.82274         14  
   12.8895    8.50852         16  
   12.0217    8.32904         16  
   12.1326    7.53205         16  
   12.8895    8.50852         14  
   12.0217    8.32904         14  
   12.1326    7.53205         14  
    12.511    8.02029         16  
    12.511    8.02029         14  
   12.4646    8.82274         18  
   12.8895    8.50852         18  
   12.0217    8.32904         18  
   12.1326    7.53205         18  
    12.511    8.02029         18  
   7.01751     8.5744          4  
   6.94713    9.83438          4  
   7.01751     8.5744          2  
   6.94713    9.83438          2  
   6.98232    9.20439          4  
   6.98232    9.20439          2  
   7.01751     8.5744          8  
   6.94713    9.83438          8  
   7.01751     8.5744          6  
   6.94713    9.83438          6  
   6.98232    9.20439          8  
   6.98232    9.20439          6  
   7.01751     8.5744         12  
   6.94713    9.83438         12  
   7.01751     8.5744         10  
   6.94713    9.83438         10  
   6.98232    9.20439         12  
   6.98232    9.20439         10  
   7.01751     8.5744         16  
   6.94713    9.83438         16  
   7.01751     8.5744         14  
   6.94713    9.83438         14  
   6.98232    9.20439         16  
   6.98232    9.20439         14  
   7.01751     8.5744         18  
   6.94713    9.83438         18  
   6.98232    9.20439         18  
    12.132    9.98845          4  
    12.132    9.98845          2  
   11.6726    10.2823          4  
   11.6726    10.2823          2  
    12.132    9.98845          8  
    12.132    9.98845          6  
   11.6726    10.2823          8  
   11.6726    10.2823          6  
    12.132    9.98845         12  
    12.132    9.98845         10  
   11.6726    10.2823         12  
   11.6726    10.2823         10  
    12.132    9.98845         16  
    12.132    9.98845         14  
   11.6726    10.2823         16  
   11.6726    10.2823         14  
    12.132    9.98845         18  
   11.6726    10.2823         18  
   12.0882    9.16283          4  
   12.0882    9.16283          2  
   11.7327    8.74456          4  
   11.7327    8.74456          2  
   12.0882    9.16283          8  
   12.0882    9.16283          6  
   11.7327    8.74456          8  
   11.7327    8.74456          6  
   12.0882    9.16283         12  
   12.0882    9.16283         10  
   11.7327    8.74456         12  
   11.7327    8.74456         10  
   12.0882    9.16283         16  
   12.0882    9.16283         14  
   11.7327    8.74456         16  
   11.7327    8.74456         14  
   12.0882    9.16283         18  
   11.7327    8.74456         18  
   12.1788    6.47214          2  
   12.4326    6.85045          4  
   11.7682    6.45469          4  
   12.4326    6.85045          2  
   11.7682    6.45469          2  
   11.9504    6.99337          4  
   11.9504    6.99337          2  
   12.1788    6.47214          6  
   12.4326    6.85045          8  
   11.7682    6.45469          8  
   12.4326    6.85045          6  
   11.7682    6.45469          6  
   11.9504    6.99337          8  
   11.9504    6.99337          6  
   12.1788    6.47214         10  
   12.4326    6.85045         12  
   11.7682    6.45469         12  
   12.4326    6.85045         10  
   11.7682    6.45469         10  
   11.9504    6.99337         12  
   11.9504    6.99337         10  
   12.1788    6.47214         14  
   12.4326    6.85045         16  
   11.7682    6.45469         16  
   12.4326    6.85045         14  
   11.7682    6.45469         14  
   11.9504    6.99337         16  
   11.9504    6.99337         14  
   12.1788    6.47214         18  
   12.4326    6.85045         18  
   11.7682    6.45469         18  
   11.9504    6.99337         18  
   13.0706    11.5922          4  
   13.1532    10.3846          4  
   13.0706    11.5922          2  
   13.1532    10.3846          2  
   13.1119    10.9884          4  
   13.1119    10.9884          2  
   13.0706    11.5922          8  
   13.1532    10.3846          8  
   13.0706    11.5922          6  
   13.1532    10.3846          6  
   13.1119    10.9884          8  
   13.1119    10.9884          6  
   13.0706    11.5922         12  
   13.1532    10.3846         12  
   13.0706    11.5922         10  
   13.1532    10.3846         10  
   13.1119    10.9884         12  
   13.1119    10.9884         10  
   13.0706    11.5922         16  
   13.1532    10.3846         16  
   13.0706    11.5922         14  
   13.1532    10.3846         14  
   13.1119    10.9884         16  
   13.1119    10.9884         14  
   13.0706    11.5922         18  
   13.1532    10.3846         18  
   13.1119    10.9884         18  
    7.1406    10.8252          2  
   6.34386     10.979          2  
   7.37175     10.338          4  
   6.74223    10.9021          4  
    6.3176    10.3985          4  
   7.37175     10.338          2  
   6.74223    10.9021          2  
    6.3176    10.3985          2  
   6.84468    10.3682          4  
   6.84468    10.3682          2  
    7.1406    10.8252          6  
   6.34386     10.979          6  
   7.37175     10.338          8  
   6.74223    10.9021          8  
    6.3176    10.3985          8  
   7.37175     10.338          6  
   6.74223    10.9021          6  
    6.3176    10.3985          6  
   6.84468    10.3682          8  
   6.84468    10.3682          6  
    7.1406    10.8252         10  
   6.34386     10.979         10  
   7.37175     10.338         12  
   6.74223    10.9021         12  
    6.3176    10.3985         12  
   7.37175     10.338         10  
   6.74223    10.9021         10  
    6.3176    10.3985         10  
   6.84468    10.3682         12  
   6.84468    10.3682         10  
    7.1406    10.8252         14  
   6.34386     10.979         14  
   7.37175     10.338         16  
   6.74223    10.9021         16  
    6.3176    10.3985         16  
   7.37175     10.338         14  
   6.74223    10.9021         14  
    6.3176    10.3985         14  
   6.84468    10.3682         16  
   6.84468    10.3682         14  
    7.1406    10.8252         18  
   6.34386     10.979         18  
   7.37175     10.338         18  
   6.74223    10.9021         18  
    6.3176    10.3985         18  
   6.84468    10.3682         18  
   9.57224    7.50921          4  
   9.57224    7.50921          2  
   9.51064    8.16277          4  
   9.51064    8.16277          2  
   9.57224    7.50921          8  
   9.57224    7.50921          6  
   9.51064    8.16277          8  
   9.51064    8.16277          6  
   9.57224    7.50921         12  
   9.57224    7.50921         10  
   9.51064    8.16277         12  
   9.51064    8.16277         10  
   9.57224    7.50921         16  
   9.57224    7.50921         14  
   9.51064    8.16277         16  
   9.51064    8.16277         14  
   9.57224    7.50921         18  
   9.51064    8.16277         18  
    6.5371    7.79344          2  
   7.04781    7.53375          4  
   6.10348    7.64672          4  
   7.04781    7.53375          2  
   6.10348    7.64672          2  
   6.54052    7.24497          4  
   6.54052    7.24497          2  
    6.5371    7.79344          6  
   7.04781    7.53375          8  
   6.10348    7.64672          8  
   7.04781    7.53375          6  
   6.10348    7.64672          6  
   6.54052    7.24497          8  
   6.54052    7.24497          6  
    6.5371    7.79344         10  
   7.04781    7.53375         12  
   6.10348    7.64672         12  
   7.04781    7.53375         10  
   6.10348    7.64672         10  
   6.54052    7.24497         12  
   6.54052    7.24497         10  
    6.5371    7.79344         14  
   7.04781    7.53375         16  
   6.10348    7.64672         16  
   7.04781    7.53375         14  
   6.10348    7.64672         14  
   6.54052    7.24497         16  
   6.54052    7.24497         14  
    6.5371    7.79344         18  
   7.04781    7.53375         18  
   6.10348    7.64672         18  
   6.54052    7.24497         18  
   6.48013    8.21329          4  
   6.48013    8.21329          2  
   5.93037    8.14993          4  
   5.93037    8.14993          2  
   6.48013    8.21329          8  
   6.48013    8.21329          6  
   5.93037    8.14993          8  
   5.93037    8.14993          6  
   6.48013    8.21329         12  
   6.48013    8.21329         10  
   5.93037    8.14993         12  
   5.93037    8.14993         10  
   6.48013    8.21329         16  
   6.48013    8.21329         14  
   5.93037    8.14993         16  
   5.93037    8.14993         14  
   6.48013    8.21329         18  
   5.93037    8.14993         18  
   7.67412    11.7404          2  
   7.40736    11.2828          4  
   8.05025    11.2757          4  
   7.40736    11.2828          2  
   8.05025    11.2757          2  
     7.711    10.8069          4  
     7.711    10.8069          2  
   7.67412    11.7404          6  
   7.40736    11.2828          8  
   8.05025    11.2757          8  
   7.40736    11.2828          6  
   8.05025    11.2757          6  
     7.711    10.8069          8  
     7.711    10.8069          6  
   7.67412    11.7404         10  
   7.40736    11.2828         12  
   8.05025    11.2757         12  
   7.40736    11.2828         10  
   8.05025    11.2757         10  
     7.711    10.8069         12  
     7.711    10.8069         10  
   7.67412    11.7404         14  
   7.40736    11.2828         16  
   8.05025    11.2757         16  
   7.40736    11.2828         14  
   8.05025    11.2757         14  
     7.711    10.8069         16  
     7.711    10.8069         14  
   7.67412    11.7404         18  
   7.40736    11.2828         18  
   8.05025    11.2757         18  
     7.711    10.8069         18  
   8.24997    12.0155          4  
   8.24997    12.0155          2  
   8.47733    11.5766          4  
   8.47733    11.5766          2  
   8.24997    12.0155          8  
   8.24997    12.0155          6  
   8.47733    11.5766          8  
   8.47733    11.5766          6  
   8.24997    12.0155         12  
   8.24997    12.0155         10  
   8.47733    11.5766         12  
   8.47733    11.5766         10  
   8.24997    12.0155         16  
   8.24997    12.0155         14  
   8.47733    11.5766         16  
   8.47733    11.5766         14  
   8.24997    12.0155         18  
   8.47733    11.5766         18  
   6.58657    12.0125          2  
   6.90599    12.8567          2  
   7.13034    11.8765          4  
   6.74628    12.4346          4  
   7.66534    12.4198          4  
   7.28128     12.978          4  
   7.13034    11.8765          2  
   6.74628    12.4346          2  
   7.66534    12.4198          2  
   7.28128     12.978          2  
   7.20581    12.4272          4  
   7.20581    12.4272          2  
   6.58657    12.0125          6  
   6.90599    12.8567          6  
   7.13034    11.8765          8  
   6.74628    12.4346          8  
   7.66534    12.4198          8  
   7.28128     12.978          8  
   7.13034    11.8765          6  
   6.74628    12.4346          6  
   7.66534    12.4198          6  
   7.28128     12.978          6  
   7.20581    12.4272          8  
   7.20581    12.4272          6  
   6.58657    12.0125         10  
   6.90599    12.8567         10  
   7.13034    11.8765         12  
   6.74628    12.4346         12  
   7.66534    12.4198         12  
   7.28128     12.978         12  
   7.13034    11.8765         10  
   6.74628    12.4346         10  
   7.66534    12.4198         10  
   7.28128     12.978         10  
   7.20581    12.4272         12  
   7.20581    12.4272         10  
   6.58657    12.0125         14  
   6.90599    12.8567         14  
   7.13034    11.8765         16  
   6.74628    12.4346         16  
   7.66534    12.4198         16  
   7.28128     12.978         16  
   7.13034    11.8765         14  
   6.74628    12.4346         14  
   7.66534    12.4198         14  
   7.28128     12.978         14  
   7.20581    12.4272         16  
   7.20581    12.4272         14  
   6.58657    12.0125         18  
   6.90599    12.8567         18  
   7.13034    11.8765         18  
   6.74628    12.4346         18  
   7.66534    12.4198         18  
   7.28128     12.978         18  
   7.20581    12.4272         18  
   8.94129    6.32001          2  
    9.5493     6.3244          4  
    8.8236    5.74519          4  
    9.5493     6.3244          2  
    8.8236    5.74519          2  
   9.44834    5.68359          4  
   9.44834    5.68359          2  
   8.94129    6.32001          6  
    9.5493     6.3244          8  
    8.8236    5.74519          8  
    9.5493     6.3244          6  
    8.8236    5.74519          6  
   9.44834    5.68359          8  
   9.44834    5.68359          6  
   8.94129    6.32001         10  
    9.5493     6.3244         12  
    8.8236    5.74519         12  
    9.5493     6.3244         10  
    8.8236    5.74519         10  
   9.44834    5.68359         12  
   9.44834    5.68359         10  
   8.94129    6.32001         14  
    9.5493     6.3244         16  
    8.8236    5.74519         16  
    9.5493     6.3244         14  
    8.8236    5.74519         14  
   9.44834    5.68359         16  
   9.44834    5.68359         14  
   8.94129    6.32001         18  
    9.5493     6.3244         18  
    8.8236    5.74519         18  
   9.44834    5.68359         18  
   10.5956    12.7953          2  
   10.9365    12.4159          4  
   10.2046     12.702          4  
   10.9365    12.4159          2  
   10.2046     12.702          2  
   10.4146    12.1784          4  
   10.4146    12.1784          2  
   10.5956    12.7953          6  
   10.9365    12.4159          8  
   10.2046     12.702          8  
   10.9365    12.4159          6  
   10.2046     12.702          6  
   10.4146    12.1784          8  
   10.4146    12.1784          6  
   10.5956    12.7953         10  
   10.9365    12.4159         12  
   10.2046     12.702         12  
   10.9365    12.4159         10  
   10.2046     12.702         10  
   10.4146    12.1784         12  
   10.4146    12.1784         10  
   10.5956    12.7953         14  
   10.9365    12.4159         16  
   10.2046     12.702         16  
   10.9365    12.4159         14  
   10.2046     12.702         14  
   10.4146    12.1784         16  
   10.4146    12.1784         14  
   10.5956    12.7953         18  
   10.9365    12.4159         18  
   10.2046     12.702         18  
   10.4146    12.1784         18  
   13.5627    12.2368          2  
   13.9464    12.3684          4  
   13.5912    11.8424          4  
   13.9464    12.3684          2  
   13.5912    11.8424          2  
   14.1053    11.8779          4  
   14.1053    11.8779          2  
   13.5627    12.2368          6  
   13.9464    12.3684          8  
   13.5912    11.8424          8  
   13.9464    12.3684          6  
   13.5912    11.8424          6  
   14.1053    11.8779          8  
   14.1053    11.8779          6  
   13.5627    12.2368         10  
   13.9464    12.3684         12  
   13.5912    11.8424         12  
   13.9464    12.3684         10  
   13.5912    11.8424         10  
   14.1053    11.8779         12  
   14.1053    11.8779         10  
   13.5627    12.2368         14  
   13.9464    12.3684         16  
   13.5912    11.8424         16  
   13.9464    12.3684         14  
   13.5912    11.8424         14  
   14.1053    11.8779         16  
   14.1053    11.8779         14  
   13.5627    12.2368         18  
   13.9464    12.3684         18  
   13.5912    11.8424         18  
   14.1053    11.8779         18  
   7.03266    8.05407          4  
   7.03266    8.05407          2  
   7.03266    8.05407          8  
   7.03266    8.05407          6  
   7.03266    8.05407         12  
   7.03266    8.05407         10  
   7.03266    8.05407         16  
   7.03266    8.05407         14  
   7.03266    8.05407         18  
   6.12822    12.2563          4  
   5.75711    11.1365          4  
   6.46521    11.4958          4  
   6.12822    12.2563          2  
   5.75711    11.1365          2  
   6.46521    11.4958          2  
   5.92291    11.7046          4  
   5.92291    11.7046          2  
   6.12822    12.2563          8  
   5.75711    11.1365          8  
   6.46521    11.4958          8  
   6.12822    12.2563          6  
   5.75711    11.1365          6  
   6.46521    11.4958          6  
   5.92291    11.7046          8  
   5.92291    11.7046          6  
   6.12822    12.2563         12  
   5.75711    11.1365         12  
   6.46521    11.4958         12  
   6.12822    12.2563         10  
   5.75711    11.1365         10  
   6.46521    11.4958         10  
   5.92291    11.7046         12  
   5.92291    11.7046         10  
   6.12822    12.2563         16  
   5.75711    11.1365         16  
   6.46521    11.4958         16  
   6.12822    12.2563         14  
   5.75711    11.1365         14  
   6.46521    11.4958         14  
   5.92291    11.7046         16  
   5.92291    11.7046         14  
   6.12822    12.2563         18  
   5.75711    11.1365         18  
   6.46521    11.4958         18  
   5.92291    11.7046         18  
    8.2138    12.6497          4  
    8.2138    12.6497          2  
    8.2138    12.6497          8  
    8.2138    12.6497          6  
    8.2138    12.6497         12  
    8.2138    12.6497         10  
    8.2138    12.6497         16  
    8.2138    12.6497         14  
    8.2138    12.6497         18  
   13.6799    9.18143          2  
   14.2548    8.94367          4  
   13.4971    8.68787          4  
   14.2548    8.94367          2  
   13.4971    8.68787          2  
   14.0583    8.38722          4  
   14.0583    8.38722          2  
   13.6799    9.18143          6  
   14.2548    8.94367          8  
   13.4971    8.68787          8  
   14.2548    8.94367          6  
   13.4971    8.68787          6  
   14.0583    8.38722          8  
   14.0583    8.38722          6  
   13.6799    9.18143         10  
   14.2548    8.94367         12  
   13.4971    8.68787         12  
   14.2548    8.94367         10  
   13.4971    8.68787         10  
   14.0583    8.38722         12  
   14.0583    8.38722         10  
   13.6799    9.18143         14  
   14.2548    8.94367         16  
   13.4971    8.68787         16  
   14.2548    8.94367         14  
   13.4971    8.68787         14  
   14.0583    8.38722         16  
   14.0583    8.38722         14  
   13.6799    9.18143         18  
   14.2548    8.94367         18  
   13.4971    8.68787         18  
   14.0583    8.38722         18  
   10.8756    13.6214          2  
   11.0849    14.2255          4  
    10.351    13.6662          4  
   11.0849    14.2255          2  
    10.351    13.6662          2  
   10.5018    14.3117          4  
   10.5018    14.3117          2  
   10.8756    13.6214          6  
   11.0849    14.2255          8  
    10.351    13.6662          8  
   11.0849    14.2255          6  
    10.351    13.6662          6  
   10.5018    14.3117          8  
   10.5018    14.3117          6  
   10.8756    13.6214         10  
   11.0849    14.2255         12  
    10.351    13.6662         12  
   11.0849    14.2255         10  
    10.351    13.6662         10  
   10.5018    14.3117         12  
   10.5018    14.3117         10  
   10.8756    13.6214         14  
   11.0849    14.2255         16  
    10.351    13.6662         16  
   11.0849    14.2255         14  
    10.351    13.6662         14  
   10.5018    14.3117         16  
   10.5018    14.3117         14  
   10.8756    13.6214         18  
   11.0849    14.2255         18  
    10.351    13.6662         18  
   10.5018    14.3117         18  
    11.344    13.4542          4  
    11.344    13.4542          2  
   11.6287    14.0368          4  
   11.6287    14.0368          2  
    11.344    13.4542          8  
    11.344    13.4542          6  
   11.6287    14.0368          8  
   11.6287    14.0368          6  
    11.344    13.4542         12  
    11.344    13.4542         10  
   11.6287    14.0368         12  
   11.6287    14.0368         10  
    11.344    13.4542         16  
    11.344    13.4542         14  
   11.6287    14.0368         16  
   11.6287    14.0368         14  
    11.344    13.4542         18  
   11.6287    14.0368         18  
   6.68523    13.1961          4  
   6.68523    13.1961          2  
   6.38976    12.7392          4  
   6.38976    12.7392          2  
   6.68523    13.1961          8  
   6.68523    13.1961          6  
   6.38976    12.7392          8  
   6.38976    12.7392          6  
   6.68523    13.1961         12  
   6.68523    13.1961         10  
   6.38976    12.7392         12  
   6.38976    12.7392         10  
   6.68523    13.1961         16  
   6.68523    13.1961         14  
   6.38976    12.7392         16  
   6.38976    12.7392         14  
   6.68523    13.1961         18  
   6.38976    12.7392         18  
   12.3394    6.07101          4  
   12.3394    6.07101          2  
   11.8408    5.91764          4  
   11.8408    5.91764          2  
   12.3394    6.07101          8  
   12.3394    6.07101          6  
   11.8408    5.91764          8  
   11.8408    5.91764          6  
   12.3394    6.07101         12  
   12.3394    6.07101         10  
   11.8408    5.91764         12  
   11.8408    5.91764         10  
   12.3394    6.07101         16  
   12.3394    6.07101         14  
   11.8408    5.91764         16  
   11.8408    5.91764         14  
   12.3394    6.07101         18  
   11.8408    5.91764         18  
   8.51127    6.33127          4  
   8.51127    6.33127          2  
   8.29892    5.85594          4  
   8.29892    5.85594          2  
   8.51127    6.33127          8  
   8.51127    6.33127          6  
   8.29892    5.85594          8  
   8.29892    5.85594          6  
   8.51127    6.33127         12  
   8.51127    6.33127         10  
   8.29892    5.85594         12  
   8.29892    5.85594         10  
   8.51127    6.33127         16  
   8.51127    6.33127         14  
   8.29892    5.85594         16  
   8.29892    5.85594         14  
   8.51127    6.33127         18  
   8.29892    5.85594         18  
   12.7382    6.44184          4  
   12.7382    6.44184          2  
   12.7382    6.44184          8  
   12.7382    6.44184          6  
   12.7382    6.44184         12  
   12.7382    6.44184         10  
   12.7382    6.44184         16  
   12.7382    6.44184         14  
   12.7382    6.44184         18  
   12.9306    9.45051          2  
   12.7414    9.96225          4  
   13.3052    9.31597          4  
    13.717    9.73832          4  
   12.7414    9.96225          2  
   13.3052    9.31597          2  
    13.717    9.73832          2  
   13.2292    9.85029          4  
   13.2292    9.85029          2  
   12.9306    9.45051          6  
   12.7414    9.96225          8  
   13.3052    9.31597          8  
    13.717    9.73832          8  
   12.7414    9.96225          6  
   13.3052    9.31597          6  
    13.717    9.73832          6  
   13.2292    9.85029          8  
   13.2292    9.85029          6  
   12.9306    9.45051         10  
   12.7414    9.96225         12  
   13.3052    9.31597         12  
    13.717    9.73832         12  
   12.7414    9.96225         10  
   13.3052    9.31597         10  
    13.717    9.73832         10  
   13.2292    9.85029         12  
   13.2292    9.85029         10  
   12.9306    9.45051         14  
   12.7414    9.96225         16  
   13.3052    9.31597         16  
    13.717    9.73832         16  
   12.7414    9.96225         14  
   13.3052    9.31597         14  
    13.717    9.73832         14  
   13.2292    9.85029         16  
   13.2292    9.85029         14  
   12.9306    9.45051         18  
   12.7414    9.96225         18  
   13.3052    9.31597         18  
    13.717    9.73832         18  
   13.2292    9.85029         18  
   14.3371    9.54285          4  
   14.3371    9.54285          2  
   14.3371    9.54285          8  
   14.3371    9.54285          6  
   14.3371    9.54285         12  
   14.3371    9.54285         10  
   14.3371    9.54285         16  
   14.3371    9.54285         14  
   14.3371    9.54285         18  
   12.6976    9.13663          4  
   12.6976    9.13663          2  
   12.4148    9.56254          4  
   12.4148    9.56254          2  
   12.6976    9.13663          8  
   12.6976    9.13663          6  
   12.4148    9.56254          8  
   12.4148    9.56254          6  
   12.6976    9.13663         12  
   12.6976    9.13663         10  
   12.4148    9.56254         12  
   12.4148    9.56254         10  
   12.6976    9.13663         16  
   12.6976    9.13663         14  
   12.4148    9.56254         16  
   12.4148    9.56254         14  
   12.6976    9.13663         18  
   12.4148    9.56254         18  
   5.68019    10.5256          4  
   5.68019    10.5256          2  
   5.68019    10.5256          8  
   5.68019    10.5256          6  
   5.68019    10.5256         12  
   5.68019    10.5256         10  
   5.68019    10.5256         16  
   5.68019    10.5256         14  
   5.68019    10.5256         18  
   7.11874    13.4724          4  
   7.11874    13.4724          2  
   7.11874    13.4724          8  
   7.11874    13.4724          6  
   7.11874    13.4724         12  
   7.11874    13.4724         10  
   7.11874    13.4724         16  
   7.11874    13.4724         14  
   7.11874    13.4724         18  
   13.1577    12.4938          4  
   13.1577    12.4938          2  
   13.5623    12.7688          4  
   13.5623    12.7688          2  
   13.1577    12.4938          8  
   13.1577    12.4938          6  
   13.5623    12.7688          8  
   13.5623    12.7688          6  
   13.1577    12.4938         12  
   13.1577    12.4938         10  
   13.5623    12.7688         12  
   13.5623    12.7688         10  
   13.1577    12.4938         16  
   13.1577    12.4938         14  
   13.5623    12.7688         16  
   13.5623    12.7688         14  
   13.1577    12.4938         18  
   13.5623    12.7688         18  
   6.93628    11.3893          4  
   6.93628    11.3893          2  
   6.93628    11.3893          8  
   6.93628    11.3893          6  
   6.93628    11.3893         12  
   6.93628    11.3893         10  
   6.93628    11.3893         16  
   6.93628    11.3893         14  
   6.93628    11.3893         18  
   13.1142     12.043          4  
   13.1142     12.043          2  
   13.1142     12.043          8  
   13.1142     12.043          6  
   13.1142     12.043         12  
   13.1142     12.043         10  
   13.1142     12.043         16  
   13.1142     12.043         14  
   13.1142     12.043         18  
   8.94296    6.88084          4  
   8.94296    6.88084          2  
   8.38142    6.84457          4  
   8.38142    6.84457          2  
   8.94296    6.88084          8  
   8.94296    6.88084          6  
   8.38142    6.84457          8  
   8.38142    6.84457          6  
   8.94296    6.88084         12  
   8.94296    6.88084         10  
   8.38142    6.84457         12  
   8.38142    6.84457         10  
   8.94296    6.88084         16  
   8.94296    6.88084         14  
   8.38142    6.84457         16  
   8.38142    6.84457         14  
   8.94296    6.88084         18  
   8.38142    6.84457         18  
   9.56077     6.9168          4  
   9.56077     6.9168          2  
   9.56077     6.9168          8  
   9.56077     6.9168          6  
   9.56077     6.9168         12  
   9.56077     6.9168         10  
   9.56077     6.9168         16  
   9.56077     6.9168         14  
   9.56077     6.9168         18  
   13.0973    8.91225          4  
   13.0973    8.91225          2  
   13.0973    8.91225          8  
   13.0973    8.91225          6  
   13.0973    8.91225         12  
   13.0973    8.91225         10  
   13.0973    8.91225         16  
   13.0973    8.91225         14  
   13.0973    8.91225         18  
   10.7356    13.2083          4  
   10.7356    13.2083          2  
   11.1403    12.9351          4  
   11.1403    12.9351          2  
   10.7356    13.2083          8  
   10.7356    13.2083          6  
   11.1403    12.9351          8  
   11.1403    12.9351          6  
   10.7356    13.2083         12  
   10.7356    13.2083         10  
   11.1403    12.9351         12  
   11.1403    12.9351         10  
   10.7356    13.2083         16  
   10.7356    13.2083         14  
   11.1403    12.9351         16  
   11.1403    12.9351         14  
   10.7356    13.2083         18  
   11.1403    12.9351         18  
   10.2778    13.1841          4  
   10.2778    13.1841          2  
   10.2778    13.1841          8  
   10.2778    13.1841          6  
   10.2778    13.1841         12  
   10.2778    13.1841         10  
   10.2778    13.1841         16  
   10.2778    13.1841         14  
   10.2778    13.1841         18  

CELLS 880 24640
27 351 344 313 337 2702 2674 2550 2646 384 385 386 383 2836 2837 2835 2834 2831 2832 2833 2830 2838 2841 2840 2839 387 2842 2843  
27 2702 2674 2550 2646 2703 2675 2551 2647 2836 2837 2835 2834 2850 2851 2849 2848 2845 2846 2847 2844 2852 2855 2854 2853 2842 2856 2857  
27 2703 2675 2551 2647 2704 2676 2552 2648 2850 2851 2849 2848 2864 2865 2863 2862 2859 2860 2861 2858 2866 2869 2868 2867 2856 2870 2871  
27 2704 2676 2552 2648 2705 2677 2553 2649 2864 2865 2863 2862 2878 2879 2877 2876 2873 2874 2875 2872 2880 2883 2882 2881 2870 2884 2885  
27 2705 2677 2553 2649 1912 1905 1874 1898 2878 2879 2877 2876 1945 1946 1947 1944 2887 2888 2889 2886 2890 2893 2892 2891 2884 1948 2894  
27 341 377 304 349 2662 2806 2514 2694 389 390 391 388 2901 2902 2900 2899 2896 2897 2898 2895 2903 2906 2905 2904 392 2907 2908  
27 2662 2806 2514 2694 2663 2807 2515 2695 2901 2902 2900 2899 2915 2916 2914 2913 2910 2911 2912 2909 2917 2920 2919 2918 2907 2921 2922  
27 2663 2807 2515 2695 2664 2808 2516 2696 2915 2916 2914 2913 2929 2930 2928 2927 2924 2925 2926 2923 2931 2934 2933 2932 2921 2935 2936  
27 2664 2808 2516 2696 2665 2809 2517 2697 2929 2930 2928 2927 2943 2944 2942 2941 2938 2939 2940 2937 2945 2948 2947 2946 2935 2949 2950  
27 2665 2809 2517 2697 1902 1938 1865 1910 2943 2944 2942 2941 1950 1951 1952 1949 2952 2953 2954 2951 2955 2958 2957 2956 2949 1953 2959  
27 340 375 305 350 2658 2798 2518 2698 394 395 396 393 2966 2967 2965 2964 2961 2962 2963 2960 2968 2971 2970 2969 397 2972 2973  
27 2658 2798 2518 2698 2659 2799 2519 2699 2966 2967 2965 2964 2980 2981 2979 2978 2975 2976 2977 2974 2982 2985 2984 2983 2972 2986 2987  
27 2659 2799 2519 2699 2660 2800 2520 2700 2980 2981 2979 2978 2994 2995 2993 2992 2989 2990 2991 2988 2996 2999 2998 2997 2986 3000 3001  
27 2660 2800 2520 2700 2661 2801 2521 2701 2994 2995 2993 2992 3008 3009 3007 3006 3003 3004 3005 3002 3010 3013 3012 3011 3000 3014 3015  
27 2661 2801 2521 2701 1901 1936 1866 1911 3008 3009 3007 3006 1955 1956 1957 1954 3017 3018 3019 3016 3020 3023 3022 3021 3014 1958 3024  
27 342 376 307 348 2666 2802 2526 2690 399 400 401 398 3031 3032 3030 3029 3026 3027 3028 3025 3033 3036 3035 3034 402 3037 3038  
27 2666 2802 2526 2690 2667 2803 2527 2691 3031 3032 3030 3029 3045 3046 3044 3043 3040 3041 3042 3039 3047 3050 3049 3048 3037 3051 3052  
27 2667 2803 2527 2691 2668 2804 2528 2692 3045 3046 3044 3043 3059 3060 3058 3057 3054 3055 3056 3053 3061 3064 3063 3062 3051 3065 3066  
27 2668 2804 2528 2692 2669 2805 2529 2693 3059 3060 3058 3057 3073 3074 3072 3071 3068 3069 3070 3067 3075 3078 3077 3076 3065 3079 3080  
27 2669 2805 2529 2693 1903 1937 1868 1909 3073 3074 3072 3071 1960 1961 1962 1959 3082 3083 3084 3081 3085 3088 3087 3086 3079 1963 3089  
27 66 336 312 65 1346 2642 2546 1342 403 404 405 73 3093 3094 3092 1425 1424 3090 3091 1410 1426 3097 3096 3095 406 3098 3099  
27 1346 2642 2546 1342 1347 2643 2547 1343 3093 3094 3092 1425 3103 3104 3102 1428 1427 3100 3101 1413 1429 3107 3106 3105 3098 3108 3109  
27 1347 2643 2547 1343 1348 2644 2548 1344 3103 3104 3102 1428 3113 3114 3112 1431 1430 3110 3111 1416 1432 3117 3116 3115 3108 3118 3119  
27 1348 2644 2548 1344 1349 2645 2549 1345 3113 3114 3112 1431 3123 3124 3122 1434 1433 3120 3121 1419 1435 3127 3126 3125 3118 3128 3129  
27 1349 2645 2549 1345 170 1897 1873 169 3123 3124 3122 1434 1964 1965 1966 177 1436 3130 3131 1422 1437 3134 3133 3132 3128 1967 3135  
27 21 337 313 20 941 2646 2550 937 407 386 408 28 3137 2835 3136 1020 1019 2830 2833 1005 1021 2839 3139 3138 409 3140 3141  
27 941 2646 2550 937 942 2647 2551 938 3137 2835 3136 1020 3143 2849 3142 1023 1022 2844 2847 1008 1024 2853 3145 3144 3140 3146 3147  
27 942 2647 2551 938 943 2648 2552 939 3143 2849 3142 1023 3149 2863 3148 1026 1025 2858 2861 1011 1027 2867 3151 3150 3146 3152 3153  
27 943 2648 2552 939 944 2649 2553 940 3149 2863 3148 1026 3155 2877 3154 1029 1028 2872 2875 1014 1030 2881 3157 3156 3152 3158 3159  
27 944 2649 2553 940 125 1898 1874 124 3155 2877 3154 1029 1968 1947 1969 132 1031 2886 2889 1017 1032 2891 3161 3160 3158 1970 3162  
27 51 338 314 50 1211 2650 2554 1207 410 411 412 58 3166 3167 3165 1290 1289 3163 3164 1275 1291 3170 3169 3168 413 3171 3172  
27 1211 2650 2554 1207 1212 2651 2555 1208 3166 3167 3165 1290 3176 3177 3175 1293 1292 3173 3174 1278 1294 3180 3179 3178 3171 3181 3182  
27 1212 2651 2555 1208 1213 2652 2556 1209 3176 3177 3175 1293 3186 3187 3185 1296 1295 3183 3184 1281 1297 3190 3189 3188 3181 3191 3192  
27 1213 2652 2556 1209 1214 2653 2557 1210 3186 3187 3185 1296 3196 3197 3195 1299 1298 3193 3194 1284 1300 3200 3199 3198 3191 3201 3202  
27 1214 2653 2557 1210 155 1899 1875 154 3196 3197 3195 1299 1971 1972 1973 162 1301 3203 3204 1287 1302 3207 3206 3205 3201 1974 3208  
27 36 339 315 35 1076 2654 2558 1072 414 415 416 43 3212 3213 3211 1155 1154 3209 3210 1140 1156 3216 3215 3214 417 3217 3218  
27 1076 2654 2558 1072 1077 2655 2559 1073 3212 3213 3211 1155 3222 3223 3221 1158 1157 3219 3220 1143 1159 3226 3225 3224 3217 3227 3228  
27 1077 2655 2559 1073 1078 2656 2560 1074 3222 3223 3221 1158 3232 3233 3231 1161 1160 3229 3230 1146 1162 3236 3235 3234 3227 3237 3238  
27 1078 2656 2560 1074 1079 2657 2561 1075 3232 3233 3231 1161 3242 3243 3241 1164 1163 3239 3240 1149 1165 3246 3245 3244 3237 3247 3248  
27 1079 2657 2561 1075 140 1900 1876 139 3242 3243 3241 1164 1975 1976 1977 147 1166 3249 3250 1152 1167 3253 3252 3251 3247 1978 3254  
27 323 364 320 298 2590 2754 2578 2490 419 420 421 418 3261 3262 3260 3259 3256 3257 3258 3255 3263 3266 3265 3264 422 3267 3268  
27 2590 2754 2578 2490 2591 2755 2579 2491 3261 3262 3260 3259 3275 3276 3274 3273 3270 3271 3272 3269 3277 3280 3279 3278 3267 3281 3282  
27 2591 2755 2579 2491 2592 2756 2580 2492 3275 3276 3274 3273 3289 3290 3288 3287 3284 3285 3286 3283 3291 3294 3293 3292 3281 3295 3296  
27 2592 2756 2580 2492 2593 2757 2581 2493 3289 3290 3288 3287 3303 3304 3302 3301 3298 3299 3300 3297 3305 3308 3307 3306 3295 3309 3310  
27 2593 2757 2581 2493 1884 1925 1881 1859 3303 3304 3302 3301 1980 1981 1982 1979 3312 3313 3314 3311 3315 3318 3317 3316 3309 1983 3319  
27 330 365 329 296 2618 2758 2614 2482 424 425 426 423 3326 3327 3325 3324 3321 3322 3323 3320 3328 3331 3330 3329 427 3332 3333  
27 2618 2758 2614 2482 2619 2759 2615 2483 3326 3327 3325 3324 3340 3341 3339 3338 3335 3336 3337 3334 3342 3345 3344 3343 3332 3346 3347  
27 2619 2759 2615 2483 2620 2760 2616 2484 3340 3341 3339 3338 3354 3355 3353 3352 3349 3350 3351 3348 3356 3359 3358 3357 3346 3360 3361  
27 2620 2760 2616 2484 2621 2761 2617 2485 3354 3355 3353 3352 3368 3369 3367 3366 3363 3364 3365 3362 3370 3373 3372 3371 3360 3374 3375  
27 2621 2761 2617 2485 1891 1926 1890 1857 3368 3369 3367 3366 1985 1986 1987 1984 3377 3378 3379 3376 3380 3383 3382 3381 3374 1988 3384  
27 319 366 316 299 2574 2762 2562 2494 429 430 431 428 3391 3392 3390 3389 3386 3387 3388 3385 3393 3396 3395 3394 432 3397 3398  
27 2574 2762 2562 2494 2575 2763 2563 2495 3391 3392 3390 3389 3405 3406 3404 3403 3400 3401 3402 3399 3407 3410 3409 3408 3397 3411 3412  
27 2575 2763 2563 2495 2576 2764 2564 2496 3405 3406 3404 3403 3419 3420 3418 3417 3414 3415 3416 3413 3421 3424 3423 3422 3411 3425 3426  
27 2576 2764 2564 2496 2577 2765 2565 2497 3419 3420 3418 3417 3433 3434 3432 3431 3428 3429 3430 3427 3435 3438 3437 3436 3425 3439 3440  
27 2577 2765 2565 2497 1880 1927 1877 1860 3433 3434 3432 3431 1990 1991 1992 1989 3442 3443 3444 3441 3445 3448 3447 3446 3439 1993 3449  
27 327 367 324 297 2606 2766 2594 2486 434 435 436 433 3456 3457 3455 3454 3451 3452 3453 3450 3458 3461 3460 3459 437 3462 3463  
27 2606 2766 2594 2486 2607 2767 2595 2487 3456 3457 3455 3454 3470 3471 3469 3468 3465 3466 3467 3464 3472 3475 3474 3473 3462 3476 3477  
27 2607 2767 2595 2487 2608 2768 2596 2488 3470 3471 3469 3468 3484 3485 3483 3482 3479 3480 3481 3478 3486 3489 3488 3487 3476 3490 3491  
27 2608 2768 2596 2488 2609 2769 2597 2489 3484 3485 3483 3482 3498 3499 3497 3496 3493 3494 3495 3492 3500 3503 3502 3501 3490 3504 3505  
27 2609 2769 2597 2489 1888 1928 1885 1858 3498 3499 3497 3496 1995 1996 1997 1994 3507 3508 3509 3506 3510 3513 3512 3511 3504 1998 3514  
27 320 90 89 298 2578 1671 1667 2490 438 95 439 421 3516 1721 3515 3260 3258 1722 1708 3255 3264 1723 3518 3517 440 3519 3520  
27 2578 1671 1667 2490 2579 1672 1668 2491 3516 1721 3515 3260 3522 1724 3521 3274 3272 1725 1711 3269 3278 1726 3524 3523 3519 3525 3526  
27 2579 1672 1668 2491 2580 1673 1669 2492 3522 1724 3521 3274 3528 1727 3527 3288 3286 1728 1714 3283 3292 1729 3530 3529 3525 3531 3532  
27 2580 1673 1669 2492 2581 1674 1670 2493 3528 1727 3527 3288 3534 1730 3533 3302 3300 1731 1717 3297 3306 1732 3536 3535 3531 3537 3538  
27 2581 1674 1670 2493 1881 203 204 1859 3534 1730 3533 3302 1999 209 2000 1982 3314 1733 1719 3311 3316 1734 3540 3539 3537 2001 3541  
27 316 79 78 299 2562 1770 1766 2494 441 84 442 431 3543 1820 3542 3390 3388 1821 1807 3385 3394 1822 3545 3544 443 3546 3547  
27 2562 1770 1766 2494 2563 1771 1767 2495 3543 1820 3542 3390 3549 1823 3548 3404 3402 1824 1810 3399 3408 1825 3551 3550 3546 3552 3553  
27 2563 1771 1767 2495 2564 1772 1768 2496 3549 1823 3548 3404 3555 1826 3554 3418 3416 1827 1813 3413 3422 1828 3557 3556 3552 3558 3559  
27 2564 1772 1768 2496 2565 1773 1769 2497 3555 1826 3554 3418 3561 1829 3560 3432 3430 1830 1816 3427 3436 1831 3563 3562 3558 3564 3565  
27 2565 1773 1769 2497 1877 214 215 1860 3561 1829 3560 3432 2002 220 2003 1992 3444 1832 1818 3441 3446 1833 3567 3566 3564 2004 3568  
27 329 101 100 296 2614 1572 1568 2482 444 106 445 426 3570 1622 3569 3325 3323 1623 1609 3320 3329 1624 3572 3571 446 3573 3574  
27 2614 1572 1568 2482 2615 1573 1569 2483 3570 1622 3569 3325 3576 1625 3575 3339 3337 1626 1612 3334 3343 1627 3578 3577 3573 3579 3580  
27 2615 1573 1569 2483 2616 1574 1570 2484 3576 1625 3575 3339 3582 1628 3581 3353 3351 1629 1615 3348 3357 1630 3584 3583 3579 3585 3586  
27 2616 1574 1570 2484 2617 1575 1571 2485 3582 1628 3581 3353 3588 1631 3587 3367 3365 1632 1618 3362 3371 1633 3590 3589 3585 3591 3592  
27 2617 1575 1571 2485 1890 192 193 1857 3588 1631 3587 3367 2005 198 2006 1987 3379 1634 1620 3376 3381 1635 3594 3593 3591 2007 3595  
27 324 112 111 297 2594 1473 1469 2486 447 117 448 436 3597 1523 3596 3455 3453 1524 1510 3450 3459 1525 3599 3598 449 3600 3601  
27 2594 1473 1469 2486 2595 1474 1470 2487 3597 1523 3596 3455 3603 1526 3602 3469 3467 1527 1513 3464 3473 1528 3605 3604 3600 3606 3607  
27 2595 1474 1470 2487 2596 1475 1471 2488 3603 1526 3602 3469 3609 1529 3608 3483 3481 1530 1516 3478 3487 1531 3611 3610 3606 3612 3613  
27 2596 1475 1471 2488 2597 1476 1472 2489 3609 1529 3608 3483 3615 1532 3614 3497 3495 1533 1519 3492 3501 1534 3617 3616 3612 3618 3619  
27 2597 1476 1472 2489 1885 181 182 1858 3615 1532 3614 3497 2008 187 2009 1997 3509 1535 1521 3506 3511 1536 3621 3620 3618 2010 3622  
27 34 35 341 349 1068 1072 2662 2694 42 451 388 450 1141 3624 2899 3623 1126 1140 2896 2895 3625 3626 1142 2903 452 3627 3628  
27 1068 1072 2662 2694 1069 1073 2663 2695 1141 3624 2899 3623 1144 3630 2913 3629 1129 1143 2910 2909 3631 3632 1145 2917 3627 3633 3634  
27 1069 1073 2663 2695 1070 1074 2664 2696 1144 3630 2913 3629 1147 3636 2927 3635 1132 1146 2924 2923 3637 3638 1148 2931 3633 3639 3640  
27 1070 1074 2664 2696 1071 1075 2665 2697 1147 3636 2927 3635 1150 3642 2941 3641 1135 1149 2938 2937 3643 3644 1151 2945 3639 3645 3646  
27 1071 1075 2665 2697 138 139 1902 1910 1150 3642 2941 3641 146 2012 1949 2011 1138 1152 2952 2951 3647 3648 1153 2955 3645 2013 3649  
27 49 50 340 350 1203 1207 2658 2698 57 454 393 453 1276 3651 2964 3650 1261 1275 2961 2960 3652 3653 1277 2968 455 3654 3655  
27 1203 1207 2658 2698 1204 1208 2659 2699 1276 3651 2964 3650 1279 3657 2978 3656 1264 1278 2975 2974 3658 3659 1280 2982 3654 3660 3661  
27 1204 1208 2659 2699 1205 1209 2660 2700 1279 3657 2978 3656 1282 3663 2992 3662 1267 1281 2989 2988 3664 3665 1283 2996 3660 3666 3667  
27 1205 1209 2660 2700 1206 1210 2661 2701 1282 3663 2992 3662 1285 3669 3006 3668 1270 1284 3003 3002 3670 3671 1286 3010 3666 3672 3673  
27 1206 1210 2661 2701 153 154 1901 1911 1285 3669 3006 3668 161 2015 1954 2014 1273 1287 3017 3016 3674 3675 1288 3020 3672 2016 3676  
27 64 65 342 348 1338 1342 2666 2690 72 457 398 456 1411 3678 3029 3677 1396 1410 3026 3025 3679 3680 1412 3033 458 3681 3682  
27 1338 1342 2666 2690 1339 1343 2667 2691 1411 3678 3029 3677 1414 3684 3043 3683 1399 1413 3040 3039 3685 3686 1415 3047 3681 3687 3688  
27 1339 1343 2667 2691 1340 1344 2668 2692 1414 3684 3043 3683 1417 3690 3057 3689 1402 1416 3054 3053 3691 3692 1418 3061 3687 3693 3694  
27 1340 1344 2668 2692 1341 1345 2669 2693 1417 3690 3057 3689 1420 3696 3071 3695 1405 1419 3068 3067 3697 3698 1421 3075 3693 3699 3700  
27 1341 1345 2669 2693 168 169 1903 1909 1420 3696 3071 3695 176 2018 1959 2017 1408 1422 3082 3081 3701 3702 1423 3085 3699 2019 3703  
27 18 382 343 381 929 2826 2670 2822 460 461 462 459 3709 3710 3708 3707 977 3705 3706 3704 3711 3714 3713 3712 463 3715 3716  
27 929 2826 2670 2822 930 2827 2671 2823 3709 3710 3708 3707 3722 3723 3721 3720 980 3718 3719 3717 3724 3727 3726 3725 3715 3728 3729  
27 930 2827 2671 2823 931 2828 2672 2824 3722 3723 3721 3720 3735 3736 3734 3733 983 3731 3732 3730 3737 3740 3739 3738 3728 3741 3742  
27 931 2828 2672 2824 932 2829 2673 2825 3735 3736 3734 3733 3748 3749 3747 3746 986 3744 3745 3743 3750 3753 3752 3751 3741 3754 3755  
27 932 2829 2673 2825 122 1943 1904 1942 3748 3749 3747 3746 2021 2022 2023 2020 989 3757 3758 3756 3759 3762 3761 3760 3754 2024 3763  
27 357 17 18 381 2726 925 929 2822 465 25 459 464 3766 978 3707 3765 3764 963 977 3704 3767 979 3768 3711 466 3769 3770  
27 2726 925 929 2822 2727 926 930 2823 3766 978 3707 3765 3773 981 3720 3772 3771 966 980 3717 3774 982 3775 3724 3769 3776 3777  
27 2727 926 930 2823 2728 927 931 2824 3773 981 3720 3772 3780 984 3733 3779 3778 969 983 3730 3781 985 3782 3737 3776 3783 3784  
27 2728 927 931 2824 2729 928 932 2825 3780 984 3733 3779 3787 987 3746 3786 3785 972 986 3743 3788 988 3789 3750 3783 3790 3791  
27 2729 928 932 2825 1918 121 122 1942 3787 987 3746 3786 2026 129 2020 2025 3792 975 989 3756 3793 990 3794 3759 3790 2027 3795  
27 359 67 0 16 2734 1350 224 921 468 75 23 467 3798 1452 950 3797 3796 1438 228 949 3799 1453 3800 951 469 3801 3802  
27 2734 1350 224 921 2735 1351 225 922 3798 1452 950 3797 3805 1454 953 3804 3803 1441 229 952 3806 1455 3807 954 3801 3808 3809  
27 2735 1351 225 922 2736 1352 226 923 3805 1454 953 3804 3812 1456 956 3811 3810 1444 230 955 3813 1457 3814 957 3808 3815 3816  
27 2736 1352 226 923 2737 1353 227 924 3812 1456 956 3811 3819 1458 959 3818 3817 1447 231 958 3820 1459 3821 960 3815 3822 3823  
27 2737 1353 227 924 1920 171 8 120 3819 1458 959 3818 2029 179 127 2028 3824 1450 232 961 3825 1460 3826 962 3822 2030 3827  
27 360 22 1 31 2738 945 233 1056 471 30 38 470 3830 1047 1085 3829 3828 1033 237 1084 3831 1048 3832 1086 472 3833 3834  
27 2738 945 233 1056 2739 946 234 1057 3830 1047 1085 3829 3837 1049 1088 3836 3835 1036 238 1087 3838 1050 3839 1089 3833 3840 3841  
27 2739 946 234 1057 2740 947 235 1058 3837 1049 1088 3836 3844 1051 1091 3843 3842 1039 239 1090 3845 1052 3846 1092 3840 3847 3848  
27 2740 947 235 1058 2741 948 236 1059 3844 1051 1091 3843 3851 1053 1094 3850 3849 1042 240 1093 3852 1054 3853 1095 3847 3854 3855  
27 2741 948 236 1059 1921 126 9 135 3851 1053 1094 3850 2032 134 142 2031 3856 1045 241 1096 3857 1055 3858 1097 3854 2033 3859  
27 361 52 3 61 2742 1215 251 1326 474 60 68 473 3862 1317 1355 3861 3860 1303 255 1354 3863 1318 3864 1356 475 3865 3866  
27 2742 1215 251 1326 2743 1216 252 1327 3862 1317 1355 3861 3869 1319 1358 3868 3867 1306 256 1357 3870 1320 3871 1359 3865 3872 3873  
27 2743 1216 252 1327 2744 1217 253 1328 3869 1319 1358 3868 3876 1321 1361 3875 3874 1309 257 1360 3877 1322 3878 1362 3872 3879 3880  
27 2744 1217 253 1328 2745 1218 254 1329 3876 1321 1361 3875 3883 1323 1364 3882 3881 1312 258 1363 3884 1324 3885 1365 3879 3886 3887  
27 2745 1218 254 1329 1922 156 11 165 3883 1323 1364 3882 2035 164 172 2034 3888 1315 259 1366 3889 1325 3890 1367 3886 2036 3891  
27 362 37 2 46 2746 1080 242 1191 477 45 53 476 3894 1182 1220 3893 3892 1168 246 1219 3895 1183 3896 1221 478 3897 3898  
27 2746 1080 242 1191 2747 1081 243 1192 3894 1182 1220 3893 3901 1184 1223 3900 3899 1171 247 1222 3902 1185 3903 1224 3897 3904 3905  
27 2747 1081 243 1192 2748 1082 244 1193 3901 1184 1223 3900 3908 1186 1226 3907 3906 1174 248 1225 3909 1187 3910 1227 3904 3911 3912  
27 2748 1082 244 1193 2749 1083 245 1194 3908 1186 1226 3907 3915 1188 1229 3914 3913 1177 249 1228 3916 1189 3917 1230 3911 3918 3919  
27 2749 1083 245 1194 1923 141 10 150 3915 1188 1229 3914 2038 149 157 2037 3920 1180 250 1231 3921 1190 3922 1232 3918 2039 3923  
27 32 33 378 355 1060 1064 2810 2718 40 480 481 479 1113 3928 3927 3926 1098 1112 3925 3924 3929 3931 1114 3930 482 3932 3933  
27 1060 1064 2810 2718 1061 1065 2811 2719 1113 3928 3927 3926 1116 3938 3937 3936 1101 1115 3935 3934 3939 3941 1117 3940 3932 3942 3943  
27 1061 1065 2811 2719 1062 1066 2812 2720 1116 3938 3937 3936 1119 3948 3947 3946 1104 1118 3945 3944 3949 3951 1120 3950 3942 3952 3953  
27 1062 1066 2812 2720 1063 1067 2813 2721 1119 3948 3947 3946 1122 3958 3957 3956 1107 1121 3955 3954 3959 3961 1123 3960 3952 3962 3963  
27 1063 1067 2813 2721 136 137 1939 1916 1122 3958 3957 3956 144 2041 2042 2040 1110 1124 3965 3964 3966 3968 1125 3967 3962 2043 3969  
27 47 48 379 356 1195 1199 2814 2722 55 484 485 483 1248 3974 3973 3972 1233 1247 3971 3970 3975 3977 1249 3976 486 3978 3979  
27 1195 1199 2814 2722 1196 1200 2815 2723 1248 3974 3973 3972 1251 3984 3983 3982 1236 1250 3981 3980 3985 3987 1252 3986 3978 3988 3989  
27 1196 1200 2815 2723 1197 1201 2816 2724 1251 3984 3983 3982 1254 3994 3993 3992 1239 1253 3991 3990 3995 3997 1255 3996 3988 3998 3999  
27 1197 1201 2816 2724 1198 1202 2817 2725 1254 3994 3993 3992 1257 4004 4003 4002 1242 1256 4001 4000 4005 4007 1258 4006 3998 4008 4009  
27 1198 1202 2817 2725 151 152 1940 1917 1257 4004 4003 4002 159 2045 2046 2044 1245 1259 4011 4010 4012 4014 1260 4013 4008 2047 4015  
27 62 63 380 358 1330 1334 2818 2730 70 488 489 487 1383 4020 4019 4018 1368 1382 4017 4016 4021 4023 1384 4022 490 4024 4025  
27 1330 1334 2818 2730 1331 1335 2819 2731 1383 4020 4019 4018 1386 4030 4029 4028 1371 1385 4027 4026 4031 4033 1387 4032 4024 4034 4035  
27 1331 1335 2819 2731 1332 1336 2820 2732 1386 4030 4029 4028 1389 4040 4039 4038 1374 1388 4037 4036 4041 4043 1390 4042 4034 4044 4045  
27 1332 1336 2820 2732 1333 1337 2821 2733 1389 4040 4039 4038 1392 4050 4049 4048 1377 1391 4047 4046 4051 4053 1393 4052 4044 4054 4055  
27 1333 1337 2821 2733 166 167 1941 1919 1392 4050 4049 4048 174 2049 2050 2048 1380 1394 4057 4056 4058 4060 1395 4059 4054 2051 4061  
27 374 323 354 338 2794 2590 2714 2650 492 493 494 491 4066 4067 4065 4064 4062 3256 4063 3163 4068 4071 4070 4069 495 4072 4073  
27 2794 2590 2714 2650 2795 2591 2715 2651 4066 4067 4065 4064 4078 4079 4077 4076 4074 3270 4075 3173 4080 4083 4082 4081 4072 4084 4085  
27 2795 2591 2715 2651 2796 2592 2716 2652 4078 4079 4077 4076 4090 4091 4089 4088 4086 3284 4087 3183 4092 4095 4094 4093 4084 4096 4097  
27 2796 2592 2716 2652 2797 2593 2717 2653 4090 4091 4089 4088 4102 4103 4101 4100 4098 3298 4099 3193 4104 4107 4106 4105 4096 4108 4109  
27 2797 2593 2717 2653 1935 1884 1915 1899 4102 4103 4101 4100 2053 2054 2055 2052 4110 3312 4111 3203 4112 4115 4114 4113 4108 2056 4116  
27 373 330 352 336 2790 2618 2706 2642 497 498 499 496 4121 4122 4120 4119 4117 3321 4118 3090 4123 4126 4125 4124 500 4127 4128  
27 2790 2618 2706 2642 2791 2619 2707 2643 4121 4122 4120 4119 4133 4134 4132 4131 4129 3335 4130 3100 4135 4138 4137 4136 4127 4139 4140  
27 2791 2619 2707 2643 2792 2620 2708 2644 4133 4134 4132 4131 4145 4146 4144 4143 4141 3349 4142 3110 4147 4150 4149 4148 4139 4151 4152  
27 2792 2620 2708 2644 2793 2621 2709 2645 4145 4146 4144 4143 4157 4158 4156 4155 4153 3363 4154 3120 4159 4162 4161 4160 4151 4163 4164  
27 2793 2621 2709 2645 1934 1891 1913 1897 4157 4158 4156 4155 2058 2059 2060 2057 4165 3377 4166 3130 4167 4170 4169 4168 4163 2061 4171  
27 372 319 353 339 2786 2574 2710 2654 502 503 504 501 4176 4177 4175 4174 4172 3386 4173 3209 4178 4181 4180 4179 505 4182 4183  
27 2786 2574 2710 2654 2787 2575 2711 2655 4176 4177 4175 4174 4188 4189 4187 4186 4184 3400 4185 3219 4190 4193 4192 4191 4182 4194 4195  
27 2787 2575 2711 2655 2788 2576 2712 2656 4188 4189 4187 4186 4200 4201 4199 4198 4196 3414 4197 3229 4202 4205 4204 4203 4194 4206 4207  
27 2788 2576 2712 2656 2789 2577 2713 2657 4200 4201 4199 4198 4212 4213 4211 4210 4208 3428 4209 3239 4214 4217 4216 4215 4206 4218 4219  
27 2789 2577 2713 2657 1933 1880 1914 1900 4212 4213 4211 4210 2063 2064 2065 2062 4220 3442 4221 3249 4222 4225 4224 4223 4218 2066 4226  
27 371 327 351 337 2782 2606 2702 2646 507 508 383 506 4229 4230 2834 4228 4227 3451 2831 2830 4231 4233 4232 2838 509 4234 4235  
27 2782 2606 2702 2646 2783 2607 2703 2647 4229 4230 2834 4228 4238 4239 2848 4237 4236 3465 2845 2844 4240 4242 4241 2852 4234 4243 4244  
27 2783 2607 2703 2647 2784 2608 2704 2648 4238 4239 2848 4237 4247 4248 2862 4246 4245 3479 2859 2858 4249 4251 4250 2866 4243 4252 4253  
27 2784 2608 2704 2648 2785 2609 2705 2649 4247 4248 2862 4246 4256 4257 2876 4255 4254 3493 2873 2872 4258 4260 4259 2880 4252 4261 4262  
27 2785 2609 2705 2649 1932 1888 1912 1898 4256 4257 2876 4255 2068 2069 1944 2067 4263 3507 2887 2886 4264 4266 4265 2890 4261 2070 4267  
27 377 353 332 304 2806 2710 2626 2514 510 511 512 390 4270 4271 4269 2902 2897 4173 4268 2898 2906 4274 4273 4272 513 4275 4276  
27 2806 2710 2626 2514 2807 2711 2627 2515 4270 4271 4269 2902 4279 4280 4278 2916 2911 4185 4277 2912 2920 4283 4282 4281 4275 4284 4285  
27 2807 2711 2627 2515 2808 2712 2628 2516 4279 4280 4278 2916 4288 4289 4287 2930 2925 4197 4286 2926 2934 4292 4291 4290 4284 4293 4294  
27 2808 2712 2628 2516 2809 2713 2629 2517 4288 4289 4287 2930 4297 4298 4296 2944 2939 4209 4295 2940 2948 4301 4300 4299 4293 4302 4303  
27 2809 2713 2629 2517 1938 1914 1893 1865 4297 4298 4296 2944 2071 2072 2073 1951 2953 4221 4304 2954 2958 4307 4306 4305 4302 2074 4308  
27 376 352 333 307 2802 2706 2630 2526 514 515 516 400 4311 4312 4310 3032 3027 4118 4309 3028 3036 4315 4314 4313 517 4316 4317  
27 2802 2706 2630 2526 2803 2707 2631 2527 4311 4312 4310 3032 4320 4321 4319 3046 3041 4130 4318 3042 3050 4324 4323 4322 4316 4325 4326  
27 2803 2707 2631 2527 2804 2708 2632 2528 4320 4321 4319 3046 4329 4330 4328 3060 3055 4142 4327 3056 3064 4333 4332 4331 4325 4334 4335  
27 2804 2708 2632 2528 2805 2709 2633 2529 4329 4330 4328 3060 4338 4339 4337 3074 3069 4154 4336 3070 3078 4342 4341 4340 4334 4343 4344  
27 2805 2709 2633 2529 1937 1913 1894 1868 4338 4339 4337 3074 2075 2076 2077 1961 3083 4166 4345 3084 3088 4348 4347 4346 4343 2078 4349  
27 375 354 334 305 2798 2714 2634 2518 518 519 520 395 4352 4353 4351 2967 2962 4063 4350 2963 2971 4356 4355 4354 521 4357 4358  
27 2798 2714 2634 2518 2799 2715 2635 2519 4352 4353 4351 2967 4361 4362 4360 2981 2976 4075 4359 2977 2985 4365 4364 4363 4357 4366 4367  
27 2799 2715 2635 2519 2800 2716 2636 2520 4361 4362 4360 2981 4370 4371 4369 2995 2990 4087 4368 2991 2999 4374 4373 4372 4366 4375 4376  
27 2800 2716 2636 2520 2801 2717 2637 2521 4370 4371 4369 2995 4379 4380 4378 3009 3004 4099 4377 3005 3013 4383 4382 4381 4375 4384 4385  
27 2801 2717 2637 2521 1936 1915 1895 1866 4379 4380 4378 3009 2079 2080 2081 1956 3018 4111 4386 3019 3023 4389 4388 4387 4384 2082 4390  
27 309 359 16 17 2534 2734 921 925 523 467 24 522 4393 3797 964 4392 4391 3796 949 963 4394 3799 4395 965 524 4396 4397  
27 2534 2734 921 925 2535 2735 922 926 4393 3797 964 4392 4400 3804 967 4399 4398 3803 952 966 4401 3806 4402 968 4396 4403 4404  
27 2535 2735 922 926 2536 2736 923 927 4400 3804 967 4399 4407 3811 970 4406 4405 3810 955 969 4408 3813 4409 971 4403 4410 4411  
27 2536 2736 923 927 2537 2737 924 928 4407 3811 970 4406 4414 3818 973 4413 4412 3817 958 972 4415 3820 4416 974 4410 4417 4418  
27 2537 2737 924 928 1870 1920 120 121 4414 3818 973 4413 2084 2028 128 2083 4419 3824 961 975 4420 3825 4421 976 4417 2085 4422  
27 311 360 31 32 2542 2738 1056 1060 526 470 39 525 4425 3829 1099 4424 4423 3828 1084 1098 4426 3831 4427 1100 527 4428 4429  
27 2542 2738 1056 1060 2543 2739 1057 1061 4425 3829 1099 4424 4432 3836 1102 4431 4430 3835 1087 1101 4433 3838 4434 1103 4428 4435 4436  
27 2543 2739 1057 1061 2544 2740 1058 1062 4432 3836 1102 4431 4439 3843 1105 4438 4437 3842 1090 1104 4440 3845 4441 1106 4435 4442 4443  
27 2544 2740 1058 1062 2545 2741 1059 1063 4439 3843 1105 4438 4446 3850 1108 4445 4444 3849 1093 1107 4447 3852 4448 1109 4442 4449 4450  
27 2545 2741 1059 1063 1872 1921 135 136 4446 3850 1108 4445 2087 2031 143 2086 4451 3856 1096 1110 4452 3857 4453 1111 4449 2088 4454  
27 308 361 61 62 2530 2742 1326 1330 529 473 69 528 4457 3861 1369 4456 4455 3860 1354 1368 4458 3863 4459 1370 530 4460 4461  
27 2530 2742 1326 1330 2531 2743 1327 1331 4457 3861 1369 4456 4464 3868 1372 4463 4462 3867 1357 1371 4465 3870 4466 1373 4460 4467 4468  
27 2531 2743 1327 1331 2532 2744 1328 1332 4464 3868 1372 4463 4471 3875 1375 4470 4469 3874 1360 1374 4472 3877 4473 1376 4467 4474 4475  
27 2532 2744 1328 1332 2533 2745 1329 1333 4471 3875 1375 4470 4478 3882 1378 4477 4476 3881 1363 1377 4479 3884 4480 1379 4474 4481 4482  
27 2533 2745 1329 1333 1869 1922 165 166 4478 3882 1378 4477 2090 2034 173 2089 4483 3888 1366 1380 4484 3889 4485 1381 4481 2091 4486  
27 310 362 46 47 2538 2746 1191 1195 532 476 54 531 4489 3893 1234 4488 4487 3892 1219 1233 4490 3895 4491 1235 533 4492 4493  
27 2538 2746 1191 1195 2539 2747 1192 1196 4489 3893 1234 4488 4496 3900 1237 4495 4494 3899 1222 1236 4497 3902 4498 1238 4492 4499 4500  
27 2539 2747 1192 1196 2540 2748 1193 1197 4496 3900 1237 4495 4503 3907 1240 4502 4501 3906 1225 1239 4504 3909 4505 1241 4499 4506 4507  
27 2540 2748 1193 1197 2541 2749 1194 1198 4503 3907 1240 4502 4510 3914 1243 4509 4508 3913 1228 1242 4511 3916 4512 1244 4506 4513 4514  
27 2541 2749 1194 1198 1871 1923 150 151 4510 3914 1243 4509 2093 2037 158 2092 4515 3920 1231 1245 4516 3921 4517 1246 4513 2094 4518  
27 296 100 99 333 2482 1568 1564 2630 445 105 535 534 3569 1608 4520 4519 3320 1609 1595 4309 4521 1610 3571 4522 536 4523 4524  
27 2482 1568 1564 2630 2483 1569 1565 2631 3569 1608 4520 4519 3575 1611 4526 4525 3334 1612 1598 4318 4527 1613 3577 4528 4523 4529 4530  
27 2483 1569 1565 2631 2484 1570 1566 2632 3575 1611 4526 4525 3581 1614 4532 4531 3348 1615 1601 4327 4533 1616 3583 4534 4529 4535 4536  
27 2484 1570 1566 2632 2485 1571 1567 2633 3581 1614 4532 4531 3587 1617 4538 4537 3362 1618 1604 4336 4539 1619 3589 4540 4535 4541 4542  
27 2485 1571 1567 2633 1857 193 194 1894 3587 1617 4538 4537 2006 199 2096 2095 3376 1620 1606 4345 4543 1621 3593 4544 4541 2097 4545  
27 297 111 110 331 2486 1469 1465 2622 448 116 538 537 3596 1509 4548 4547 3450 1510 1496 4546 4549 1511 3598 4550 539 4551 4552  
27 2486 1469 1465 2622 2487 1470 1466 2623 3596 1509 4548 4547 3602 1512 4555 4554 3464 1513 1499 4553 4556 1514 3604 4557 4551 4558 4559  
27 2487 1470 1466 2623 2488 1471 1467 2624 3602 1512 4555 4554 3608 1515 4562 4561 3478 1516 1502 4560 4563 1517 3610 4564 4558 4565 4566  
27 2488 1471 1467 2624 2489 1472 1468 2625 3608 1515 4562 4561 3614 1518 4569 4568 3492 1519 1505 4567 4570 1520 3616 4571 4565 4572 4573  
27 2489 1472 1468 2625 1858 182 183 1892 3614 1518 4569 4568 2009 188 2099 2098 3506 1521 1507 4574 4575 1522 3620 4576 4572 2100 4577  
27 298 89 88 334 2490 1667 1663 2634 439 94 541 540 3515 1707 4579 4578 3255 1708 1694 4350 4580 1709 3517 4581 542 4582 4583  
27 2490 1667 1663 2634 2491 1668 1664 2635 3515 1707 4579 4578 3521 1710 4585 4584 3269 1711 1697 4359 4586 1712 3523 4587 4582 4588 4589  
27 2491 1668 1664 2635 2492 1669 1665 2636 3521 1710 4585 4584 3527 1713 4591 4590 3283 1714 1700 4368 4592 1715 3529 4593 4588 4594 4595  
27 2492 1669 1665 2636 2493 1670 1666 2637 3527 1713 4591 4590 3533 1716 4597 4596 3297 1717 1703 4377 4598 1718 3535 4599 4594 4600 4601  
27 2493 1670 1666 2637 1859 204 205 1895 3533 1716 4597 4596 2000 210 2102 2101 3311 1719 1705 4386 4602 1720 3539 4603 4600 2103 4604  
27 299 78 77 332 2494 1766 1762 2626 442 83 544 543 3542 1806 4606 4605 3385 1807 1793 4268 4607 1808 3544 4608 545 4609 4610  
27 2494 1766 1762 2626 2495 1767 1763 2627 3542 1806 4606 4605 3548 1809 4612 4611 3399 1810 1796 4277 4613 1811 3550 4614 4609 4615 4616  
27 2495 1767 1763 2627 2496 1768 1764 2628 3548 1809 4612 4611 3554 1812 4618 4617 3413 1813 1799 4286 4619 1814 3556 4620 4615 4621 4622  
27 2496 1768 1764 2628 2497 1769 1765 2629 3554 1812 4618 4617 3560 1815 4624 4623 3427 1816 1802 4295 4625 1817 3562 4626 4621 4627 4628  
27 2497 1769 1765 2629 1860 215 216 1893 3560 1815 4624 4623 2003 221 2105 2104 3441 1818 1804 4304 4629 1819 3566 4630 4627 2106 4631  
27 314 375 340 50 2554 2798 2658 1207 546 394 454 412 4632 2966 3651 3165 3164 2962 2961 1275 3168 2970 4633 3653 547 4634 4635  
27 2554 2798 2658 1207 2555 2799 2659 1208 4632 2966 3651 3165 4636 2980 3657 3175 3174 2976 2975 1278 3178 2984 4637 3659 4634 4638 4639  
27 2555 2799 2659 1208 2556 2800 2660 1209 4636 2980 3657 3175 4640 2994 3663 3185 3184 2990 2989 1281 3188 2998 4641 3665 4638 4642 4643  
27 2556 2800 2660 1209 2557 2801 2661 1210 4640 2994 3663 3185 4644 3008 3669 3195 3194 3004 3003 1284 3198 3012 4645 3671 4642 4646 4647  
27 2557 2801 2661 1210 1875 1936 1901 154 4644 3008 3669 3195 2107 1955 2015 1973 3204 3018 3017 1287 3205 3022 4648 3675 4646 2108 4649  
27 315 377 341 35 2558 2806 2662 1072 548 389 451 416 4650 2901 3624 3211 3210 2897 2896 1140 3214 2905 4651 3626 549 4652 4653  
27 2558 2806 2662 1072 2559 2807 2663 1073 4650 2901 3624 3211 4654 2915 3630 3221 3220 2911 2910 1143 3224 2919 4655 3632 4652 4656 4657  
27 2559 2807 2663 1073 2560 2808 2664 1074 4654 2915 3630 3221 4658 2929 3636 3231 3230 2925 2924 1146 3234 2933 4659 3638 4656 4660 4661  
27 2560 2808 2664 1074 2561 2809 2665 1075 4658 2929 3636 3231 4662 2943 3642 3241 3240 2939 2938 1149 3244 2947 4663 3644 4660 4664 4665  
27 2561 2809 2665 1075 1876 1938 1902 139 4662 2943 3642 3241 2109 1950 2012 1977 3250 2953 2952 1152 3251 2957 4666 3648 4664 2110 4667  
27 312 376 342 65 2546 2802 2666 1342 550 399 457 405 4668 3031 3678 3092 3091 3027 3026 1410 3095 3035 4669 3680 551 4670 4671  
27 2546 2802 2666 1342 2547 2803 2667 1343 4668 3031 3678 3092 4672 3045 3684 3102 3101 3041 3040 1413 3105 3049 4673 3686 4670 4674 4675  
27 2547 2803 2667 1343 2548 2804 2668 1344 4672 3045 3684 3102 4676 3059 3690 3112 3111 3055 3054 1416 3115 3063 4677 3692 4674 4678 4679  
27 2548 2804 2668 1344 2549 2805 2669 1345 4676 3059 3690 3112 4680 3073 3696 3122 3121 3069 3068 1419 3125 3077 4681 3698 4678 4682 4683  
27 2549 2805 2669 1345 1873 1937 1903 169 4680 3073 3696 3122 2111 1960 2018 1966 3131 3083 3082 1422 3132 3087 4684 3702 4682 2112 4685  
27 331 306 344 351 2622 2522 2674 2702 553 554 384 552 4688 4689 2836 4687 4546 4686 2832 2831 4690 4692 4691 2840 555 4693 4694  
27 2622 2522 2674 2702 2623 2523 2675 2703 4688 4689 2836 4687 4697 4698 2850 4696 4553 4695 2846 2845 4699 4701 4700 2854 4693 4702 4703  
27 2623 2523 2675 2703 2624 2524 2676 2704 4697 4698 2850 4696 4706 4707 2864 4705 4560 4704 2860 2859 4708 4710 4709 2868 4702 4711 4712  
27 2624 2524 2676 2704 2625 2525 2677 2705 4706 4707 2864 4705 4715 4716 2878 4714 4567 4713 2874 2873 4717 4719 4718 2882 4711 4720 4721  
27 2625 2525 2677 2705 1892 1867 1905 1912 4715 4716 2878 4714 2114 2115 1945 2113 4574 4722 2888 2887 4723 4725 4724 2892 4720 2116 4726  
27 374 338 361 308 2794 2650 2742 2530 491 557 529 556 4064 4728 4457 4727 4062 3163 3860 4455 4729 4730 4068 4459 558 4731 4732  
27 2794 2650 2742 2530 2795 2651 2743 2531 4064 4728 4457 4727 4076 4734 4464 4733 4074 3173 3867 4462 4735 4736 4080 4466 4731 4737 4738  
27 2795 2651 2743 2531 2796 2652 2744 2532 4076 4734 4464 4733 4088 4740 4471 4739 4086 3183 3874 4469 4741 4742 4092 4473 4737 4743 4744  
27 2796 2652 2744 2532 2797 2653 2745 2533 4088 4740 4471 4739 4100 4746 4478 4745 4098 3193 3881 4476 4747 4748 4104 4480 4743 4749 4750  
27 2797 2653 2745 2533 1935 1899 1922 1869 4100 4746 4478 4745 2052 2118 2090 2117 4110 3203 3888 4483 4751 4752 4112 4485 4749 2119 4753  
27 373 336 359 309 2790 2642 2734 2534 496 560 523 559 4119 4755 4393 4754 4117 3090 3796 4391 4756 4757 4123 4395 561 4758 4759  
27 2790 2642 2734 2534 2791 2643 2735 2535 4119 4755 4393 4754 4131 4761 4400 4760 4129 3100 3803 4398 4762 4763 4135 4402 4758 4764 4765  
27 2791 2643 2735 2535 2792 2644 2736 2536 4131 4761 4400 4760 4143 4767 4407 4766 4141 3110 3810 4405 4768 4769 4147 4409 4764 4770 4771  
27 2792 2644 2736 2536 2793 2645 2737 2537 4143 4767 4407 4766 4155 4773 4414 4772 4153 3120 3817 4412 4774 4775 4159 4416 4770 4776 4777  
27 2793 2645 2737 2537 1934 1897 1920 1870 4155 4773 4414 4772 2057 2121 2084 2120 4165 3130 3824 4419 4778 4779 4167 4421 4776 2122 4780  
27 372 339 362 310 2786 2654 2746 2538 501 563 532 562 4174 4782 4489 4781 4172 3209 3892 4487 4783 4784 4178 4491 564 4785 4786  
27 2786 2654 2746 2538 2787 2655 2747 2539 4174 4782 4489 4781 4186 4788 4496 4787 4184 3219 3899 4494 4789 4790 4190 4498 4785 4791 4792  
27 2787 2655 2747 2539 2788 2656 2748 2540 4186 4788 4496 4787 4198 4794 4503 4793 4196 3229 3906 4501 4795 4796 4202 4505 4791 4797 4798  
27 2788 2656 2748 2540 2789 2657 2749 2541 4198 4794 4503 4793 4210 4800 4510 4799 4208 3239 3913 4508 4801 4802 4214 4512 4797 4803 4804  
27 2789 2657 2749 2541 1933 1900 1923 1871 4210 4800 4510 4799 2062 2124 2093 2123 4220 3249 3920 4515 4805 4806 4222 4517 4803 2125 4807  
27 371 337 360 311 2782 2646 2738 2542 506 566 526 565 4228 4809 4425 4808 4227 2830 3828 4423 4810 4811 4231 4427 567 4812 4813  
27 2782 2646 2738 2542 2783 2647 2739 2543 4228 4809 4425 4808 4237 4815 4432 4814 4236 2844 3835 4430 4816 4817 4240 4434 4812 4818 4819  
27 2783 2647 2739 2543 2784 2648 2740 2544 4237 4815 4432 4814 4246 4821 4439 4820 4245 2858 3842 4437 4822 4823 4249 4441 4818 4824 4825  
27 2784 2648 2740 2544 2785 2649 2741 2545 4246 4821 4439 4820 4255 4827 4446 4826 4254 2872 3849 4444 4828 4829 4258 4448 4824 4830 4831  
27 2785 2649 2741 2545 1932 1898 1921 1872 4255 4827 4446 4826 2067 2127 2087 2126 4263 2886 3856 4451 4832 4833 4264 4453 4830 2128 4834  
27 306 328 335 344 2522 2610 2638 2674 568 569 570 554 4838 4839 4837 4689 4686 4835 4836 2832 4692 4842 4841 4840 571 4843 4844  
27 2522 2610 2638 2674 2523 2611 2639 2675 4838 4839 4837 4689 4848 4849 4847 4698 4695 4845 4846 2846 4701 4852 4851 4850 4843 4853 4854  
27 2523 2611 2639 2675 2524 2612 2640 2676 4848 4849 4847 4698 4858 4859 4857 4707 4704 4855 4856 2860 4710 4862 4861 4860 4853 4863 4864  
27 2524 2612 2640 2676 2525 2613 2641 2677 4858 4859 4857 4707 4868 4869 4867 4716 4713 4865 4866 2874 4719 4872 4871 4870 4863 4873 4874  
27 2525 2613 2641 2677 1867 1889 1896 1905 4868 4869 4867 4716 2129 2130 2131 2115 4722 4875 4876 2888 4725 4879 4878 4877 4873 2132 4880  
27 307 98 5 345 2526 1560 278 2678 573 103 574 572 4884 1580 4883 4882 3028 1581 282 4881 4885 1582 4887 4886 575 4888 4889  
27 2526 1560 278 2678 2527 1561 279 2679 4884 1580 4883 4882 4893 1583 4892 4891 3042 1584 283 4890 4894 1585 4896 4895 4888 4897 4898  
27 2527 1561 279 2679 2528 1562 280 2680 4893 1583 4892 4891 4902 1586 4901 4900 3056 1587 284 4899 4903 1588 4905 4904 4897 4906 4907  
27 2528 1562 280 2680 2529 1563 281 2681 4902 1586 4901 4900 4911 1589 4910 4909 3070 1590 285 4908 4912 1591 4914 4913 4906 4915 4916  
27 2529 1563 281 2681 1868 195 14 1906 4911 1589 4910 4909 2134 201 2135 2133 3084 1592 286 4917 4918 1593 4920 4919 4915 2136 4921  
27 306 109 7 328 2522 1461 269 2610 576 114 577 568 4923 1481 4922 4838 4686 1482 273 4835 4841 1483 4925 4924 578 4926 4927  
27 2522 1461 269 2610 2523 1462 270 2611 4923 1481 4922 4838 4929 1484 4928 4848 4695 1485 274 4845 4851 1486 4931 4930 4926 4932 4933  
27 2523 1462 270 2611 2524 1463 271 2612 4929 1484 4928 4848 4935 1487 4934 4858 4704 1488 275 4855 4861 1489 4937 4936 4932 4938 4939  
27 2524 1463 271 2612 2525 1464 272 2613 4935 1487 4934 4858 4941 1490 4940 4868 4713 1491 276 4865 4871 1492 4943 4942 4938 4944 4945  
27 2525 1464 272 2613 1867 184 13 1889 4941 1490 4940 4868 2137 190 2138 2129 4722 1493 277 4875 4878 1494 4947 4946 4944 2139 4948  
27 305 87 6 346 2518 1659 287 2682 580 92 581 579 4952 1679 4951 4950 2963 1680 291 4949 4953 1681 4955 4954 582 4956 4957  
27 2518 1659 287 2682 2519 1660 288 2683 4952 1679 4951 4950 4961 1682 4960 4959 2977 1683 292 4958 4962 1684 4964 4963 4956 4965 4966  
27 2519 1660 288 2683 2520 1661 289 2684 4961 1682 4960 4959 4970 1685 4969 4968 2991 1686 293 4967 4971 1687 4973 4972 4965 4974 4975  
27 2520 1661 289 2684 2521 1662 290 2685 4970 1685 4969 4968 4979 1688 4978 4977 3005 1689 294 4976 4980 1690 4982 4981 4974 4983 4984  
27 2521 1662 290 2685 1866 206 15 1907 4979 1688 4978 4977 2141 212 2142 2140 3019 1691 295 4985 4986 1692 4988 4987 4983 2143 4989  
27 304 76 4 347 2514 1758 260 2686 584 81 585 583 4993 1778 4992 4991 2898 1779 264 4990 4994 1780 4996 4995 586 4997 4998  
27 2514 1758 260 2686 2515 1759 261 2687 4993 1778 4992 4991 5002 1781 5001 5000 2912 1782 265 4999 5003 1783 5005 5004 4997 5006 5007  
27 2515 1759 261 2687 2516 1760 262 2688 5002 1781 5001 5000 5011 1784 5010 5009 2926 1785 266 5008 5012 1786 5014 5013 5006 5015 5016  
27 2516 1760 262 2688 2517 1761 263 2689 5011 1784 5010 5009 5020 1787 5019 5018 2940 1788 267 5017 5021 1789 5023 5022 5015 5024 5025  
27 2517 1761 263 2689 1865 217 12 1908 5020 1787 5019 5018 2145 223 2146 2144 2954 1790 268 5026 5027 1791 5029 5028 5024 2147 5030  
27 347 4 113 300 2686 260 1477 2498 585 119 588 587 4992 1551 5033 5032 4990 264 1538 5031 5034 1552 4995 5035 589 5036 5037  
27 2686 260 1477 2498 2687 261 1478 2499 4992 1551 5033 5032 5001 1553 5040 5039 4999 265 1541 5038 5041 1554 5004 5042 5036 5043 5044  
27 2687 261 1478 2499 2688 262 1479 2500 5001 1553 5040 5039 5010 1555 5047 5046 5008 266 1544 5045 5048 1556 5013 5049 5043 5050 5051  
27 2688 262 1479 2500 2689 263 1480 2501 5010 1555 5047 5046 5019 1557 5054 5053 5017 267 1547 5052 5055 1558 5022 5056 5050 5057 5058  
27 2689 263 1480 2501 1908 12 180 1861 5019 1557 5054 5053 2146 185 2149 2148 5026 268 1549 5059 5060 1559 5028 5061 5057 2150 5062  
27 345 5 91 303 2678 278 1675 2510 574 97 591 590 4883 1749 5065 5064 4881 282 1736 5063 5066 1750 4886 5067 592 5068 5069  
27 2678 278 1675 2510 2679 279 1676 2511 4883 1749 5065 5064 4892 1751 5072 5071 4890 283 1739 5070 5073 1752 4895 5074 5068 5075 5076  
27 2679 279 1676 2511 2680 280 1677 2512 4892 1751 5072 5071 4901 1753 5079 5078 4899 284 1742 5077 5080 1754 4904 5081 5075 5082 5083  
27 2680 280 1677 2512 2681 281 1678 2513 4901 1753 5079 5078 4910 1755 5086 5085 4908 285 1745 5084 5087 1756 4913 5088 5082 5089 5090  
27 2681 281 1678 2513 1906 14 202 1864 4910 1755 5086 5085 2135 207 2152 2151 4917 286 1747 5091 5092 1757 4919 5093 5089 2153 5094  
27 346 6 80 302 2682 287 1774 2506 581 86 594 593 4951 1848 5097 5096 4949 291 1835 5095 5098 1849 4954 5099 595 5100 5101  
27 2682 287 1774 2506 2683 288 1775 2507 4951 1848 5097 5096 4960 1850 5104 5103 4958 292 1838 5102 5105 1851 4963 5106 5100 5107 5108  
27 2683 288 1775 2507 2684 289 1776 2508 4960 1850 5104 5103 4969 1852 5111 5110 4967 293 1841 5109 5112 1853 4972 5113 5107 5114 5115  
27 2684 289 1776 2508 2685 290 1777 2509 4969 1852 5111 5110 4978 1854 5118 5117 4976 294 1844 5116 5119 1855 4981 5120 5114 5121 5122  
27 2685 290 1777 2509 1907 15 213 1863 4978 1854 5118 5117 2142 218 2155 2154 4985 295 1846 5123 5124 1856 4987 5125 5121 2156 5126  
27 331 110 109 306 2622 1465 1461 2522 538 115 576 553 4548 1495 4923 4688 4546 1496 1482 4686 4691 1497 4550 4925 596 5127 5128  
27 2622 1465 1461 2522 2623 1466 1462 2523 4548 1495 4923 4688 4555 1498 4929 4697 4553 1499 1485 4695 4700 1500 4557 4931 5127 5129 5130  
27 2623 1466 1462 2523 2624 1467 1463 2524 4555 1498 4929 4697 4562 1501 4935 4706 4560 1502 1488 4704 4709 1503 4564 4937 5129 5131 5132  
27 2624 1467 1463 2524 2625 1468 1464 2525 4562 1501 4935 4706 4569 1504 4941 4715 4567 1505 1491 4713 4718 1506 4571 4943 5131 5133 5134  
27 2625 1468 1464 2525 1892 183 184 1867 4569 1504 4941 4715 2099 189 2137 2114 4574 1507 1493 4722 4724 1508 4576 4947 5133 2157 5135  
27 332 77 76 304 2626 1762 1758 2514 544 82 584 512 4606 1792 4993 4269 4268 1793 1779 2898 4272 1794 4608 4996 597 5136 5137  
27 2626 1762 1758 2514 2627 1763 1759 2515 4606 1792 4993 4269 4612 1795 5002 4278 4277 1796 1782 2912 4281 1797 4614 5005 5136 5138 5139  
27 2627 1763 1759 2515 2628 1764 1760 2516 4612 1795 5002 4278 4618 1798 5011 4287 4286 1799 1785 2926 4290 1800 4620 5014 5138 5140 5141  
27 2628 1764 1760 2516 2629 1765 1761 2517 4618 1798 5011 4287 4624 1801 5020 4296 4295 1802 1788 2940 4299 1803 4626 5023 5140 5142 5143  
27 2629 1765 1761 2517 1893 216 217 1865 4624 1801 5020 4296 2105 222 2145 2073 4304 1804 1790 2954 4305 1805 4630 5029 5142 2158 5144  
27 333 99 98 307 2630 1564 1560 2526 535 104 573 516 4520 1594 4884 4310 4309 1595 1581 3028 4313 1596 4522 4887 598 5145 5146  
27 2630 1564 1560 2526 2631 1565 1561 2527 4520 1594 4884 4310 4526 1597 4893 4319 4318 1598 1584 3042 4322 1599 4528 4896 5145 5147 5148  
27 2631 1565 1561 2527 2632 1566 1562 2528 4526 1597 4893 4319 4532 1600 4902 4328 4327 1601 1587 3056 4331 1602 4534 4905 5147 5149 5150  
27 2632 1566 1562 2528 2633 1567 1563 2529 4532 1600 4902 4328 4538 1603 4911 4337 4336 1604 1590 3070 4340 1605 4540 4914 5149 5151 5152  
27 2633 1567 1563 2529 1894 194 195 1868 4538 1603 4911 4337 2096 200 2134 2077 4345 1606 1592 3084 4346 1607 4544 4920 5151 2159 5153  
27 334 88 87 305 2634 1663 1659 2518 541 93 580 520 4579 1693 4952 4351 4350 1694 1680 2963 4354 1695 4581 4955 599 5154 5155  
27 2634 1663 1659 2518 2635 1664 1660 2519 4579 1693 4952 4351 4585 1696 4961 4360 4359 1697 1683 2977 4363 1698 4587 4964 5154 5156 5157  
27 2635 1664 1660 2519 2636 1665 1661 2520 4585 1696 4961 4360 4591 1699 4970 4369 4368 1700 1686 2991 4372 1701 4593 4973 5156 5158 5159  
27 2636 1665 1661 2520 2637 1666 1662 2521 4591 1699 4970 4369 4597 1702 4979 4378 4377 1703 1689 3005 4381 1704 4599 4982 5158 5160 5161  
27 2637 1666 1662 2521 1895 205 206 1866 4597 1702 4979 4378 2102 211 2141 2081 4386 1705 1691 3019 4387 1706 4603 4988 5160 2160 5162  
27 351 327 297 331 2702 2606 2486 2622 508 433 537 552 4230 3454 4547 4687 2831 3451 3450 4546 4690 3458 4233 4549 600 5163 5164  
27 2702 2606 2486 2622 2703 2607 2487 2623 4230 3454 4547 4687 4239 3468 4554 4696 2845 3465 3464 4553 4699 3472 4242 4556 5163 5165 5166  
27 2703 2607 2487 2623 2704 2608 2488 2624 4239 3468 4554 4696 4248 3482 4561 4705 2859 3479 3478 4560 4708 3486 4251 4563 5165 5167 5168  
27 2704 2608 2488 2624 2705 2609 2489 2625 4248 3482 4561 4705 4257 3496 4568 4714 2873 3493 3492 4567 4717 3500 4260 4570 5167 5169 5170  
27 2705 2609 2489 2625 1912 1888 1858 1892 4257 3496 4568 4714 2069 1994 2098 2113 2887 3507 3506 4574 4723 3510 4266 4575 5169 2161 5171  
27 352 330 296 333 2706 2618 2482 2630 498 423 534 515 4122 3324 4519 4312 4118 3321 3320 4309 4315 3328 4126 4521 601 5172 5173  
27 2706 2618 2482 2630 2707 2619 2483 2631 4122 3324 4519 4312 4134 3338 4525 4321 4130 3335 3334 4318 4324 3342 4138 4527 5172 5174 5175  
27 2707 2619 2483 2631 2708 2620 2484 2632 4134 3338 4525 4321 4146 3352 4531 4330 4142 3349 3348 4327 4333 3356 4150 4533 5174 5176 5177  
27 2708 2620 2484 2632 2709 2621 2485 2633 4146 3352 4531 4330 4158 3366 4537 4339 4154 3363 3362 4336 4342 3370 4162 4539 5176 5178 5179  
27 2709 2621 2485 2633 1913 1891 1857 1894 4158 3366 4537 4339 2059 1984 2095 2076 4166 3377 3376 4345 4348 3380 4170 4543 5178 2162 5180  
27 353 319 299 332 2710 2574 2494 2626 503 428 543 511 4177 3389 4605 4271 4173 3386 3385 4268 4274 3393 4181 4607 602 5181 5182  
27 2710 2574 2494 2626 2711 2575 2495 2627 4177 3389 4605 4271 4189 3403 4611 4280 4185 3400 3399 4277 4283 3407 4193 4613 5181 5183 5184  
27 2711 2575 2495 2627 2712 2576 2496 2628 4189 3403 4611 4280 4201 3417 4617 4289 4197 3414 3413 4286 4292 3421 4205 4619 5183 5185 5186  
27 2712 2576 2496 2628 2713 2577 2497 2629 4201 3417 4617 4289 4213 3431 4623 4298 4209 3428 3427 4295 4301 3435 4217 4625 5185 5187 5188  
27 2713 2577 2497 2629 1914 1880 1860 1893 4213 3431 4623 4298 2064 1989 2104 2072 4221 3442 3441 4304 4307 3445 4225 4629 5187 2163 5189  
27 354 323 298 334 2714 2590 2490 2634 493 418 540 519 4067 3259 4578 4353 4063 3256 3255 4350 4356 3263 4071 4580 603 5190 5191  
27 2714 2590 2490 2634 2715 2591 2491 2635 4067 3259 4578 4353 4079 3273 4584 4362 4075 3270 3269 4359 4365 3277 4083 4586 5190 5192 5193  
27 2715 2591 2491 2635 2716 2592 2492 2636 4079 3273 4584 4362 4091 3287 4590 4371 4087 3284 3283 4368 4374 3291 4095 4592 5192 5194 5195  
27 2716 2592 2492 2636 2717 2593 2493 2637 4091 3287 4590 4371 4103 3301 4596 4380 4099 3298 3297 4377 4383 3305 4107 4598 5194 5196 5197  
27 2717 2593 2493 2637 1915 1884 1859 1895 4103 3301 4596 4380 2054 1979 2101 2080 4111 3312 3311 4386 4389 3315 4115 4602 5196 2164 5198  
27 328 7 102 301 2610 269 1576 2502 577 108 605 604 4922 1650 5201 5200 4835 273 1637 5199 5202 1651 4924 5203 606 5204 5205  
27 2610 269 1576 2502 2611 270 1577 2503 4922 1650 5201 5200 4928 1652 5208 5207 4845 274 1640 5206 5209 1653 4930 5210 5204 5211 5212  
27 2611 270 1577 2503 2612 271 1578 2504 4928 1652 5208 5207 4934 1654 5215 5214 4855 275 1643 5213 5216 1655 4936 5217 5211 5218 5219  
27 2612 271 1578 2504 2613 272 1579 2505 4934 1654 5215 5214 4940 1656 5222 5221 4865 276 1646 5220 5223 1657 4942 5224 5218 5225 5226  
27 2613 272 1579 2505 1889 13 191 1862 4940 1656 5222 5221 2138 196 2166 2165 4875 277 1648 5227 5228 1658 4946 5229 5225 2167 5230  
27 345 322 348 307 2678 2586 2690 2526 607 608 401 572 5232 5233 3030 4882 4881 5231 3025 3028 4885 5235 5234 3034 609 5236 5237  
27 2678 2586 2690 2526 2679 2587 2691 2527 5232 5233 3030 4882 5239 5240 3044 4891 4890 5238 3039 3042 4894 5242 5241 3048 5236 5243 5244  
27 2679 2587 2691 2527 2680 2588 2692 2528 5239 5240 3044 4891 5246 5247 3058 4900 4899 5245 3053 3056 4903 5249 5248 3062 5243 5250 5251  
27 2680 2588 2692 2528 2681 2589 2693 2529 5246 5247 3058 4900 5253 5254 3072 4909 4908 5252 3067 3070 4912 5256 5255 3076 5250 5257 5258  
27 2681 2589 2693 2529 1906 1883 1909 1868 5253 5254 3072 4909 2168 2169 1962 2133 4917 5259 3081 3084 4918 5261 5260 3086 5257 2170 5262  
27 346 318 350 305 2682 2570 2698 2518 610 611 396 579 5264 5265 2965 4950 4949 5263 2960 2963 4953 5267 5266 2969 612 5268 5269  
27 2682 2570 2698 2518 2683 2571 2699 2519 5264 5265 2965 4950 5271 5272 2979 4959 4958 5270 2974 2977 4962 5274 5273 2983 5268 5275 5276  
27 2683 2571 2699 2519 2684 2572 2700 2520 5271 5272 2979 4959 5278 5279 2993 4968 4967 5277 2988 2991 4971 5281 5280 2997 5275 5282 5283  
27 2684 2572 2700 2520 2685 2573 2701 2521 5278 5279 2993 4968 5285 5286 3007 4977 4976 5284 3002 3005 4980 5288 5287 3011 5282 5289 5290  
27 2685 2573 2701 2521 1907 1879 1911 1866 5285 5286 3007 4977 2171 2172 1957 2140 4985 5291 3016 3019 4986 5293 5292 3021 5289 2173 5294  
27 347 326 349 304 2686 2602 2694 2514 613 614 391 583 5296 5297 2900 4991 4990 5295 2895 2898 4994 5299 5298 2904 615 5300 5301  
27 2686 2602 2694 2514 2687 2603 2695 2515 5296 5297 2900 4991 5303 5304 2914 5000 4999 5302 2909 2912 5003 5306 5305 2918 5300 5307 5308  
27 2687 2603 2695 2515 2688 2604 2696 2516 5303 5304 2914 5000 5310 5311 2928 5009 5008 5309 2923 2926 5012 5313 5312 2932 5307 5314 5315  
27 2688 2604 2696 2516 2689 2605 2697 2517 5310 5311 2928 5009 5317 5318 2942 5018 5017 5316 2937 2940 5021 5320 5319 2946 5314 5321 5322  
27 2689 2605 2697 2517 1908 1887 1910 1865 5317 5318 2942 5018 2174 2175 1952 2144 5026 5323 2951 2954 5027 5325 5324 2956 5321 2176 5326  
27 343 335 328 301 2670 2638 2610 2502 617 569 604 616 5328 4839 5200 5327 3706 4836 4835 5199 5329 4842 5330 5202 618 5331 5332  
27 2670 2638 2610 2502 2671 2639 2611 2503 5328 4839 5200 5327 5334 4849 5207 5333 3719 4846 4845 5206 5335 4852 5336 5209 5331 5337 5338  
27 2671 2639 2611 2503 2672 2640 2612 2504 5334 4849 5207 5333 5340 4859 5214 5339 3732 4856 4855 5213 5341 4862 5342 5216 5337 5343 5344  
27 2672 2640 2612 2504 2673 2641 2613 2505 5340 4859 5214 5339 5346 4869 5221 5345 3745 4866 4865 5220 5347 4872 5348 5223 5343 5349 5350  
27 2673 2641 2613 2505 1904 1896 1889 1862 5346 4869 5221 5345 2178 2130 2165 2177 3758 4876 4875 5227 5351 4879 5352 5228 5349 2179 5353  
27 67 359 336 66 1350 2734 2642 1346 468 560 403 74 3798 4755 3093 1439 1438 3796 3090 1424 1440 4757 3800 3096 619 5354 5355  
27 1350 2734 2642 1346 1351 2735 2643 1347 3798 4755 3093 1439 3805 4761 3103 1442 1441 3803 3100 1427 1443 4763 3807 3106 5354 5356 5357  
27 1351 2735 2643 1347 1352 2736 2644 1348 3805 4761 3103 1442 3812 4767 3113 1445 1444 3810 3110 1430 1446 4769 3814 3116 5356 5358 5359  
27 1352 2736 2644 1348 1353 2737 2645 1349 3812 4767 3113 1445 3819 4773 3123 1448 1447 3817 3120 1433 1449 4775 3821 3126 5358 5360 5361  
27 1353 2737 2645 1349 171 1920 1897 170 3819 4773 3123 1448 2029 2121 1964 178 1450 3824 3130 1436 1451 4779 3826 3133 5360 2180 5362  
27 22 360 337 21 945 2738 2646 941 471 566 407 29 3830 4809 3137 1034 1033 3828 2830 1019 1035 4811 3832 3139 620 5363 5364  
27 945 2738 2646 941 946 2739 2647 942 3830 4809 3137 1034 3837 4815 3143 1037 1036 3835 2844 1022 1038 4817 3839 3145 5363 5365 5366  
27 946 2739 2647 942 947 2740 2648 943 3837 4815 3143 1037 3844 4821 3149 1040 1039 3842 2858 1025 1041 4823 3846 3151 5365 5367 5368  
27 947 2740 2648 943 948 2741 2649 944 3844 4821 3149 1040 3851 4827 3155 1043 1042 3849 2872 1028 1044 4829 3853 3157 5367 5369 5370  
27 948 2741 2649 944 126 1921 1898 125 3851 4827 3155 1043 2032 2127 1968 133 1045 3856 2886 1031 1046 4833 3858 3161 5369 2181 5371  
27 52 361 338 51 1215 2742 2650 1211 474 557 410 59 3862 4728 3166 1304 1303 3860 3163 1289 1305 4730 3864 3169 621 5372 5373  
27 1215 2742 2650 1211 1216 2743 2651 1212 3862 4728 3166 1304 3869 4734 3176 1307 1306 3867 3173 1292 1308 4736 3871 3179 5372 5374 5375  
27 1216 2743 2651 1212 1217 2744 2652 1213 3869 4734 3176 1307 3876 4740 3186 1310 1309 3874 3183 1295 1311 4742 3878 3189 5374 5376 5377  
27 1217 2744 2652 1213 1218 2745 2653 1214 3876 4740 3186 1310 3883 4746 3196 1313 1312 3881 3193 1298 1314 4748 3885 3199 5376 5378 5379  
27 1218 2745 2653 1214 156 1922 1899 155 3883 4746 3196 1313 2035 2118 1971 163 1315 3888 3203 1301 1316 4752 3890 3206 5378 2182 5380  
27 37 362 339 36 1080 2746 2654 1076 477 563 414 44 3894 4782 3212 1169 1168 3892 3209 1154 1170 4784 3896 3215 622 5381 5382  
27 1080 2746 2654 1076 1081 2747 2655 1077 3894 4782 3212 1169 3901 4788 3222 1172 1171 3899 3219 1157 1173 4790 3903 3225 5381 5383 5384  
27 1081 2747 2655 1077 1082 2748 2656 1078 3901 4788 3222 1172 3908 4794 3232 1175 1174 3906 3229 1160 1176 4796 3910 3235 5383 5385 5386  
27 1082 2748 2656 1078 1083 2749 2657 1079 3908 4794 3232 1175 3915 4800 3242 1178 1177 3913 3239 1163 1179 4802 3917 3245 5385 5387 5388  
27 1083 2749 2657 1079 141 1923 1900 140 3915 4800 3242 1178 2038 2124 1975 148 1180 3920 3249 1166 1181 4806 3922 3252 5387 2183 5389  
27 90 320 303 91 1671 2578 2510 1675 438 623 591 96 3516 5390 5065 1735 1722 3258 5063 1736 1737 5391 3518 5067 624 5392 5393  
27 1671 2578 2510 1675 1672 2579 2511 1676 3516 5390 5065 1735 3522 5394 5072 1738 1725 3272 5070 1739 1740 5395 3524 5074 5392 5396 5397  
27 1672 2579 2511 1676 1673 2580 2512 1677 3522 5394 5072 1738 3528 5398 5079 1741 1728 3286 5077 1742 1743 5399 3530 5081 5396 5400 5401  
27 1673 2580 2512 1677 1674 2581 2513 1678 3528 5398 5079 1741 3534 5402 5086 1744 1731 3300 5084 1745 1746 5403 3536 5088 5400 5404 5405  
27 1674 2581 2513 1678 203 1881 1864 202 3534 5402 5086 1744 1999 2184 2152 208 1733 3314 5091 1747 1748 5406 3540 5093 5404 2185 5407  
27 101 329 301 102 1572 2614 2502 1576 444 625 605 107 3570 5408 5201 1636 1623 3323 5199 1637 1638 5409 3572 5203 626 5410 5411  
27 1572 2614 2502 1576 1573 2615 2503 1577 3570 5408 5201 1636 3576 5412 5208 1639 1626 3337 5206 1640 1641 5413 3578 5210 5410 5414 5415  
27 1573 2615 2503 1577 1574 2616 2504 1578 3576 5412 5208 1639 3582 5416 5215 1642 1629 3351 5213 1643 1644 5417 3584 5217 5414 5418 5419  
27 1574 2616 2504 1578 1575 2617 2505 1579 3582 5416 5215 1642 3588 5420 5222 1645 1632 3365 5220 1646 1647 5421 3590 5224 5418 5422 5423  
27 1575 2617 2505 1579 192 1890 1862 191 3588 5420 5222 1645 2005 2186 2166 197 1634 3379 5227 1648 1649 5424 3594 5229 5422 2187 5425  
27 79 316 302 80 1770 2562 2506 1774 441 627 594 85 3543 5426 5097 1834 1821 3388 5095 1835 1836 5427 3545 5099 628 5428 5429  
27 1770 2562 2506 1774 1771 2563 2507 1775 3543 5426 5097 1834 3549 5430 5104 1837 1824 3402 5102 1838 1839 5431 3551 5106 5428 5432 5433  
27 1771 2563 2507 1775 1772 2564 2508 1776 3549 5430 5104 1837 3555 5434 5111 1840 1827 3416 5109 1841 1842 5435 3557 5113 5432 5436 5437  
27 1772 2564 2508 1776 1773 2565 2509 1777 3555 5434 5111 1840 3561 5438 5118 1843 1830 3430 5116 1844 1845 5439 3563 5120 5436 5440 5441  
27 1773 2565 2509 1777 214 1877 1863 213 3561 5438 5118 1843 2002 2188 2155 219 1832 3444 5123 1846 1847 5442 3567 5125 5440 2189 5443  
27 112 324 300 113 1473 2594 2498 1477 447 629 588 118 3597 5444 5033 1537 1524 3453 5031 1538 1539 5445 3599 5035 630 5446 5447  
27 1473 2594 2498 1477 1474 2595 2499 1478 3597 5444 5033 1537 3603 5448 5040 1540 1527 3467 5038 1541 1542 5449 3605 5042 5446 5450 5451  
27 1474 2595 2499 1478 1475 2596 2500 1479 3603 5448 5040 1540 3609 5452 5047 1543 1530 3481 5045 1544 1545 5453 3611 5049 5450 5454 5455  
27 1475 2596 2500 1479 1476 2597 2501 1480 3609 5452 5047 1543 3615 5456 5054 1546 1533 3495 5052 1547 1548 5457 3617 5056 5454 5458 5459  
27 1476 2597 2501 1480 181 1885 1861 180 3615 5456 5054 1546 2008 2190 2149 186 1535 3509 5059 1549 1550 5460 3621 5061 5458 2191 5461  
27 303 321 322 345 2510 2582 2586 2678 631 632 607 590 5463 5464 5232 5064 5063 5462 5231 4881 5066 5466 5465 5234 633 5467 5468  
27 2510 2582 2586 2678 2511 2583 2587 2679 5463 5464 5232 5064 5470 5471 5239 5071 5070 5469 5238 4890 5073 5473 5472 5241 5467 5474 5475  
27 2511 2583 2587 2679 2512 2584 2588 2680 5470 5471 5239 5071 5477 5478 5246 5078 5077 5476 5245 4899 5080 5480 5479 5248 5474 5481 5482  
27 2512 2584 2588 2680 2513 2585 2589 2681 5477 5478 5246 5078 5484 5485 5253 5085 5084 5483 5252 4908 5087 5487 5486 5255 5481 5488 5489  
27 2513 2585 2589 2681 1864 1882 1883 1906 5484 5485 5253 5085 2192 2193 2168 2151 5091 5490 5259 4917 5092 5492 5491 5260 5488 2194 5493  
27 302 317 318 346 2506 2566 2570 2682 634 635 610 593 5495 5496 5264 5096 5095 5494 5263 4949 5098 5498 5497 5266 636 5499 5500  
27 2506 2566 2570 2682 2507 2567 2571 2683 5495 5496 5264 5096 5502 5503 5271 5103 5102 5501 5270 4958 5105 5505 5504 5273 5499 5506 5507  
27 2507 2567 2571 2683 2508 2568 2572 2684 5502 5503 5271 5103 5509 5510 5278 5110 5109 5508 5277 4967 5112 5512 5511 5280 5506 5513 5514  
27 2508 2568 2572 2684 2509 2569 2573 2685 5509 5510 5278 5110 5516 5517 5285 5117 5116 5515 5284 4976 5119 5519 5518 5287 5513 5520 5521  
27 2509 2569 2573 2685 1863 1878 1879 1907 5516 5517 5285 5117 2195 2196 2171 2154 5123 5522 5291 4985 5124 5524 5523 5292 5520 2197 5525  
27 300 325 326 347 2498 2598 2602 2686 637 638 613 587 5527 5528 5296 5032 5031 5526 5295 4990 5034 5530 5529 5298 639 5531 5532  
27 2498 2598 2602 2686 2499 2599 2603 2687 5527 5528 5296 5032 5534 5535 5303 5039 5038 5533 5302 4999 5041 5537 5536 5305 5531 5538 5539  
27 2499 2599 2603 2687 2500 2600 2604 2688 5534 5535 5303 5039 5541 5542 5310 5046 5045 5540 5309 5008 5048 5544 5543 5312 5538 5545 5546  
27 2500 2600 2604 2688 2501 2601 2605 2689 5541 5542 5310 5046 5548 5549 5317 5053 5052 5547 5316 5017 5055 5551 5550 5319 5545 5552 5553  
27 2501 2601 2605 2689 1861 1886 1887 1908 5548 5549 5317 5053 2198 2199 2174 2148 5059 5554 5323 5026 5060 5556 5555 5324 5552 2200 5557  
27 344 335 363 313 2674 2638 2750 2550 570 640 641 385 4837 5560 5559 2837 2832 4836 5558 2833 2841 5562 4840 5561 642 5563 5564  
27 2674 2638 2750 2550 2675 2639 2751 2551 4837 5560 5559 2837 4847 5567 5566 2851 2846 4846 5565 2847 2855 5569 4850 5568 5563 5570 5571  
27 2675 2639 2751 2551 2676 2640 2752 2552 4847 5567 5566 2851 4857 5574 5573 2865 2860 4856 5572 2861 2869 5576 4860 5575 5570 5577 5578  
27 2676 2640 2752 2552 2677 2641 2753 2553 4857 5574 5573 2865 4867 5581 5580 2879 2874 4866 5579 2875 2883 5583 4870 5582 5577 5584 5585  
27 2677 2641 2753 2553 1905 1896 1924 1874 4867 5581 5580 2879 2131 2201 2202 1946 2888 4876 5586 2889 2893 5588 4877 5587 5584 2203 5589  
27 321 303 320 364 2582 2510 2578 2754 631 623 420 643 5463 5390 3262 5590 5462 5063 3258 3257 5591 5391 5465 3266 644 5592 5593  
27 2582 2510 2578 2754 2583 2511 2579 2755 5463 5390 3262 5590 5470 5394 3276 5594 5469 5070 3272 3271 5595 5395 5472 3280 5592 5596 5597  
27 2583 2511 2579 2755 2584 2512 2580 2756 5470 5394 3276 5594 5477 5398 3290 5598 5476 5077 3286 3285 5599 5399 5479 3294 5596 5600 5601  
27 2584 2512 2580 2756 2585 2513 2581 2757 5477 5398 3290 5598 5484 5402 3304 5602 5483 5084 3300 3299 5603 5403 5486 3308 5600 5604 5605  
27 2585 2513 2581 2757 1882 1864 1881 1925 5484 5402 3304 5602 2192 2184 1981 2204 5490 5091 3314 3313 5606 5406 5491 3318 5604 2205 5607  
27 357 301 329 365 2726 2502 2614 2758 646 625 425 645 5609 5408 3327 5608 3764 5199 3323 3322 5610 5409 5611 3331 647 5612 5613  
27 2726 2502 2614 2758 2727 2503 2615 2759 5609 5408 3327 5608 5615 5412 3341 5614 3771 5206 3337 3336 5616 5413 5617 3345 5612 5618 5619  
27 2727 2503 2615 2759 2728 2504 2616 2760 5615 5412 3341 5614 5621 5416 3355 5620 3778 5213 3351 3350 5622 5417 5623 3359 5618 5624 5625  
27 2728 2504 2616 2760 2729 2505 2617 2761 5621 5416 3355 5620 5627 5420 3369 5626 3785 5220 3365 3364 5628 5421 5629 3373 5624 5630 5631  
27 2729 2505 2617 2761 1918 1862 1890 1926 5627 5420 3369 5626 2207 2186 1986 2206 3792 5227 3379 3378 5632 5424 5633 3383 5630 2208 5634  
27 317 302 316 366 2566 2506 2562 2762 634 627 430 648 5495 5426 3392 5635 5494 5095 3388 3387 5636 5427 5497 3396 649 5637 5638  
27 2566 2506 2562 2762 2567 2507 2563 2763 5495 5426 3392 5635 5502 5430 3406 5639 5501 5102 3402 3401 5640 5431 5504 3410 5637 5641 5642  
27 2567 2507 2563 2763 2568 2508 2564 2764 5502 5430 3406 5639 5509 5434 3420 5643 5508 5109 3416 3415 5644 5435 5511 3424 5641 5645 5646  
27 2568 2508 2564 2764 2569 2509 2565 2765 5509 5434 3420 5643 5516 5438 3434 5647 5515 5116 3430 3429 5648 5439 5518 3438 5645 5649 5650  
27 2569 2509 2565 2765 1878 1863 1877 1927 5516 5438 3434 5647 2195 2188 1991 2209 5522 5123 3444 3443 5651 5442 5523 3448 5649 2210 5652  
27 325 300 324 367 2598 2498 2594 2766 637 629 435 650 5527 5444 3457 5653 5526 5031 3453 3452 5654 5445 5529 3461 651 5655 5656  
27 2598 2498 2594 2766 2599 2499 2595 2767 5527 5444 3457 5653 5534 5448 3471 5657 5533 5038 3467 3466 5658 5449 5536 3475 5655 5659 5660  
27 2599 2499 2595 2767 2600 2500 2596 2768 5534 5448 3471 5657 5541 5452 3485 5661 5540 5045 3481 3480 5662 5453 5543 3489 5659 5663 5664  
27 2600 2500 2596 2768 2601 2501 2597 2769 5541 5452 3485 5661 5548 5456 3499 5665 5547 5052 3495 3494 5666 5457 5550 3503 5663 5667 5668  
27 2601 2501 2597 2769 1886 1861 1885 1928 5548 5456 3499 5665 2198 2190 1996 2211 5554 5059 3509 3508 5669 5460 5555 3513 5667 2212 5670  
27 363 19 20 313 2750 933 937 2550 652 27 408 641 5671 1006 3136 5559 5558 991 1005 2833 5561 1007 5672 3138 653 5673 5674  
27 2750 933 937 2550 2751 934 938 2551 5671 1006 3136 5559 5675 1009 3142 5566 5565 994 1008 2847 5568 1010 5676 3144 5673 5677 5678  
27 2751 934 938 2551 2752 935 939 2552 5675 1009 3142 5566 5679 1012 3148 5573 5572 997 1011 2861 5575 1013 5680 3150 5677 5681 5682  
27 2752 935 939 2552 2753 936 940 2553 5679 1012 3148 5573 5683 1015 3154 5580 5579 1000 1014 2875 5582 1016 5684 3156 5681 5685 5686  
27 2753 936 940 2553 1924 123 124 1874 5683 1015 3154 5580 2213 131 1969 2202 5586 1003 1017 2889 5587 1018 5687 3160 5685 2214 5688  
27 357 381 343 301 2726 2822 2670 2502 464 462 616 646 3765 3708 5327 5609 3764 3704 3706 5199 5611 3712 3767 5329 654 5689 5690  
27 2726 2822 2670 2502 2727 2823 2671 2503 3765 3708 5327 5609 3772 3721 5333 5615 3771 3717 3719 5206 5617 3725 3774 5335 5689 5691 5692  
27 2727 2823 2671 2503 2728 2824 2672 2504 3772 3721 5333 5615 3779 3734 5339 5621 3778 3730 3732 5213 5623 3738 3781 5341 5691 5693 5694  
27 2728 2824 2672 2504 2729 2825 2673 2505 3779 3734 5339 5621 3786 3747 5345 5627 3785 3743 3745 5220 5629 3751 3788 5347 5693 5695 5696  
27 2729 2825 2673 2505 1918 1942 1904 1862 3786 3747 5345 5627 2025 2023 2177 2207 3792 3756 3758 5227 5633 3760 3793 5351 5695 2215 5697  
27 325 367 355 378 2598 2766 2718 2810 650 656 481 655 5653 5699 3927 5698 5526 3452 3924 3925 5700 5701 5654 3930 657 5702 5703  
27 2598 2766 2718 2810 2599 2767 2719 2811 5653 5699 3927 5698 5657 5705 3937 5704 5533 3466 3934 3935 5706 5707 5658 3940 5702 5708 5709  
27 2599 2767 2719 2811 2600 2768 2720 2812 5657 5705 3937 5704 5661 5711 3947 5710 5540 3480 3944 3945 5712 5713 5662 3950 5708 5714 5715  
27 2600 2768 2720 2812 2601 2769 2721 2813 5661 5711 3947 5710 5665 5717 3957 5716 5547 3494 3954 3955 5718 5719 5666 3960 5714 5720 5721  
27 2601 2769 2721 2813 1886 1928 1916 1939 5665 5717 3957 5716 2211 2217 2042 2216 5554 3508 3964 3965 5722 5723 5669 3967 5720 2218 5724  
27 321 364 358 380 2582 2754 2730 2818 643 659 489 658 5590 5726 4019 5725 5462 3257 4016 4017 5727 5728 5591 4022 660 5729 5730  
27 2582 2754 2730 2818 2583 2755 2731 2819 5590 5726 4019 5725 5594 5732 4029 5731 5469 3271 4026 4027 5733 5734 5595 4032 5729 5735 5736  
27 2583 2755 2731 2819 2584 2756 2732 2820 5594 5732 4029 5731 5598 5738 4039 5737 5476 3285 4036 4037 5739 5740 5599 4042 5735 5741 5742  
27 2584 2756 2732 2820 2585 2757 2733 2821 5598 5738 4039 5737 5602 5744 4049 5743 5483 3299 4046 4047 5745 5746 5603 4052 5741 5747 5748  
27 2585 2757 2733 2821 1882 1925 1919 1941 5602 5744 4049 5743 2204 2220 2050 2219 5490 3313 4056 4057 5749 5750 5606 4059 5747 2221 5751  
27 317 366 356 379 2566 2762 2722 2814 648 662 485 661 5635 5753 3973 5752 5494 3387 3970 3971 5754 5755 5636 3976 663 5756 5757  
27 2566 2762 2722 2814 2567 2763 2723 2815 5635 5753 3973 5752 5639 5759 3983 5758 5501 3401 3980 3981 5760 5761 5640 3986 5756 5762 5763  
27 2567 2763 2723 2815 2568 2764 2724 2816 5639 5759 3983 5758 5643 5765 3993 5764 5508 3415 3990 3991 5766 5767 5644 3996 5762 5768 5769  
27 2568 2764 2724 2816 2569 2765 2725 2817 5643 5765 3993 5764 5647 5771 4003 5770 5515 3429 4000 4001 5772 5773 5648 4006 5768 5774 5775  
27 2569 2765 2725 2817 1878 1927 1917 1940 5647 5771 4003 5770 2209 2223 2046 2222 5522 3443 4010 4011 5776 5777 5651 4013 5774 2224 5778  
27 349 326 368 34 2694 2602 2770 1068 614 664 665 450 5297 5781 5780 3623 2895 5295 5779 1126 3625 5783 5299 5782 666 5784 5785  
27 2694 2602 2770 1068 2695 2603 2771 1069 5297 5781 5780 3623 5304 5788 5787 3629 2909 5302 5786 1129 3631 5790 5306 5789 5784 5791 5792  
27 2695 2603 2771 1069 2696 2604 2772 1070 5304 5788 5787 3629 5311 5795 5794 3635 2923 5309 5793 1132 3637 5797 5313 5796 5791 5798 5799  
27 2696 2604 2772 1070 2697 2605 2773 1071 5311 5795 5794 3635 5318 5802 5801 3641 2937 5316 5800 1135 3643 5804 5320 5803 5798 5805 5806  
27 2697 2605 2773 1071 1910 1887 1929 138 5318 5802 5801 3641 2175 2225 2226 2011 2951 5323 5807 1138 3647 5809 5325 5808 5805 2227 5810  
27 350 318 369 49 2698 2570 2774 1203 611 667 668 453 5265 5813 5812 3650 2960 5263 5811 1261 3652 5815 5267 5814 669 5816 5817  
27 2698 2570 2774 1203 2699 2571 2775 1204 5265 5813 5812 3650 5272 5820 5819 3656 2974 5270 5818 1264 3658 5822 5274 5821 5816 5823 5824  
27 2699 2571 2775 1204 2700 2572 2776 1205 5272 5820 5819 3656 5279 5827 5826 3662 2988 5277 5825 1267 3664 5829 5281 5828 5823 5830 5831  
27 2700 2572 2776 1205 2701 2573 2777 1206 5279 5827 5826 3662 5286 5834 5833 3668 3002 5284 5832 1270 3670 5836 5288 5835 5830 5837 5838  
27 2701 2573 2777 1206 1911 1879 1930 153 5286 5834 5833 3668 2172 2228 2229 2014 3016 5291 5839 1273 3674 5841 5293 5840 5837 2230 5842  
27 348 322 370 64 2690 2586 2778 1338 608 670 671 456 5233 5845 5844 3677 3025 5231 5843 1396 3679 5847 5235 5846 672 5848 5849  
27 2690 2586 2778 1338 2691 2587 2779 1339 5233 5845 5844 3677 5240 5852 5851 3683 3039 5238 5850 1399 3685 5854 5242 5853 5848 5855 5856  
27 2691 2587 2779 1339 2692 2588 2780 1340 5240 5852 5851 3683 5247 5859 5858 3689 3053 5245 5857 1402 3691 5861 5249 5860 5855 5862 5863  
27 2692 2588 2780 1340 2693 2589 2781 1341 5247 5859 5858 3689 5254 5866 5865 3695 3067 5252 5864 1405 3697 5868 5256 5867 5862 5869 5870  
27 2693 2589 2781 1341 1909 1883 1931 168 5254 5866 5865 3695 2169 2231 2232 2017 3081 5259 5871 1408 3701 5873 5261 5872 5869 2233 5874  
27 353 377 315 339 2710 2806 2558 2654 510 548 415 504 4270 4650 3213 4175 4173 2897 3210 3209 4179 4651 4273 3216 673 5875 5876  
27 2710 2806 2558 2654 2711 2807 2559 2655 4270 4650 3213 4175 4279 4654 3223 4187 4185 2911 3220 3219 4191 4655 4282 3226 5875 5877 5878  
27 2711 2807 2559 2655 2712 2808 2560 2656 4279 4654 3223 4187 4288 4658 3233 4199 4197 2925 3230 3229 4203 4659 4291 3236 5877 5879 5880  
27 2712 2808 2560 2656 2713 2809 2561 2657 4288 4658 3233 4199 4297 4662 3243 4211 4209 2939 3240 3239 4215 4663 4300 3246 5879 5881 5882  
27 2713 2809 2561 2657 1914 1938 1876 1900 4297 4662 3243 4211 2071 2109 1976 2065 4221 2953 3250 3249 4223 4666 4306 3253 5881 2234 5883  
27 352 376 312 336 2706 2802 2546 2642 514 550 404 499 4311 4668 3094 4120 4118 3027 3091 3090 4124 4669 4314 3097 674 5884 5885  
27 2706 2802 2546 2642 2707 2803 2547 2643 4311 4668 3094 4120 4320 4672 3104 4132 4130 3041 3101 3100 4136 4673 4323 3107 5884 5886 5887  
27 2707 2803 2547 2643 2708 2804 2548 2644 4320 4672 3104 4132 4329 4676 3114 4144 4142 3055 3111 3110 4148 4677 4332 3117 5886 5888 5889  
27 2708 2804 2548 2644 2709 2805 2549 2645 4329 4676 3114 4144 4338 4680 3124 4156 4154 3069 3121 3120 4160 4681 4341 3127 5888 5890 5891  
27 2709 2805 2549 2645 1913 1937 1873 1897 4338 4680 3124 4156 2075 2111 1965 2060 4166 3083 3131 3130 4168 4684 4347 3134 5890 2235 5892  
27 354 375 314 338 2714 2798 2554 2650 518 546 411 494 4352 4632 3167 4065 4063 2962 3164 3163 4069 4633 4355 3170 675 5893 5894  
27 2714 2798 2554 2650 2715 2799 2555 2651 4352 4632 3167 4065 4361 4636 3177 4077 4075 2976 3174 3173 4081 4637 4364 3180 5893 5895 5896  
27 2715 2799 2555 2651 2716 2800 2556 2652 4361 4636 3177 4077 4370 4640 3187 4089 4087 2990 3184 3183 4093 4641 4373 3190 5895 5897 5898  
27 2716 2800 2556 2652 2717 2801 2557 2653 4370 4640 3187 4089 4379 4644 3197 4101 4099 3004 3194 3193 4105 4645 4382 3200 5897 5899 5900  
27 2717 2801 2557 2653 1915 1936 1875 1899 4379 4644 3197 4101 2079 2107 1972 2055 4111 3018 3204 3203 4113 4648 4388 3207 5899 2236 5901  
27 355 367 311 32 2718 2766 2542 1060 656 676 525 479 5699 5902 4424 3926 3924 3452 4423 1098 3929 5903 5701 4426 677 5904 5905  
27 2718 2766 2542 1060 2719 2767 2543 1061 5699 5902 4424 3926 5705 5906 4431 3936 3934 3466 4430 1101 3939 5907 5707 4433 5904 5908 5909  
27 2719 2767 2543 1061 2720 2768 2544 1062 5705 5906 4431 3936 5711 5910 4438 3946 3944 3480 4437 1104 3949 5911 5713 4440 5908 5912 5913  
27 2720 2768 2544 1062 2721 2769 2545 1063 5711 5910 4438 3946 5717 5914 4445 3956 3954 3494 4444 1107 3959 5915 5719 4447 5912 5916 5917  
27 2721 2769 2545 1063 1916 1928 1872 136 5717 5914 4445 3956 2217 2237 2086 2040 3964 3508 4451 1110 3966 5918 5723 4452 5916 2238 5919  
27 356 366 310 47 2722 2762 2538 1195 662 678 531 483 5753 5920 4488 3972 3970 3387 4487 1233 3975 5921 5755 4490 679 5922 5923  
27 2722 2762 2538 1195 2723 2763 2539 1196 5753 5920 4488 3972 5759 5924 4495 3982 3980 3401 4494 1236 3985 5925 5761 4497 5922 5926 5927  
27 2723 2763 2539 1196 2724 2764 2540 1197 5759 5924 4495 3982 5765 5928 4502 3992 3990 3415 4501 1239 3995 5929 5767 4504 5926 5930 5931  
27 2724 2764 2540 1197 2725 2765 2541 1198 5765 5928 4502 3992 5771 5932 4509 4002 4000 3429 4508 1242 4005 5933 5773 4511 5930 5934 5935  
27 2725 2765 2541 1198 1917 1927 1871 151 5771 5932 4509 4002 2223 2239 2092 2044 4010 3443 4515 1245 4012 5936 5777 4516 5934 2240 5937  
27 357 365 309 17 2726 2758 2534 925 645 680 522 465 5608 5938 4392 3766 3764 3322 4391 963 3768 5939 5610 4394 681 5940 5941  
27 2726 2758 2534 925 2727 2759 2535 926 5608 5938 4392 3766 5614 5942 4399 3773 3771 3336 4398 966 3775 5943 5616 4401 5940 5944 5945  
27 2727 2759 2535 926 2728 2760 2536 927 5614 5942 4399 3773 5620 5946 4406 3780 3778 3350 4405 969 3782 5947 5622 4408 5944 5948 5949  
27 2728 2760 2536 927 2729 2761 2537 928 5620 5946 4406 3780 5626 5950 4413 3787 3785 3364 4412 972 3789 5951 5628 4415 5948 5952 5953  
27 2729 2761 2537 928 1918 1926 1870 121 5626 5950 4413 3787 2206 2241 2083 2026 3792 3378 4419 975 3794 5954 5632 4420 5952 2242 5955  
27 358 364 308 62 2730 2754 2530 1330 659 682 528 487 5726 5956 4456 4018 4016 3257 4455 1368 4021 5957 5728 4458 683 5958 5959  
27 2730 2754 2530 1330 2731 2755 2531 1331 5726 5956 4456 4018 5732 5960 4463 4028 4026 3271 4462 1371 4031 5961 5734 4465 5958 5962 5963  
27 2731 2755 2531 1331 2732 2756 2532 1332 5732 5960 4463 4028 5738 5964 4470 4038 4036 3285 4469 1374 4041 5965 5740 4472 5962 5966 5967  
27 2732 2756 2532 1332 2733 2757 2533 1333 5738 5964 4470 4038 5744 5968 4477 4048 4046 3299 4476 1377 4051 5969 5746 4479 5966 5970 5971  
27 2733 2757 2533 1333 1919 1925 1869 166 5744 5968 4477 4048 2220 2243 2089 2048 4056 3313 4483 1380 4058 5972 5750 4484 5970 2244 5973  
27 335 343 382 363 2638 2670 2826 2750 617 461 684 640 5328 3710 5974 5560 4836 3706 3705 5558 5562 3714 5330 5975 685 5976 5977  
27 2638 2670 2826 2750 2639 2671 2827 2751 5328 3710 5974 5560 5334 3723 5978 5567 4846 3719 3718 5565 5569 3727 5336 5979 5976 5980 5981  
27 2639 2671 2827 2751 2640 2672 2828 2752 5334 3723 5978 5567 5340 3736 5982 5574 4856 3732 3731 5572 5576 3740 5342 5983 5980 5984 5985  
27 2640 2672 2828 2752 2641 2673 2829 2753 5340 3736 5982 5574 5346 3749 5986 5581 4866 3745 3744 5579 5583 3753 5348 5987 5984 5988 5989  
27 2641 2673 2829 2753 1896 1904 1943 1924 5346 3749 5986 5581 2178 2022 2245 2201 4876 3758 3757 5586 5588 3762 5352 5990 5988 2246 5991  
27 19 363 382 18 933 2750 2826 929 652 684 460 26 5671 5974 3709 992 991 5558 3705 977 993 5975 5672 3713 686 5992 5993  
27 933 2750 2826 929 934 2751 2827 930 5671 5974 3709 992 5675 5978 3722 995 994 5565 3718 980 996 5979 5676 3726 5992 5994 5995  
27 934 2751 2827 930 935 2752 2828 931 5675 5978 3722 995 5679 5982 3735 998 997 5572 3731 983 999 5983 5680 3739 5994 5996 5997  
27 935 2752 2828 931 936 2753 2829 932 5679 5982 3735 998 5683 5986 3748 1001 1000 5579 3744 986 1002 5987 5684 3752 5996 5998 5999  
27 936 2753 2829 932 123 1924 1943 122 5683 5986 3748 1001 2213 2245 2021 130 1003 5586 3757 989 1004 5990 5687 3761 5998 2247 6000  
27 371 311 367 327 2782 2542 2766 2606 565 676 434 507 4808 5902 3456 4229 4227 4423 3452 3451 4232 5903 4810 3460 687 6001 6002  
27 2782 2542 2766 2606 2783 2543 2767 2607 4808 5902 3456 4229 4814 5906 3470 4238 4236 4430 3466 3465 4241 5907 4816 3474 6001 6003 6004  
27 2783 2543 2767 2607 2784 2544 2768 2608 4814 5906 3470 4238 4820 5910 3484 4247 4245 4437 3480 3479 4250 5911 4822 3488 6003 6005 6006  
27 2784 2544 2768 2608 2785 2545 2769 2609 4820 5910 3484 4247 4826 5914 3498 4256 4254 4444 3494 3493 4259 5915 4828 3502 6005 6007 6008  
27 2785 2545 2769 2609 1932 1872 1928 1888 4826 5914 3498 4256 2126 2237 1995 2068 4263 4451 3508 3507 4265 5918 4832 3512 6007 2248 6009  
27 373 309 365 330 2790 2534 2758 2618 559 680 424 497 4754 5938 3326 4121 4117 4391 3322 3321 4125 5939 4756 3330 688 6010 6011  
27 2790 2534 2758 2618 2791 2535 2759 2619 4754 5938 3326 4121 4760 5942 3340 4133 4129 4398 3336 3335 4137 5943 4762 3344 6010 6012 6013  
27 2791 2535 2759 2619 2792 2536 2760 2620 4760 5942 3340 4133 4766 5946 3354 4145 4141 4405 3350 3349 4149 5947 4768 3358 6012 6014 6015  
27 2792 2536 2760 2620 2793 2537 2761 2621 4766 5946 3354 4145 4772 5950 3368 4157 4153 4412 3364 3363 4161 5951 4774 3372 6014 6016 6017  
27 2793 2537 2761 2621 1934 1870 1926 1891 4772 5950 3368 4157 2120 2241 1985 2058 4165 4419 3378 3377 4169 5954 4778 3382 6016 2249 6018  
27 372 310 366 319 2786 2538 2762 2574 562 678 429 502 4781 5920 3391 4176 4172 4487 3387 3386 4180 5921 4783 3395 689 6019 6020  
27 2786 2538 2762 2574 2787 2539 2763 2575 4781 5920 3391 4176 4787 5924 3405 4188 4184 4494 3401 3400 4192 5925 4789 3409 6019 6021 6022  
27 2787 2539 2763 2575 2788 2540 2764 2576 4787 5924 3405 4188 4793 5928 3419 4200 4196 4501 3415 3414 4204 5929 4795 3423 6021 6023 6024  
27 2788 2540 2764 2576 2789 2541 2765 2577 4793 5928 3419 4200 4799 5932 3433 4212 4208 4508 3429 3428 4216 5933 4801 3437 6023 6025 6026  
27 2789 2541 2765 2577 1933 1871 1927 1880 4799 5932 3433 4212 2123 2239 1990 2063 4220 4515 3443 3442 4224 5936 4805 3447 6025 2250 6027  
27 374 308 364 323 2794 2530 2754 2590 556 682 419 492 4727 5956 3261 4066 4062 4455 3257 3256 4070 5957 4729 3265 690 6028 6029  
27 2794 2530 2754 2590 2795 2531 2755 2591 4727 5956 3261 4066 4733 5960 3275 4078 4074 4462 3271 3270 4082 5961 4735 3279 6028 6030 6031  
27 2795 2531 2755 2591 2796 2532 2756 2592 4733 5960 3275 4078 4739 5964 3289 4090 4086 4469 3285 3284 4094 5965 4741 3293 6030 6032 6033  
27 2796 2532 2756 2592 2797 2533 2757 2593 4739 5964 3289 4090 4745 5968 3303 4102 4098 4476 3299 3298 4106 5969 4747 3307 6032 6034 6035  
27 2797 2533 2757 2593 1935 1869 1925 1884 4745 5968 3303 4102 2117 2243 1980 2053 4110 4483 3313 3312 4114 5972 4751 3317 6034 2251 6036  
27 378 368 326 325 2810 2770 2602 2598 691 664 638 655 6037 5781 5528 5698 3925 5779 5295 5526 5700 5783 6038 5530 692 6039 6040  
27 2810 2770 2602 2598 2811 2771 2603 2599 6037 5781 5528 5698 6041 5788 5535 5704 3935 5786 5302 5533 5706 5790 6042 5537 6039 6043 6044  
27 2811 2771 2603 2599 2812 2772 2604 2600 6041 5788 5535 5704 6045 5795 5542 5710 3945 5793 5309 5540 5712 5797 6046 5544 6043 6047 6048  
27 2812 2772 2604 2600 2813 2773 2605 2601 6045 5795 5542 5710 6049 5802 5549 5716 3955 5800 5316 5547 5718 5804 6050 5551 6047 6051 6052  
27 2813 2773 2605 2601 1939 1929 1887 1886 6049 5802 5549 5716 2252 2225 2199 2216 3965 5807 5323 5554 5722 5809 6053 5556 6051 2253 6054  
27 379 369 318 317 2814 2774 2570 2566 693 667 635 661 6055 5813 5496 5752 3971 5811 5263 5494 5754 5815 6056 5498 694 6057 6058  
27 2814 2774 2570 2566 2815 2775 2571 2567 6055 5813 5496 5752 6059 5820 5503 5758 3981 5818 5270 5501 5760 5822 6060 5505 6057 6061 6062  
27 2815 2775 2571 2567 2816 2776 2572 2568 6059 5820 5503 5758 6063 5827 5510 5764 3991 5825 5277 5508 5766 5829 6064 5512 6061 6065 6066  
27 2816 2776 2572 2568 2817 2777 2573 2569 6063 5827 5510 5764 6067 5834 5517 5770 4001 5832 5284 5515 5772 5836 6068 5519 6065 6069 6070  
27 2817 2777 2573 2569 1940 1930 1879 1878 6067 5834 5517 5770 2254 2228 2196 2222 4011 5839 5291 5522 5776 5841 6071 5524 6069 2255 6072  
27 380 370 322 321 2818 2778 2586 2582 695 670 632 658 6073 5845 5464 5725 4017 5843 5231 5462 5727 5847 6074 5466 696 6075 6076  
27 2818 2778 2586 2582 2819 2779 2587 2583 6073 5845 5464 5725 6077 5852 5471 5731 4027 5850 5238 5469 5733 5854 6078 5473 6075 6079 6080  
27 2819 2779 2587 2583 2820 2780 2588 2584 6077 5852 5471 5731 6081 5859 5478 5737 4037 5857 5245 5476 5739 5861 6082 5480 6079 6083 6084  
27 2820 2780 2588 2584 2821 2781 2589 2585 6081 5859 5478 5737 6085 5866 5485 5743 4047 5864 5252 5483 5745 5868 6086 5487 6083 6087 6088  
27 2821 2781 2589 2585 1941 1931 1883 1882 6085 5866 5485 5743 2256 2231 2193 2219 4057 5871 5259 5490 5749 5873 6089 5492 6087 2257 6090  
27 368 378 33 34 2770 2810 1064 1068 691 480 41 665 6037 3928 1127 5780 5779 3925 1112 1126 5782 3931 6038 1128 697 6091 6092  
27 2770 2810 1064 1068 2771 2811 1065 1069 6037 3928 1127 5780 6041 3938 1130 5787 5786 3935 1115 1129 5789 3941 6042 1131 6091 6093 6094  
27 2771 2811 1065 1069 2772 2812 1066 1070 6041 3938 1130 5787 6045 3948 1133 5794 5793 3945 1118 1132 5796 3951 6046 1134 6093 6095 6096  
27 2772 2812 1066 1070 2773 2813 1067 1071 6045 3948 1133 5794 6049 3958 1136 5801 5800 3955 1121 1135 5803 3961 6050 1137 6095 6097 6098  
27 2773 2813 1067 1071 1929 1939 137 138 6049 3958 1136 5801 2252 2041 145 2226 5807 3965 1124 1138 5808 3968 6053 1139 6097 2258 6099  
27 369 379 48 49 2774 2814 1199 1203 693 484 56 668 6055 3974 1262 5812 5811 3971 1247 1261 5814 3977 6056 1263 698 6100 6101  
27 2774 2814 1199 1203 2775 2815 1200 1204 6055 3974 1262 5812 6059 3984 1265 5819 5818 3981 1250 1264 5821 3987 6060 1266 6100 6102 6103  
27 2775 2815 1200 1204 2776 2816 1201 1205 6059 3984 1265 5819 6063 3994 1268 5826 5825 3991 1253 1267 5828 3997 6064 1269 6102 6104 6105  
27 2776 2816 1201 1205 2777 2817 1202 1206 6063 3994 1268 5826 6067 4004 1271 5833 5832 4001 1256 1270 5835 4007 6068 1272 6104 6106 6107  
27 2777 2817 1202 1206 1930 1940 152 153 6067 4004 1271 5833 2254 2045 160 2229 5839 4011 1259 1273 5840 4014 6071 1274 6106 2259 6108  
27 370 380 63 64 2778 2818 1334 1338 695 488 71 671 6073 4020 1397 5844 5843 4017 1382 1396 5846 4023 6074 1398 699 6109 6110  
27 2778 2818 1334 1338 2779 2819 1335 1339 6073 4020 1397 5844 6077 4030 1400 5851 5850 4027 1385 1399 5853 4033 6078 1401 6109 6111 6112  
27 2779 2819 1335 1339 2780 2820 1336 1340 6077 4030 1400 5851 6081 4040 1403 5858 5857 4037 1388 1402 5860 4043 6082 1404 6111 6113 6114  
27 2780 2820 1336 1340 2781 2821 1337 1341 6081 4040 1403 5858 6085 4050 1406 5865 5864 4047 1391 1405 5867 4053 6086 1407 6113 6115 6116  
27 2781 2821 1337 1341 1931 1941 167 168 6085 4050 1406 5865 2256 2049 175 2232 5871 4057 1394 1408 5872 4060 6089 1409 6115 2260 6117  
27 705 728 719 729 6138 6230 6194 6234 751 752 753 750 6324 6325 6323 6322 6319 6320 6321 6318 6326 6329 6328 6327 754 6330 6331  
27 6138 6230 6194 6234 6139 6231 6195 6235 6324 6325 6323 6322 6338 6339 6337 6336 6333 6334 6335 6332 6340 6343 6342 6341 6330 6344 6345  
27 6139 6231 6195 6235 6140 6232 6196 6236 6338 6339 6337 6336 6352 6353 6351 6350 6347 6348 6349 6346 6354 6357 6356 6355 6344 6358 6359  
27 6140 6232 6196 6236 6141 6233 6197 6237 6352 6353 6351 6350 6366 6367 6365 6364 6361 6362 6363 6360 6368 6371 6370 6369 6358 6372 6373  
27 6141 6233 6197 6237 2266 2289 2280 2290 6366 6367 6365 6364 2312 2313 2314 2311 6375 6376 6377 6374 6378 6381 6380 6379 6372 2315 6382  
27 109 705 729 7 1461 6138 6234 269 755 750 756 114 6384 6322 6383 1481 1482 6319 6318 273 1483 6326 6386 6385 757 6387 6388  
27 1461 6138 6234 269 1462 6139 6235 270 6384 6322 6383 1481 6390 6336 6389 1484 1485 6333 6332 274 1486 6340 6392 6391 6387 6393 6394  
27 1462 6139 6235 270 1463 6140 6236 271 6390 6336 6389 1484 6396 6350 6395 1487 1488 6347 6346 275 1489 6354 6398 6397 6393 6399 6400  
27 1463 6140 6236 271 1464 6141 6237 272 6396 6350 6395 1487 6402 6364 6401 1490 1491 6361 6360 276 1492 6368 6404 6403 6399 6405 6406  
27 1464 6141 6237 272 184 2266 2290 13 6402 6364 6401 1490 2316 2311 2317 190 1493 6375 6374 277 1494 6378 6408 6407 6405 2318 6409  
27 704 736 722 737 6134 6262 6206 6266 759 760 761 758 6416 6417 6415 6414 6411 6412 6413 6410 6418 6421 6420 6419 762 6422 6423  
27 6134 6262 6206 6266 6135 6263 6207 6267 6416 6417 6415 6414 6430 6431 6429 6428 6425 6426 6427 6424 6432 6435 6434 6433 6422 6436 6437  
27 6135 6263 6207 6267 6136 6264 6208 6268 6430 6431 6429 6428 6444 6445 6443 6442 6439 6440 6441 6438 6446 6449 6448 6447 6436 6450 6451  
27 6136 6264 6208 6268 6137 6265 6209 6269 6444 6445 6443 6442 6458 6459 6457 6456 6453 6454 6455 6452 6460 6463 6462 6461 6450 6464 6465  
27 6137 6265 6209 6269 2265 2297 2283 2298 6458 6459 6457 6456 2320 2321 2322 2319 6467 6468 6469 6466 6470 6473 6472 6471 6464 2323 6474  
27 723 726 734 702 6210 6222 6254 6126 764 765 766 763 6481 6482 6480 6479 6476 6477 6478 6475 6483 6486 6485 6484 767 6487 6488  
27 6210 6222 6254 6126 6211 6223 6255 6127 6481 6482 6480 6479 6495 6496 6494 6493 6490 6491 6492 6489 6497 6500 6499 6498 6487 6501 6502  
27 6211 6223 6255 6127 6212 6224 6256 6128 6495 6496 6494 6493 6509 6510 6508 6507 6504 6505 6506 6503 6511 6514 6513 6512 6501 6515 6516  
27 6212 6224 6256 6128 6213 6225 6257 6129 6509 6510 6508 6507 6523 6524 6522 6521 6518 6519 6520 6517 6525 6528 6527 6526 6515 6529 6530  
27 6213 6225 6257 6129 2284 2287 2295 2263 6523 6524 6522 6521 2325 2326 2327 2324 6532 6533 6534 6531 6535 6538 6537 6536 6529 2328 6539  
27 101 703 735 100 1572 6130 6258 1568 768 769 770 106 6543 6544 6542 1622 1623 6540 6541 1609 1624 6547 6546 6545 771 6548 6549  
27 1572 6130 6258 1568 1573 6131 6259 1569 6543 6544 6542 1622 6553 6554 6552 1625 1626 6550 6551 1612 1627 6557 6556 6555 6548 6558 6559  
27 1573 6131 6259 1569 1574 6132 6260 1570 6553 6554 6552 1625 6563 6564 6562 1628 1629 6560 6561 1615 1630 6567 6566 6565 6558 6568 6569  
27 1574 6132 6260 1570 1575 6133 6261 1571 6563 6564 6562 1628 6573 6574 6572 1631 1632 6570 6571 1618 1633 6577 6576 6575 6568 6578 6579  
27 1575 6133 6261 1571 192 2264 2296 193 6573 6574 6572 1631 2329 2330 2331 198 1634 6580 6581 1620 1635 6584 6583 6582 6578 2332 6585  
27 730 111 112 700 6238 1469 1473 6118 773 117 774 772 6590 1523 6589 6588 6587 1510 1524 6586 6591 1525 6593 6592 775 6594 6595  
27 6238 1469 1473 6118 6239 1470 1474 6119 6590 1523 6589 6588 6600 1526 6599 6598 6597 1513 1527 6596 6601 1528 6603 6602 6594 6604 6605  
27 6239 1470 1474 6119 6240 1471 1475 6120 6600 1526 6599 6598 6610 1529 6609 6608 6607 1516 1530 6606 6611 1531 6613 6612 6604 6614 6615  
27 6240 1471 1475 6120 6241 1472 1476 6121 6610 1529 6609 6608 6620 1532 6619 6618 6617 1519 1533 6616 6621 1534 6623 6622 6614 6624 6625  
27 6241 1472 1476 6121 2291 182 181 2261 6620 1532 6619 6618 2334 187 2335 2333 6627 1521 1535 6626 6628 1536 6630 6629 6624 2336 6631  
27 87 704 737 6 1659 6134 6266 287 776 758 777 92 6633 6414 6632 1679 1680 6411 6410 291 1681 6418 6635 6634 778 6636 6637  
27 1659 6134 6266 287 1660 6135 6267 288 6633 6414 6632 1679 6639 6428 6638 1682 1683 6425 6424 292 1684 6432 6641 6640 6636 6642 6643  
27 1660 6135 6267 288 1661 6136 6268 289 6639 6428 6638 1682 6645 6442 6644 1685 1686 6439 6438 293 1687 6446 6647 6646 6642 6648 6649  
27 1661 6136 6268 289 1662 6137 6269 290 6645 6442 6644 1685 6651 6456 6650 1688 1689 6453 6452 294 1690 6460 6653 6652 6648 6654 6655  
27 1662 6137 6269 290 206 2265 2298 15 6651 6456 6650 1688 2337 2319 2338 212 1691 6467 6466 295 1692 6470 6657 6656 6654 2339 6658  
27 76 707 733 4 1758 6146 6250 260 779 780 781 81 6662 6663 6661 1778 1779 6659 6660 264 1780 6666 6665 6664 782 6667 6668  
27 1758 6146 6250 260 1759 6147 6251 261 6662 6663 6661 1778 6672 6673 6671 1781 1782 6669 6670 265 1783 6676 6675 6674 6667 6677 6678  
27 1759 6147 6251 261 1760 6148 6252 262 6672 6673 6671 1781 6682 6683 6681 1784 1785 6679 6680 266 1786 6686 6685 6684 6677 6687 6688  
27 1760 6148 6252 262 1761 6149 6253 263 6682 6683 6681 1784 6692 6693 6691 1787 1788 6689 6690 267 1789 6696 6695 6694 6687 6697 6698  
27 1761 6149 6253 263 217 2268 2294 12 6692 6693 6691 1787 2340 2341 2342 223 1790 6699 6700 268 1791 6703 6702 6701 6697 2343 6704  
27 724 723 716 715 6214 6210 6182 6178 784 785 786 783 6710 6711 6709 6708 6706 6476 6707 6705 6712 6715 6714 6713 787 6716 6717  
27 6214 6210 6182 6178 6215 6211 6183 6179 6710 6711 6709 6708 6723 6724 6722 6721 6719 6490 6720 6718 6725 6728 6727 6726 6716 6729 6730  
27 6215 6211 6183 6179 6216 6212 6184 6180 6723 6724 6722 6721 6736 6737 6735 6734 6732 6504 6733 6731 6738 6741 6740 6739 6729 6742 6743  
27 6216 6212 6184 6180 6217 6213 6185 6181 6736 6737 6735 6734 6749 6750 6748 6747 6745 6518 6746 6744 6751 6754 6753 6752 6742 6755 6756  
27 6217 6213 6185 6181 2285 2284 2277 2276 6749 6750 6748 6747 2345 2346 2347 2344 6758 6532 6759 6757 6760 6763 6762 6761 6755 2348 6764  
27 704 87 88 738 6134 1659 1663 6270 776 93 789 788 6633 1693 6767 6766 6411 1680 1694 6765 6768 1695 6635 6769 790 6770 6771  
27 6134 1659 1663 6270 6135 1660 1664 6271 6633 1693 6767 6766 6639 1696 6774 6773 6425 1683 1697 6772 6775 1698 6641 6776 6770 6777 6778  
27 6135 1660 1664 6271 6136 1661 1665 6272 6639 1696 6774 6773 6645 1699 6781 6780 6439 1686 1700 6779 6782 1701 6647 6783 6777 6784 6785  
27 6136 1661 1665 6272 6137 1662 1666 6273 6645 1699 6781 6780 6651 1702 6788 6787 6453 1689 1703 6786 6789 1704 6653 6790 6784 6791 6792  
27 6137 1662 1666 6273 2265 206 205 2299 6651 1702 6788 6787 2337 211 2350 2349 6467 1691 1705 6793 6794 1706 6657 6795 6791 2351 6796  
27 715 714 717 718 6178 6174 6186 6190 792 793 794 791 6802 6803 6801 6800 6705 6798 6799 6797 6804 6807 6806 6805 795 6808 6809  
27 6178 6174 6186 6190 6179 6175 6187 6191 6802 6803 6801 6800 6815 6816 6814 6813 6718 6811 6812 6810 6817 6820 6819 6818 6808 6821 6822  
27 6179 6175 6187 6191 6180 6176 6188 6192 6815 6816 6814 6813 6828 6829 6827 6826 6731 6824 6825 6823 6830 6833 6832 6831 6821 6834 6835  
27 6180 6176 6188 6192 6181 6177 6189 6193 6828 6829 6827 6826 6841 6842 6840 6839 6744 6837 6838 6836 6843 6846 6845 6844 6834 6847 6848  
27 6181 6177 6189 6193 2276 2275 2278 2279 6841 6842 6840 6839 2353 2354 2355 2352 6757 6850 6851 6849 6852 6855 6854 6853 6847 2356 6856  
27 713 714 715 716 6170 6174 6178 6182 797 792 786 796 6859 6802 6709 6858 6857 6798 6705 6707 6860 6806 6861 6713 798 6862 6863  
27 6170 6174 6178 6182 6171 6175 6179 6183 6859 6802 6709 6858 6866 6815 6722 6865 6864 6811 6718 6720 6867 6819 6868 6726 6862 6869 6870  
27 6171 6175 6179 6183 6172 6176 6180 6184 6866 6815 6722 6865 6873 6828 6735 6872 6871 6824 6731 6733 6874 6832 6875 6739 6869 6876 6877  
27 6172 6176 6180 6184 6173 6177 6181 6185 6873 6828 6735 6872 6880 6841 6748 6879 6878 6837 6744 6746 6881 6845 6882 6752 6876 6883 6884  
27 6173 6177 6181 6185 2274 2275 2276 2277 6880 6841 6748 6879 2358 2353 2347 2357 6885 6850 6757 6759 6886 6854 6887 6761 6883 2359 6888  
27 721 712 713 716 6202 6166 6170 6182 800 801 796 799 6892 6893 6858 6891 6889 6890 6857 6707 6894 6896 6895 6860 802 6897 6898  
27 6202 6166 6170 6182 6203 6167 6171 6183 6892 6893 6858 6891 6902 6903 6865 6901 6899 6900 6864 6720 6904 6906 6905 6867 6897 6907 6908  
27 6203 6167 6171 6183 6204 6168 6172 6184 6902 6903 6865 6901 6912 6913 6872 6911 6909 6910 6871 6733 6914 6916 6915 6874 6907 6917 6918  
27 6204 6168 6172 6184 6205 6169 6173 6185 6912 6913 6872 6911 6922 6923 6879 6921 6919 6920 6878 6746 6924 6926 6925 6881 6917 6927 6928  
27 6205 6169 6173 6185 2282 2273 2274 2277 6922 6923 6879 6921 2361 2362 2357 2360 6929 6930 6885 6759 6931 6933 6932 6886 6927 2363 6934  
27 714 713 711 720 6174 6170 6162 6198 797 804 805 803 6859 6939 6938 6937 6798 6857 6936 6935 6940 6942 6861 6941 806 6943 6944  
27 6174 6170 6162 6198 6175 6171 6163 6199 6859 6939 6938 6937 6866 6949 6948 6947 6811 6864 6946 6945 6950 6952 6868 6951 6943 6953 6954  
27 6175 6171 6163 6199 6176 6172 6164 6200 6866 6949 6948 6947 6873 6959 6958 6957 6824 6871 6956 6955 6960 6962 6875 6961 6953 6963 6964  
27 6176 6172 6164 6200 6177 6173 6165 6201 6873 6959 6958 6957 6880 6969 6968 6967 6837 6878 6966 6965 6970 6972 6882 6971 6963 6973 6974  
27 6177 6173 6165 6201 2275 2274 2272 2281 6880 6969 6968 6967 2358 2365 2366 2364 6850 6885 6976 6975 6977 6979 6887 6978 6973 2367 6980  
27 712 710 711 713 6166 6158 6162 6170 807 808 804 801 6982 6983 6939 6893 6890 6981 6936 6857 6896 6985 6984 6942 809 6986 6987  
27 6166 6158 6162 6170 6167 6159 6163 6171 6982 6983 6939 6893 6989 6990 6949 6903 6900 6988 6946 6864 6906 6992 6991 6952 6986 6993 6994  
27 6167 6159 6163 6171 6168 6160 6164 6172 6989 6990 6949 6903 6996 6997 6959 6913 6910 6995 6956 6871 6916 6999 6998 6962 6993 7000 7001  
27 6168 6160 6164 6172 6169 6161 6165 6173 6996 6997 6959 6913 7003 7004 6969 6923 6920 7002 6966 6878 6926 7006 7005 6972 7000 7007 7008  
27 6169 6161 6165 6173 2273 2271 2272 2274 7003 7004 6969 6923 2368 2369 2365 2362 6930 7009 6976 6885 6933 7011 7010 6979 7007 2370 7012  
27 711 710 709 720 6162 6158 6154 6198 808 810 811 805 6983 7015 7014 6938 6936 6981 7013 6935 6941 7017 6985 7016 812 7018 7019  
27 6162 6158 6154 6198 6163 6159 6155 6199 6983 7015 7014 6938 6990 7022 7021 6948 6946 6988 7020 6945 6951 7024 6992 7023 7018 7025 7026  
27 6163 6159 6155 6199 6164 6160 6156 6200 6990 7022 7021 6948 6997 7029 7028 6958 6956 6995 7027 6955 6961 7031 6999 7030 7025 7032 7033  
27 6164 6160 6156 6200 6165 6161 6157 6201 6997 7029 7028 6958 7004 7036 7035 6968 6966 7002 7034 6965 6971 7038 7006 7037 7032 7039 7040  
27 6165 6161 6157 6201 2272 2271 2270 2281 7004 7036 7035 6968 2369 2371 2372 2366 6976 7009 7041 6975 6978 7043 7011 7042 7039 2373 7044  
27 720 709 735 742 6198 6154 6258 6286 811 814 815 813 7014 7048 7047 7046 6935 7013 6541 7045 7049 7051 7016 7050 816 7052 7053  
27 6198 6154 6258 6286 6199 6155 6259 6287 7014 7048 7047 7046 7021 7057 7056 7055 6945 7020 6551 7054 7058 7060 7023 7059 7052 7061 7062  
27 6199 6155 6259 6287 6200 6156 6260 6288 7021 7057 7056 7055 7028 7066 7065 7064 6955 7027 6561 7063 7067 7069 7030 7068 7061 7070 7071  
27 6200 6156 6260 6288 6201 6157 6261 6289 7028 7066 7065 7064 7035 7075 7074 7073 6965 7034 6571 7072 7076 7078 7037 7077 7070 7079 7080  
27 6201 6157 6261 6289 2281 2270 2296 2303 7035 7075 7074 7073 2372 2375 2376 2374 6975 7041 6581 7081 7082 7084 7042 7083 7079 2377 7085  
27 98 706 731 5 1560 6142 6242 278 817 818 819 103 7089 7090 7088 1580 1581 7086 7087 282 1582 7093 7092 7091 820 7094 7095  
27 1560 6142 6242 278 1561 6143 6243 279 7089 7090 7088 1580 7099 7100 7098 1583 1584 7096 7097 283 1585 7103 7102 7101 7094 7104 7105  
27 1561 6143 6243 279 1562 6144 6244 280 7099 7100 7098 1583 7109 7110 7108 1586 1587 7106 7107 284 1588 7113 7112 7111 7104 7114 7115  
27 1562 6144 6244 280 1563 6145 6245 281 7109 7110 7108 1586 7119 7120 7118 1589 1590 7116 7117 285 1591 7123 7122 7121 7114 7124 7125  
27 1563 6145 6245 281 195 2267 2292 14 7119 7120 7118 1589 2378 2379 2380 201 1592 7126 7127 286 1593 7130 7129 7128 7124 2381 7131  
27 719 728 717 714 6194 6230 6186 6174 752 822 793 821 6325 7133 6803 7132 6321 6320 6799 6798 7134 7135 6329 6807 823 7136 7137  
27 6194 6230 6186 6174 6195 6231 6187 6175 6325 7133 6803 7132 6339 7139 6816 7138 6335 6334 6812 6811 7140 7141 6343 6820 7136 7142 7143  
27 6195 6231 6187 6175 6196 6232 6188 6176 6339 7139 6816 7138 6353 7145 6829 7144 6349 6348 6825 6824 7146 7147 6357 6833 7142 7148 7149  
27 6196 6232 6188 6176 6197 6233 6189 6177 6353 7145 6829 7144 6367 7151 6842 7150 6363 6362 6838 6837 7152 7153 6371 6846 7148 7154 7155  
27 6197 6233 6189 6177 2280 2289 2278 2275 6367 7151 6842 7150 2313 2383 2354 2382 6377 6376 6851 6850 7156 7157 6381 6855 7154 2384 7158  
27 722 736 721 716 6206 6262 6202 6182 760 825 799 824 6417 7160 6891 7159 6413 6412 6889 6707 7161 7162 6421 6894 826 7163 7164  
27 6206 6262 6202 6182 6207 6263 6203 6183 6417 7160 6891 7159 6431 7166 6901 7165 6427 6426 6899 6720 7167 7168 6435 6904 7163 7169 7170  
27 6207 6263 6203 6183 6208 6264 6204 6184 6431 7166 6901 7165 6445 7172 6911 7171 6441 6440 6909 6733 7173 7174 6449 6914 7169 7175 7176  
27 6208 6264 6204 6184 6209 6265 6205 6185 6445 7172 6911 7171 6459 7178 6921 7177 6455 6454 6919 6746 7179 7180 6463 6924 7175 7181 7182  
27 6209 6265 6205 6185 2283 2297 2282 2277 6459 7178 6921 7177 2321 2386 2360 2385 6469 6468 6929 6759 7183 7184 6473 6931 7181 2387 7185  
27 724 732 726 723 6214 6246 6222 6210 827 828 764 784 7187 7188 6481 6710 6706 7186 6477 6476 6714 7190 7189 6485 829 7191 7192  
27 6214 6246 6222 6210 6215 6247 6223 6211 7187 7188 6481 6710 7194 7195 6495 6723 6719 7193 6491 6490 6727 7197 7196 6499 7191 7198 7199  
27 6215 6247 6223 6211 6216 6248 6224 6212 7194 7195 6495 6723 7201 7202 6509 6736 6732 7200 6505 6504 6740 7204 7203 6513 7198 7205 7206  
27 6216 6248 6224 6212 6217 6249 6225 6213 7201 7202 6509 6736 7208 7209 6523 6749 6745 7207 6519 6518 6753 7211 7210 6527 7205 7212 7213  
27 6217 6249 6225 6213 2285 2293 2287 2284 7208 7209 6523 6749 2388 2389 2325 2345 6758 7214 6533 6532 6762 7216 7215 6537 7212 2390 7217  
27 79 702 734 78 1770 6126 6254 1766 830 766 831 84 7219 6480 7218 1820 1821 6475 6478 1807 1822 6484 7221 7220 832 7222 7223  
27 1770 6126 6254 1766 1771 6127 6255 1767 7219 6480 7218 1820 7225 6494 7224 1823 1824 6489 6492 1810 1825 6498 7227 7226 7222 7228 7229  
27 1771 6127 6255 1767 1772 6128 6256 1768 7225 6494 7224 1823 7231 6508 7230 1826 1827 6503 6506 1813 1828 6512 7233 7232 7228 7234 7235  
27 1772 6128 6256 1768 1773 6129 6257 1769 7231 6508 7230 1826 7237 6522 7236 1829 1830 6517 6520 1816 1831 6526 7239 7238 7234 7240 7241  
27 1773 6129 6257 1769 214 2263 2295 215 7237 6522 7236 1829 2391 2327 2392 220 1832 6531 6534 1818 1833 6536 7243 7242 7240 2393 7244  
27 727 728 730 700 6226 6230 6238 6118 834 835 772 833 7247 7248 6588 7246 7245 6320 6587 6586 7249 7251 7250 6591 836 7252 7253  
27 6226 6230 6238 6118 6227 6231 6239 6119 7247 7248 6588 7246 7256 7257 6598 7255 7254 6334 6597 6596 7258 7260 7259 6601 7252 7261 7262  
27 6227 6231 6239 6119 6228 6232 6240 6120 7256 7257 6598 7255 7265 7266 6608 7264 7263 6348 6607 6606 7267 7269 7268 6611 7261 7270 7271  
27 6228 6232 6240 6120 6229 6233 6241 6121 7265 7266 6608 7264 7274 7275 6618 7273 7272 6362 6617 6616 7276 7278 7277 6621 7270 7279 7280  
27 6229 6233 6241 6121 2288 2289 2291 2261 7274 7275 6618 7273 2395 2396 2333 2394 7281 6376 6627 6626 7282 7284 7283 6628 7279 2397 7285  
27 710 731 706 709 6158 6242 6142 6154 837 818 838 810 7287 7090 7286 7015 6981 7087 7086 7013 7017 7093 7289 7288 839 7290 7291  
27 6158 6242 6142 6154 6159 6243 6143 6155 7287 7090 7286 7015 7293 7100 7292 7022 6988 7097 7096 7020 7024 7103 7295 7294 7290 7296 7297  
27 6159 6243 6143 6155 6160 6244 6144 6156 7293 7100 7292 7022 7299 7110 7298 7029 6995 7107 7106 7027 7031 7113 7301 7300 7296 7302 7303  
27 6160 6244 6144 6156 6161 6245 6145 6157 7299 7110 7298 7029 7305 7120 7304 7036 7002 7117 7116 7034 7038 7123 7307 7306 7302 7308 7309  
27 6161 6245 6145 6157 2271 2292 2267 2270 7305 7120 7304 7036 2398 2379 2399 2371 7009 7127 7126 7041 7043 7130 7311 7310 7308 2400 7312  
27 718 732 724 715 6190 6246 6214 6178 840 827 783 791 7313 7187 6708 6800 6797 7186 6706 6705 6804 7189 7314 6712 841 7315 7316  
27 6190 6246 6214 6178 6191 6247 6215 6179 7313 7187 6708 6800 7317 7194 6721 6813 6810 7193 6719 6718 6817 7196 7318 6725 7315 7319 7320  
27 6191 6247 6215 6179 6192 6248 6216 6180 7317 7194 6721 6813 7321 7201 6734 6826 6823 7200 6732 6731 6830 7203 7322 6738 7319 7323 7324  
27 6192 6248 6216 6180 6193 6249 6217 6181 7321 7201 6734 6826 7325 7208 6747 6839 6836 7207 6745 6744 6843 7210 7326 6751 7323 7327 7328  
27 6193 6249 6217 6181 2279 2293 2285 2276 7325 7208 6747 6839 2401 2388 2344 2352 6849 7214 6758 6757 6852 7215 7329 6760 7327 2402 7330  
27 717 728 727 718 6186 6230 6226 6190 822 834 842 794 7133 7247 7331 6801 6799 6320 7245 6797 6805 7250 7135 7332 843 7333 7334  
27 6186 6230 6226 6190 6187 6231 6227 6191 7133 7247 7331 6801 7139 7256 7335 6814 6812 6334 7254 6810 6818 7259 7141 7336 7333 7337 7338  
27 6187 6231 6227 6191 6188 6232 6228 6192 7139 7256 7335 6814 7145 7265 7339 6827 6825 6348 7263 6823 6831 7268 7147 7340 7337 7341 7342  
27 6188 6232 6228 6192 6189 6233 6229 6193 7145 7265 7339 6827 7151 7274 7343 6840 6838 6362 7272 6836 6844 7277 7153 7344 7341 7345 7346  
27 6189 6233 6229 6193 2278 2289 2288 2279 7151 7274 7343 6840 2383 2395 2403 2355 6851 6376 7281 6849 6853 7283 7157 7347 7345 2404 7348  
27 728 705 748 730 6230 6138 6310 6238 751 844 845 835 6324 7351 7350 7248 6320 6319 7349 6587 7251 7353 6328 7352 846 7354 7355  
27 6230 6138 6310 6238 6231 6139 6311 6239 6324 7351 7350 7248 6338 7358 7357 7257 6334 6333 7356 6597 7260 7360 6342 7359 7354 7361 7362  
27 6231 6139 6311 6239 6232 6140 6312 6240 6338 7358 7357 7257 6352 7365 7364 7266 6348 6347 7363 6607 7269 7367 6356 7366 7361 7368 7369  
27 6232 6140 6312 6240 6233 6141 6313 6241 6352 7365 7364 7266 6366 7372 7371 7275 6362 6361 7370 6617 7278 7374 6370 7373 7368 7375 7376  
27 6233 6141 6313 6241 2289 2266 2309 2291 6366 7372 7371 7275 2312 2405 2406 2396 6376 6375 7377 6627 7284 7379 6380 7378 7375 2407 7380  
27 732 733 707 726 6246 6250 6146 6222 847 780 848 828 7382 6663 7381 7188 7186 6660 6659 6477 7190 6666 7384 7383 849 7385 7386  
27 6246 6250 6146 6222 6247 6251 6147 6223 7382 6663 7381 7188 7388 6673 7387 7195 7193 6670 6669 6491 7197 6676 7390 7389 7385 7391 7392  
27 6247 6251 6147 6223 6248 6252 6148 6224 7388 6673 7387 7195 7394 6683 7393 7202 7200 6680 6679 6505 7204 6686 7396 7395 7391 7397 7398  
27 6248 6252 6148 6224 6249 6253 6149 6225 7394 6683 7393 7202 7400 6693 7399 7209 7207 6690 6689 6519 7211 6696 7402 7401 7397 7403 7404  
27 6249 6253 6149 6225 2293 2294 2268 2287 7400 6693 7399 7209 2408 2341 2409 2389 7214 6700 6699 6533 7216 6703 7406 7405 7403 2410 7407  
27 739 743 731 710 6274 6290 6242 6158 851 852 837 850 7411 7412 7287 7410 7408 7409 7087 6981 7413 7415 7414 7289 853 7416 7417  
27 6274 6290 6242 6158 6275 6291 6243 6159 7411 7412 7287 7410 7421 7422 7293 7420 7418 7419 7097 6988 7423 7425 7424 7295 7416 7426 7427  
27 6275 6291 6243 6159 6276 6292 6244 6160 7421 7422 7293 7420 7431 7432 7299 7430 7428 7429 7107 6995 7433 7435 7434 7301 7426 7436 7437  
27 6276 6292 6244 6160 6277 6293 6245 6161 7431 7432 7299 7430 7441 7442 7305 7440 7438 7439 7117 7002 7443 7445 7444 7307 7436 7446 7447  
27 6277 6293 6245 6161 2300 2304 2292 2271 7441 7442 7305 7440 2412 2413 2398 2411 7448 7449 7127 7009 7450 7452 7451 7311 7446 2414 7453  
27 720 742 719 714 6198 6286 6194 6174 813 854 821 803 7046 7454 7132 6937 6935 7045 6321 6798 6940 7455 7049 7134 855 7456 7457  
27 6198 6286 6194 6174 6199 6287 6195 6175 7046 7454 7132 6937 7055 7458 7138 6947 6945 7054 6335 6811 6950 7459 7058 7140 7456 7460 7461  
27 6199 6287 6195 6175 6200 6288 6196 6176 7055 7458 7138 6947 7064 7462 7144 6957 6955 7063 6349 6824 6960 7463 7067 7146 7460 7464 7465  
27 6200 6288 6196 6176 6201 6289 6197 6177 7064 7462 7144 6957 7073 7466 7150 6967 6965 7072 6363 6837 6970 7467 7076 7152 7464 7468 7469  
27 6201 6289 6197 6177 2281 2303 2280 2275 7073 7466 7150 6967 2374 2415 2382 2364 6975 7081 6377 6850 6977 7470 7082 7156 7468 2416 7471  
27 708 99 100 735 6150 1564 1568 6258 857 105 770 856 7474 1608 6542 7473 7472 1595 1609 6541 7475 1610 7476 6545 858 7477 7478  
27 6150 1564 1568 6258 6151 1565 1569 6259 7474 1608 6542 7473 7481 1611 6552 7480 7479 1598 1612 6551 7482 1613 7483 6555 7477 7484 7485  
27 6151 1565 1569 6259 6152 1566 1570 6260 7481 1611 6552 7480 7488 1614 6562 7487 7486 1601 1615 6561 7489 1616 7490 6565 7484 7491 7492  
27 6152 1566 1570 6260 6153 1567 1571 6261 7488 1614 6562 7487 7495 1617 6572 7494 7493 1604 1618 6571 7496 1619 7497 6575 7491 7498 7499  
27 6153 1567 1571 6261 2269 194 193 2296 7495 1617 6572 7494 2418 199 2331 2417 7500 1606 1620 6581 7501 1621 7502 6582 7498 2419 7503  
27 99 708 706 98 1564 6150 6142 1560 857 859 817 104 7474 7504 7089 1594 1595 7472 7086 1581 1596 7505 7476 7092 860 7506 7507  
27 1564 6150 6142 1560 1565 6151 6143 1561 7474 7504 7089 1594 7481 7508 7099 1597 1598 7479 7096 1584 1599 7509 7483 7102 7506 7510 7511  
27 1565 6151 6143 1561 1566 6152 6144 1562 7481 7508 7099 1597 7488 7512 7109 1600 1601 7486 7106 1587 1602 7513 7490 7112 7510 7514 7515  
27 1566 6152 6144 1562 1567 6153 6145 1563 7488 7512 7109 1600 7495 7516 7119 1603 1604 7493 7116 1590 1605 7517 7497 7122 7514 7518 7519  
27 1567 6153 6145 1563 194 2269 2267 195 7495 7516 7119 1603 2418 2420 2378 200 1606 7500 7126 1592 1607 7520 7502 7129 7518 2421 7521  
27 739 710 712 725 6274 6158 6166 6218 850 807 862 861 7410 6982 7524 7523 7408 6981 6890 7522 7525 6984 7413 7526 863 7527 7528  
27 6274 6158 6166 6218 6275 6159 6167 6219 7410 6982 7524 7523 7420 6989 7531 7530 7418 6988 6900 7529 7532 6991 7423 7533 7527 7534 7535  
27 6275 6159 6167 6219 6276 6160 6168 6220 7420 6989 7531 7530 7430 6996 7538 7537 7428 6995 6910 7536 7539 6998 7433 7540 7534 7541 7542  
27 6276 6160 6168 6220 6277 6161 6169 6221 7430 6996 7538 7537 7440 7003 7545 7544 7438 7002 6920 7543 7546 7005 7443 7547 7541 7548 7549  
27 6277 6161 6169 6221 2300 2271 2273 2286 7440 7003 7545 7544 2411 2368 2423 2422 7448 7009 6930 7550 7551 7010 7450 7552 7548 2424 7553  
27 721 736 725 712 6202 6262 6218 6166 825 864 862 800 7160 7554 7524 6892 6889 6412 7522 6890 6895 7555 7162 7526 865 7556 7557  
27 6202 6262 6218 6166 6203 6263 6219 6167 7160 7554 7524 6892 7166 7558 7531 6902 6899 6426 7529 6900 6905 7559 7168 7533 7556 7560 7561  
27 6203 6263 6219 6167 6204 6264 6220 6168 7166 7558 7531 6902 7172 7562 7538 6912 6909 6440 7536 6910 6915 7563 7174 7540 7560 7564 7565  
27 6204 6264 6220 6168 6205 6265 6221 6169 7172 7562 7538 6912 7178 7566 7545 6922 6919 6454 7543 6920 6925 7567 7180 7547 7564 7568 7569  
27 6205 6265 6221 6169 2282 2297 2286 2273 7178 7566 7545 6922 2386 2425 2423 2361 6929 6468 7550 6930 6932 7570 7184 7552 7568 2426 7571  
27 725 738 747 701 6218 6270 6306 6122 867 868 869 866 7576 7577 7575 7574 7522 6765 7573 7572 7578 7581 7580 7579 870 7582 7583  
27 6218 6270 6306 6122 6219 6271 6307 6123 7576 7577 7575 7574 7588 7589 7587 7586 7529 6772 7585 7584 7590 7593 7592 7591 7582 7594 7595  
27 6219 6271 6307 6123 6220 6272 6308 6124 7588 7589 7587 7586 7600 7601 7599 7598 7536 6779 7597 7596 7602 7605 7604 7603 7594 7606 7607  
27 6220 6272 6308 6124 6221 6273 6309 6125 7600 7601 7599 7598 7612 7613 7611 7610 7543 6786 7609 7608 7614 7617 7616 7615 7606 7618 7619  
27 6221 6273 6309 6125 2286 2299 2308 2262 7612 7613 7611 7610 2428 2429 2430 2427 7550 6793 7621 7620 7622 7625 7624 7623 7618 2431 7626  
27 749 102 7 729 6314 1576 269 6234 872 108 756 871 7629 1650 6383 7628 7627 1637 273 6318 7630 1651 7631 6385 873 7632 7633  
27 6314 1576 269 6234 6315 1577 270 6235 7629 1650 6383 7628 7636 1652 6389 7635 7634 1640 274 6332 7637 1653 7638 6391 7632 7639 7640  
27 6315 1577 270 6235 6316 1578 271 6236 7636 1652 6389 7635 7643 1654 6395 7642 7641 1643 275 6346 7644 1655 7645 6397 7639 7646 7647  
27 6316 1578 271 6236 6317 1579 272 6237 7643 1654 6395 7642 7650 1656 6401 7649 7648 1646 276 6360 7651 1657 7652 6403 7646 7653 7654  
27 6317 1579 272 6237 2310 191 13 2290 7650 1656 6401 7649 2433 196 2317 2432 7655 1648 277 6374 7656 1658 7657 6407 7653 2434 7658  
27 723 745 722 716 6210 6298 6206 6182 874 875 824 785 7660 7661 7159 6711 6476 7659 6413 6707 6715 7663 7662 7161 876 7664 7665  
27 6210 6298 6206 6182 6211 6299 6207 6183 7660 7661 7159 6711 7667 7668 7165 6724 6490 7666 6427 6720 6728 7670 7669 7167 7664 7671 7672  
27 6211 6299 6207 6183 6212 6300 6208 6184 7667 7668 7165 6724 7674 7675 7171 6737 6504 7673 6441 6733 6741 7677 7676 7173 7671 7678 7679  
27 6212 6300 6208 6184 6213 6301 6209 6185 7674 7675 7171 6737 7681 7682 7177 6750 6518 7680 6455 6746 6754 7684 7683 7179 7678 7685 7686  
27 6213 6301 6209 6185 2284 2306 2283 2277 7681 7682 7177 6750 2435 2436 2385 2346 6532 7687 6469 6759 6763 7689 7688 7183 7685 2437 7690  
27 77 741 707 76 1762 6282 6146 1758 877 878 779 82 7692 7693 6662 1792 1793 7691 6659 1779 1794 7695 7694 6665 879 7696 7697  
27 1762 6282 6146 1758 1763 6283 6147 1759 7692 7693 6662 1792 7699 7700 6672 1795 1796 7698 6669 1782 1797 7702 7701 6675 7696 7703 7704  
27 1763 6283 6147 1759 1764 6284 6148 1760 7699 7700 6672 1795 7706 7707 6682 1798 1799 7705 6679 1785 1800 7709 7708 6685 7703 7710 7711  
27 1764 6284 6148 1760 1765 6285 6149 1761 7706 7707 6682 1798 7713 7714 6692 1801 1802 7712 6689 1788 1803 7716 7715 6695 7710 7717 7718  
27 1765 6285 6149 1761 216 2302 2268 217 7713 7714 6692 1801 2438 2439 2340 222 1804 7719 6699 1790 1805 7721 7720 6702 7717 2440 7722  
27 708 735 709 706 6150 6258 6154 6142 856 814 838 859 7473 7048 7286 7504 7472 6541 7013 7086 7505 7051 7475 7288 880 7723 7724  
27 6150 6258 6154 6142 6151 6259 6155 6143 7473 7048 7286 7504 7480 7057 7292 7508 7479 6551 7020 7096 7509 7060 7482 7294 7723 7725 7726  
27 6151 6259 6155 6143 6152 6260 6156 6144 7480 7057 7292 7508 7487 7066 7298 7512 7486 6561 7027 7106 7513 7069 7489 7300 7725 7727 7728  
27 6152 6260 6156 6144 6153 6261 6157 6145 7487 7066 7298 7512 7494 7075 7304 7516 7493 6571 7034 7116 7517 7078 7496 7306 7727 7729 7730  
27 6153 6261 6157 6145 2269 2296 2270 2267 7494 7075 7304 7516 2417 2375 2399 2420 7500 6581 7041 7126 7520 7084 7501 7310 7729 2441 7731  
27 91 743 701 90 1675 6290 6122 1671 881 882 883 96 7733 7734 7732 1735 1736 7409 7572 1722 1737 7737 7736 7735 884 7738 7739  
27 1675 6290 6122 1671 1676 6291 6123 1672 7733 7734 7732 1735 7741 7742 7740 1738 1739 7419 7584 1725 1740 7745 7744 7743 7738 7746 7747  
27 1676 6291 6123 1672 1677 6292 6124 1673 7741 7742 7740 1738 7749 7750 7748 1741 1742 7429 7596 1728 1743 7753 7752 7751 7746 7754 7755  
27 1677 6292 6124 1673 1678 6293 6125 1674 7749 7750 7748 1741 7757 7758 7756 1744 1745 7439 7608 1731 1746 7761 7760 7759 7754 7762 7763  
27 1678 6293 6125 1674 202 2304 2262 203 7757 7758 7756 1744 2442 2443 2444 208 1747 7449 7620 1733 1748 7766 7765 7764 7762 2445 7767  
27 738 725 736 704 6270 6218 6262 6134 867 864 759 788 7576 7554 6416 6766 6765 7522 6412 6411 6768 7555 7580 6420 885 7768 7769  
27 6270 6218 6262 6134 6271 6219 6263 6135 7576 7554 6416 6766 7588 7558 6430 6773 6772 7529 6426 6425 6775 7559 7592 6434 7768 7770 7771  
27 6271 6219 6263 6135 6272 6220 6264 6136 7588 7558 6430 6773 7600 7562 6444 6780 6779 7536 6440 6439 6782 7563 7604 6448 7770 7772 7773  
27 6272 6220 6264 6136 6273 6221 6265 6137 7600 7562 6444 6780 7612 7566 6458 6787 6786 7543 6454 6453 6789 7567 7616 6462 7772 7774 7775  
27 6273 6221 6265 6137 2299 2286 2297 2265 7612 7566 6458 6787 2428 2425 2320 2349 6793 7550 6468 6467 6794 7570 7624 6472 7774 2446 7776  
27 113 744 700 112 1477 6294 6118 1473 886 887 774 118 7778 7779 6589 1537 1538 7777 6586 1524 1539 7781 7780 6592 888 7782 7783  
27 1477 6294 6118 1473 1478 6295 6119 1474 7778 7779 6589 1537 7785 7786 6599 1540 1541 7784 6596 1527 1542 7788 7787 6602 7782 7789 7790  
27 1478 6295 6119 1474 1479 6296 6120 1475 7785 7786 6599 1540 7792 7793 6609 1543 1544 7791 6606 1530 1545 7795 7794 6612 7789 7796 7797  
27 1479 6296 6120 1475 1480 6297 6121 1476 7792 7793 6609 1543 7799 7800 6619 1546 1547 7798 6616 1533 1548 7802 7801 6622 7796 7803 7804  
27 1480 6297 6121 1476 180 2305 2261 181 7799 7800 6619 1546 2447 2448 2335 186 1549 7805 6626 1535 1550 7807 7806 6629 7803 2449 7808  
27 6 737 746 80 287 6266 6302 1774 777 889 890 86 6632 7811 7810 1848 291 6410 7809 1835 1849 7813 6634 7812 891 7814 7815  
27 287 6266 6302 1774 288 6267 6303 1775 6632 7811 7810 1848 6638 7818 7817 1850 292 6424 7816 1838 1851 7820 6640 7819 7814 7821 7822  
27 288 6267 6303 1775 289 6268 6304 1776 6638 7818 7817 1850 6644 7825 7824 1852 293 6438 7823 1841 1853 7827 6646 7826 7821 7828 7829  
27 289 6268 6304 1776 290 6269 6305 1777 6644 7825 7824 1852 6650 7832 7831 1854 294 6452 7830 1844 1855 7834 6652 7833 7828 7835 7836  
27 290 6269 6305 1777 15 2298 2307 213 6650 7832 7831 1854 2338 2450 2451 218 295 6466 7837 1846 1856 7839 6656 7838 7835 2452 7840  
27 80 746 702 79 1774 6302 6126 1770 890 892 830 85 7810 7841 7219 1834 1835 7809 6475 1821 1836 7842 7812 7221 893 7843 7844  
27 1774 6302 6126 1770 1775 6303 6127 1771 7810 7841 7219 1834 7817 7845 7225 1837 1838 7816 6489 1824 1839 7846 7819 7227 7843 7847 7848  
27 1775 6303 6127 1771 1776 6304 6128 1772 7817 7845 7225 1837 7824 7849 7231 1840 1841 7823 6503 1827 1842 7850 7826 7233 7847 7851 7852  
27 1776 6304 6128 1772 1777 6305 6129 1773 7824 7849 7231 1840 7831 7853 7237 1843 1844 7830 6517 1830 1845 7854 7833 7239 7851 7855 7856  
27 1777 6305 6129 1773 213 2307 2263 214 7831 7853 7237 1843 2451 2453 2391 219 1846 7837 6531 1832 1847 7857 7838 7243 7855 2454 7858  
27 90 701 747 89 1671 6122 6306 1667 883 869 894 95 7732 7575 7859 1721 1722 7572 7573 1708 1723 7579 7735 7860 895 7861 7862  
27 1671 6122 6306 1667 1672 6123 6307 1668 7732 7575 7859 1721 7740 7587 7863 1724 1725 7584 7585 1711 1726 7591 7743 7864 7861 7865 7866  
27 1672 6123 6307 1668 1673 6124 6308 1669 7740 7587 7863 1724 7748 7599 7867 1727 1728 7596 7597 1714 1729 7603 7751 7868 7865 7869 7870  
27 1673 6124 6308 1669 1674 6125 6309 1670 7748 7599 7867 1727 7756 7611 7871 1730 1731 7608 7609 1717 1732 7615 7759 7872 7869 7873 7874  
27 1674 6125 6309 1670 203 2262 2308 204 7756 7611 7871 1730 2444 2430 2455 209 1733 7620 7621 1719 1734 7623 7764 7875 7873 2456 7876  
27 110 748 705 109 1465 6310 6138 1461 896 844 755 115 7877 7351 6384 1495 1496 7349 6319 1482 1497 7353 7878 6386 897 7879 7880  
27 1465 6310 6138 1461 1466 6311 6139 1462 7877 7351 6384 1495 7881 7358 6390 1498 1499 7356 6333 1485 1500 7360 7882 6392 7879 7883 7884  
27 1466 6311 6139 1462 1467 6312 6140 1463 7881 7358 6390 1498 7885 7365 6396 1501 1502 7363 6347 1488 1503 7367 7886 6398 7883 7887 7888  
27 1467 6312 6140 1463 1468 6313 6141 1464 7885 7365 6396 1501 7889 7372 6402 1504 1505 7370 6361 1491 1506 7374 7890 6404 7887 7891 7892  
27 1468 6313 6141 1464 183 2309 2266 184 7889 7372 6402 1504 2457 2405 2316 189 1507 7377 6375 1493 1508 7379 7893 6408 7891 2458 7894  
27 102 749 703 101 1576 6314 6130 1572 872 898 768 107 7629 7895 6543 1636 1637 7627 6540 1623 1638 7896 7631 6546 899 7897 7898  
27 1576 6314 6130 1572 1577 6315 6131 1573 7629 7895 6543 1636 7636 7899 6553 1639 1640 7634 6550 1626 1641 7900 7638 6556 7897 7901 7902  
27 1577 6315 6131 1573 1578 6316 6132 1574 7636 7899 6553 1639 7643 7903 6563 1642 1643 7641 6560 1629 1644 7904 7645 6566 7901 7905 7906  
27 1578 6316 6132 1574 1579 6317 6133 1575 7643 7903 6563 1642 7650 7907 6573 1645 1646 7648 6570 1632 1647 7908 7652 6576 7905 7909 7910  
27 1579 6317 6133 1575 191 2310 2264 192 7650 7907 6573 1645 2433 2459 2329 197 1648 7655 6580 1634 1649 7911 7657 6583 7909 2460 7912  
27 111 730 748 110 1469 6238 6310 1465 773 845 896 116 6590 7350 7877 1509 1510 6587 7349 1496 1511 7352 6593 7878 900 7913 7914  
27 1469 6238 6310 1465 1470 6239 6311 1466 6590 7350 7877 1509 6600 7357 7881 1512 1513 6597 7356 1499 1514 7359 6603 7882 7913 7915 7916  
27 1470 6239 6311 1466 1471 6240 6312 1467 6600 7357 7881 1512 6610 7364 7885 1515 1516 6607 7363 1502 1517 7366 6613 7886 7915 7917 7918  
27 1471 6240 6312 1467 1472 6241 6313 1468 6610 7364 7885 1515 6620 7371 7889 1518 1519 6617 7370 1505 1520 7373 6623 7890 7917 7919 7920  
27 1472 6241 6313 1468 182 2291 2309 183 6620 7371 7889 1518 2334 2406 2457 188 1521 6627 7377 1507 1522 7378 6630 7893 7919 2461 7921  
27 740 744 733 732 6278 6294 6250 6246 902 903 847 901 7924 7925 7382 7923 7922 7777 6660 7186 7926 7928 7927 7384 904 7929 7930  
27 6278 6294 6250 6246 6279 6295 6251 6247 7924 7925 7382 7923 7933 7934 7388 7932 7931 7784 6670 7193 7935 7937 7936 7390 7929 7938 7939  
27 6279 6295 6251 6247 6280 6296 6252 6248 7933 7934 7388 7932 7942 7943 7394 7941 7940 7791 6680 7200 7944 7946 7945 7396 7938 7947 7948  
27 6280 6296 6252 6248 6281 6297 6253 6249 7942 7943 7394 7941 7951 7952 7400 7950 7949 7798 6690 7207 7953 7955 7954 7402 7947 7956 7957  
27 6281 6297 6253 6249 2301 2305 2294 2293 7951 7952 7400 7950 2463 2464 2408 2462 7958 7805 6700 7214 7959 7961 7960 7406 7956 2465 7962  
27 4 733 744 113 260 6250 6294 1477 781 903 886 119 6661 7925 7778 1551 264 6660 7777 1538 1552 7928 6664 7780 905 7963 7964  
27 260 6250 6294 1477 261 6251 6295 1478 6661 7925 7778 1551 6671 7934 7785 1553 265 6670 7784 1541 1554 7937 6674 7787 7963 7965 7966  
27 261 6251 6295 1478 262 6252 6296 1479 6671 7934 7785 1553 6681 7943 7792 1555 266 6680 7791 1544 1556 7946 6684 7794 7965 7967 7968  
27 262 6252 6296 1479 263 6253 6297 1480 6681 7943 7792 1555 6691 7952 7799 1557 267 6690 7798 1547 1558 7955 6694 7801 7967 7969 7970  
27 263 6253 6297 1480 12 2294 2305 180 6691 7952 7799 1557 2342 2464 2447 185 268 6700 7805 1549 1559 7961 6701 7806 7969 2466 7971  
27 718 727 740 732 6190 6226 6278 6246 842 906 901 840 7331 7972 7923 7313 6797 7245 7922 7186 7314 7973 7332 7926 907 7974 7975  
27 6190 6226 6278 6246 6191 6227 6279 6247 7331 7972 7923 7313 7335 7976 7932 7317 6810 7254 7931 7193 7318 7977 7336 7935 7974 7978 7979  
27 6191 6227 6279 6247 6192 6228 6280 6248 7335 7976 7932 7317 7339 7980 7941 7321 6823 7263 7940 7200 7322 7981 7340 7944 7978 7982 7983  
27 6192 6228 6280 6248 6193 6229 6281 6249 7339 7980 7941 7321 7343 7984 7950 7325 6836 7272 7949 7207 7326 7985 7344 7953 7982 7986 7987  
27 6193 6229 6281 6249 2279 2288 2301 2293 7343 7984 7950 7325 2403 2467 2462 2401 6849 7281 7958 7214 7329 7988 7347 7959 7986 2468 7989  
27 5 731 743 91 278 6242 6290 1675 819 852 881 97 7088 7412 7733 1749 282 7087 7409 1736 1750 7415 7091 7736 908 7990 7991  
27 278 6242 6290 1675 279 6243 6291 1676 7088 7412 7733 1749 7098 7422 7741 1751 283 7097 7419 1739 1752 7425 7101 7744 7990 7992 7993  
27 279 6243 6291 1676 280 6244 6292 1677 7098 7422 7741 1751 7108 7432 7749 1753 284 7107 7429 1742 1754 7435 7111 7752 7992 7994 7995  
27 280 6244 6292 1677 281 6245 6293 1678 7108 7432 7749 1753 7118 7442 7757 1755 285 7117 7439 1745 1756 7445 7121 7760 7994 7996 7997  
27 281 6245 6293 1678 14 2292 2304 202 7118 7442 7757 1755 2380 2413 2442 207 286 7127 7449 1747 1757 7452 7128 7765 7996 2469 7998  
27 89 747 738 88 1667 6306 6270 1663 894 868 789 94 7859 7577 6767 1707 1708 7573 6765 1694 1709 7581 7860 6769 909 7999 8000  
27 1667 6306 6270 1663 1668 6307 6271 1664 7859 7577 6767 1707 7863 7589 6774 1710 1711 7585 6772 1697 1712 7593 7864 6776 7999 8001 8002  
27 1668 6307 6271 1664 1669 6308 6272 1665 7863 7589 6774 1710 7867 7601 6781 1713 1714 7597 6779 1700 1715 7605 7868 6783 8001 8003 8004  
27 1669 6308 6272 1665 1670 6309 6273 1666 7867 7601 6781 1713 7871 7613 6788 1716 1717 7609 6786 1703 1718 7617 7872 6790 8003 8005 8006  
27 1670 6309 6273 1666 204 2308 2299 205 7871 7613 6788 1716 2455 2429 2350 210 1719 7621 6793 1705 1720 7625 7875 6795 8005 2470 8007  
27 78 734 741 77 1766 6254 6282 1762 831 910 877 83 7218 8008 7692 1806 1807 6478 7691 1793 1808 8009 7220 7694 911 8010 8011  
27 1766 6254 6282 1762 1767 6255 6283 1763 7218 8008 7692 1806 7224 8012 7699 1809 1810 6492 7698 1796 1811 8013 7226 7701 8010 8014 8015  
27 1767 6255 6283 1763 1768 6256 6284 1764 7224 8012 7699 1809 7230 8016 7706 1812 1813 6506 7705 1799 1814 8017 7232 7708 8014 8018 8019  
27 1768 6256 6284 1764 1769 6257 6285 1765 7230 8016 7706 1812 7236 8020 7713 1815 1816 6520 7712 1802 1817 8021 7238 7715 8018 8022 8023  
27 1769 6257 6285 1765 215 2295 2302 216 7236 8020 7713 1815 2392 2471 2438 221 1818 6534 7719 1804 1819 8024 7242 7720 8022 2472 8025  
27 701 743 739 725 6122 6290 6274 6218 882 851 861 866 7734 7411 7523 7574 7572 7409 7408 7522 7578 7414 7737 7525 912 8026 8027  
27 6122 6290 6274 6218 6123 6291 6275 6219 7734 7411 7523 7574 7742 7421 7530 7586 7584 7419 7418 7529 7590 7424 7745 7532 8026 8028 8029  
27 6123 6291 6275 6219 6124 6292 6276 6220 7742 7421 7530 7586 7750 7431 7537 7598 7596 7429 7428 7536 7602 7434 7753 7539 8028 8030 8031  
27 6124 6292 6276 6220 6125 6293 6277 6221 7750 7431 7537 7598 7758 7441 7544 7610 7608 7439 7438 7543 7614 7444 7761 7546 8030 8032 8033  
27 6125 6293 6277 6221 2262 2304 2300 2286 7758 7441 7544 7610 2443 2412 2422 2427 7620 7449 7448 7550 7622 7451 7766 7551 8032 2473 8034  
27 741 734 726 707 6282 6254 6222 6146 910 765 848 878 8008 6482 7381 7693 7691 6478 6477 6659 7695 6486 8009 7383 913 8035 8036  
27 6282 6254 6222 6146 6283 6255 6223 6147 8008 6482 7381 7693 8012 6496 7387 7700 7698 6492 6491 6669 7702 6500 8013 7389 8035 8037 8038  
27 6283 6255 6223 6147 6284 6256 6224 6148 8012 6496 7387 7700 8016 6510 7393 7707 7705 6506 6505 6679 7709 6514 8017 7395 8037 8039 8040  
27 6284 6256 6224 6148 6285 6257 6225 6149 8016 6510 7393 7707 8020 6524 7399 7714 7712 6520 6519 6689 7716 6528 8021 7401 8039 8041 8042  
27 6285 6257 6225 6149 2302 2295 2287 2268 8020 6524 7399 7714 2471 2326 2409 2439 7719 6534 6533 6699 7721 6538 8024 7405 8041 2474 8043  
27 703 749 742 735 6130 6314 6286 6258 898 914 815 769 7895 8044 7047 6544 6540 7627 7045 6541 6547 8045 7896 7050 915 8046 8047  
27 6130 6314 6286 6258 6131 6315 6287 6259 7895 8044 7047 6544 7899 8048 7056 6554 6550 7634 7054 6551 6557 8049 7900 7059 8046 8050 8051  
27 6131 6315 6287 6259 6132 6316 6288 6260 7899 8048 7056 6554 7903 8052 7065 6564 6560 7641 7063 6561 6567 8053 7904 7068 8050 8054 8055  
27 6132 6316 6288 6260 6133 6317 6289 6261 7903 8052 7065 6564 7907 8056 7074 6574 6570 7648 7072 6571 6577 8057 7908 7077 8054 8058 8059  
27 6133 6317 6289 6261 2264 2310 2303 2296 7907 8056 7074 6574 2459 2475 2376 2330 6580 7655 7081 6581 6584 8060 7911 7083 8058 2476 8061  
27 742 749 729 719 6286 6314 6234 6194 914 871 753 854 8044 7628 6323 7454 7045 7627 6318 6321 7455 7630 8045 6327 916 8062 8063  
27 6286 6314 6234 6194 6287 6315 6235 6195 8044 7628 6323 7454 8048 7635 6337 7458 7054 7634 6332 6335 7459 7637 8049 6341 8062 8064 8065  
27 6287 6315 6235 6195 6288 6316 6236 6196 8048 7635 6337 7458 8052 7642 6351 7462 7063 7641 6346 6349 7463 7644 8053 6355 8064 8066 8067  
27 6288 6316 6236 6196 6289 6317 6237 6197 8052 7642 6351 7462 8056 7649 6365 7466 7072 7648 6360 6363 7467 7651 8057 6369 8066 8068 8069  
27 6289 6317 6237 6197 2303 2310 2290 2280 8056 7649 6365 7466 2475 2432 2314 2415 7081 7655 6374 6377 7470 7656 8060 6379 8068 2477 8070  
27 700 744 740 727 6118 6294 6278 6226 887 902 906 833 7779 7924 7972 7246 6586 7777 7922 7245 7249 7927 7781 7973 917 8071 8072  
27 6118 6294 6278 6226 6119 6295 6279 6227 7779 7924 7972 7246 7786 7933 7976 7255 6596 7784 7931 7254 7258 7936 7788 7977 8071 8073 8074  
27 6119 6295 6279 6227 6120 6296 6280 6228 7786 7933 7976 7255 7793 7942 7980 7264 6606 7791 7940 7263 7267 7945 7795 7981 8073 8075 8076  
27 6120 6296 6280 6228 6121 6297 6281 6229 7793 7942 7980 7264 7800 7951 7984 7273 6616 7798 7949 7272 7276 7954 7802 7985 8075 8077 8078  
27 6121 6297 6281 6229 2261 2305 2301 2288 7800 7951 7984 7273 2448 2463 2467 2394 6626 7805 7958 7281 7282 7960 7807 7988 8077 2478 8079  
27 702 746 745 723 6126 6302 6298 6210 892 918 874 763 7841 8080 7660 6479 6475 7809 7659 6476 6483 8081 7842 7662 919 8082 8083  
27 6126 6302 6298 6210 6127 6303 6299 6211 7841 8080 7660 6479 7845 8084 7667 6493 6489 7816 7666 6490 6497 8085 7846 7669 8082 8086 8087  
27 6127 6303 6299 6211 6128 6304 6300 6212 7845 8084 7667 6493 7849 8088 7674 6507 6503 7823 7673 6504 6511 8089 7850 7676 8086 8090 8091  
27 6128 6304 6300 6212 6129 6305 6301 6213 7849 8088 7674 6507 7853 8092 7681 6521 6517 7830 7680 6518 6525 8093 7854 7683 8090 8094 8095  
27 6129 6305 6301 6213 2263 2307 2306 2284 7853 8092 7681 6521 2453 2479 2435 2324 6531 7837 7687 6532 6535 8096 7857 7688 8094 2480 8097  
27 745 746 737 722 6298 6302 6266 6206 918 889 761 875 8080 7811 6415 7661 7659 7809 6410 6413 7663 7813 8081 6419 920 8098 8099  
27 6298 6302 6266 6206 6299 6303 6267 6207 8080 7811 6415 7661 8084 7818 6429 7668 7666 7816 6424 6427 7670 7820 8085 6433 8098 8100 8101  
27 6299 6303 6267 6207 6300 6304 6268 6208 8084 7818 6429 7668 8088 7825 6443 7675 7673 7823 6438 6441 7677 7827 8089 6447 8100 8102 8103  
27 6300 6304 6268 6208 6301 6305 6269 6209 8088 7825 6443 7675 8092 7832 6457 7682 7680 7830 6452 6455 7684 7834 8093 6461 8102 8104 8105  
27 6301 6305 6269 6209 2306 2307 2298 2283 8092 7832 6457 7682 2479 2450 2322 2436 7687 7837 6466 6469 7689 7839 8096 6471 8104 2481 8106  

CELL_TYPES 880 
29 
29 
29 
29 
29 
29 
29 
29 
29 
29 
29 
29 
29 
29 
29 
29 
29 
29 
29 
29 
29 
29 
29 
29 
29 
29 
29 
29 
29 
29 
29 
29 
29 
29 
29 
29 
29 
29 
29 
29 
29 
29 
29 
29 
29 
29 
29 
29 
29 
29 
29 
29 
29 
29 
29 
29 
29 
29 
29 
29 
29 
29 
29 
29 
29 
29 
29 
29 
29 
29 
29 
29 
29 
29 
29 
29 
29 
29 
29 
29 
29 
29 
29 
29 
29 
29 
29 
29 
29 
29 
29 
29 
29 
29 
29 
29 
29 
29 
29 
29 
29 
29 
29 
29 
29 
29 
29 
29 
29 
29 
29 
29 
29 
29 
29 
29 
29 
29 
29 
29 
29 
29 
29 
29 
29 
29 
29 
29 
29 
29 
29 
29 
29 
29 
29 
29 
29 
29 
29 
29 
29 
29 
29 
29 
29 
29 
29 
29 
29 
29 
29 
29 
29 
29 
29 
29 
29 
29 
29 
29 
29 
29 
29 
29 
29 
29 
29 
29 
29 
29 
29 
29 
29 
29 
29 
29 
29 
29 
29 
29 
29 
29 
29 
29 
29 
29 
29 
29 
29 
29 
29 
29 
29 
29 
29 
29 
29 
29 
29 
29 
29 
29 
29 
29 
29 
29 
29 
29 
29 
29 
29 
29 
29 
29 
29 
29 
29 
29 
29 
29 
29 
29 
29 
29 
29 
29 
29 
29 
29 
29 
29 
29 
29 
29 
29 
29 
29 
29 
29 
29 
29 
29 
29 
29 
29 
29 
29 
29 
29 
29 
29 
29 
29 
29 
29 
29 
29 
29 
29 
29 
29 
29 
29 
29 
29 
29 
29 
29 
29 
29 
29 
29 
29 
29 
29 
29 
29 
29 
29 
29 
29 
29 
29 
29 
29 
29 
29 
29 
29 
29 
29 
29 
29 
29 
29 
29 
29 
29 
29 
29 
29 
29 
29 
29 
29 
29 
29 
29 
29 
29 
29 
29 
29 
29 
29 
29 
29 
29 
29 
29 
29 
29 
29 
29 
29 
29 
29 
29 
29 
29 
29 
29 
29 
29 
29 
29 
29 
29 
29 
29 
29 
29 
29 
29 
29 
29 
29 
29 
29 
29 
29 
29 
29 
29 
29 
29 
29 
29 
29 
29 
29 
29 
29 
29 
29 
29 
29 
29 
29 
29 
29 
29 
29 
29 
29 
29 
29 
29 
29 
29 
29 
29 
29 
29 
29 
29 
29 
29 
29 
29 
29 
29 
29 
29 
29 
29 
29 
29 
29 
29 
29 
29 
29 
29 
29 
29 
29 
29 
29 
29 
29 
29 
29 
29 
29 
29 
29 
29 
29 
29 
29 
29 
29 
29 
29 
29 
29 
29 
29 
29 
29 
29 
29 
29 
29 
29 
29 
29 
29 
29 
29 
29 
29 
29 
29 
29 
29 
29 
29 
29 
29 
29 
29 
29 
29 
29 
29 
29 
29 
29 
29 
29 
29 
29 
29 
29 
29 
29 
29 
29 
29 
29 
29 
29 
29 
29 
29 
29 
29 
29 
29 
29 
29 
29 
29 
29 
29 
29 
29 
29 
29 
29 
29 
29 
29 
29 
29 
29 
29 
29 
29 
29 
29 
29 
29 
29 
29 
29 
29 
29 
29 
29 
29 
29 
29 
29 
29 
29 
29 
29 
29 
29 
29 
29 
29 
29 
29 
29 
29 
29 
29 
29 
29 
29 
29 
29 
29 
29 
29 
29 
29 
29 
29 
29 
29 
29 
29 
29 
29 
29 
29 
29 
29 
29 
29 
29 
29 
29 
29 
29 
29 
29 
29 
29 
29 
29 
29 
29 
29 
29 
29 
29 
29 
29 
29 
29 
29 
29 
29 
29 
29 
29 
29 
29 
29 
29 
29 
29 
29 
29 
29 
29 
29 
29 
29 
29 
29 
29 
29 
29 
29 
29 
29 
29 
29 
29 
29 
29 
29 
29 
29 
29 
29 
29 
29 
29 
29 
29 
29 
29 
29 
29 
29 
29 
29 
29 
29 
29 
29 
29 
29 
29 
29 
29 
29 
29 
29 
29 
29 
29 
29 
29 
29 
29 
29 
29 
29 
29 
29 
29 
29 
29 
29 
29 
29 
29 
29 
29 
29 
29 
29 
29 
29 
29 
29 
29 
29 
29 
29 
29 
29 
29 
29 
29 
29 
29 
29 
29 
29 
29 
29 
29 
29 
29 
29 
29 
29 
29 
29 
29 
29 
29 
29 
29 
29 
29 
29 
29 
29 
29 
29 
29 
29 
29 
29 
29 
29 
29 
29 
29 
29 
29 
29 
29 
29 
29 
29 
29 
29 
29 
29 
29 
29 
29 
29 
29 
29 
29 
29 
29 
29 
29 
29 
29 
29 
29 
29 
29 
29 
29 
29 
29 
29 
29 
29 
29 
29 
29 
29 
29 
29 
29 
29 
29 
29 
29 
29 
29 
29 
29 
29 
29 
29 
29 
29 
29 
29 
29 
29 
29 
29 
29 
29 
29 
29 
29 
29 
29 
29 
29 
29 
29 
29 
29 
29 
29 
29 
29 
29 
29 
29 
29 
29 
29 
29 
29 
29 
29 
29 
29 
29 
29 
29 
29 
29 
29 
29 
29 
29 
29 
29 
29 
29 
29 
29 
29 
29 
29 
29 
29 
29 
29 
29 
29 
29 
29 
29 
29 
29 
29 
29 
29 
29 
29 
29 
29 
29 
29 
29 
29 
29 
29 
29 
29 
29 
29 
29 
29 
29 
29 
29 
29 
29 
29 
29 
29 
29 
29 
29 
29 
29 
29 
29 
29 
29 
29 
29 
29 
29 
29 
29 
29 
29 
29 
29 
29 
29 
29 
29 
29 

POINT_DATA 8107 
FIELD FieldData 7 
Displacement_Macro 3 8107 float
    -0.785     -0.465      -0.74  
     0.635     -0.415      -0.64  
     0.685     -0.355       0.18  
    -0.735     -0.405       0.08  
     0.305    -0.3975     -0.255  
    -0.405    -0.4225     -0.305  
   -0.0375     -0.395     -0.075  
   -0.0625     -0.425     -0.485  
    -0.685      0.355      -0.18  
     0.735      0.405      -0.08  
     0.785      0.465       0.74  
    -0.635      0.415       0.64  
     0.405     0.4225      0.305  
    0.0375      0.395      0.075  
    -0.305     0.3975      0.255  
    0.0625      0.425      0.485  
   -0.6075   -0.45875    -0.7275  
     -0.43    -0.4525     -0.715  
   -0.2525   -0.44625    -0.7025  
    -0.075      -0.44      -0.69  
    0.1025   -0.43375    -0.6775  
      0.28    -0.4275     -0.665  
    0.4575   -0.42125    -0.6525  
  -0.69625  -0.461875   -0.73375  
  -0.51875  -0.455625   -0.72125  
  -0.34125  -0.449375   -0.70875  
  -0.16375  -0.443125   -0.69625  
   0.01375  -0.436875   -0.68375  
   0.19125  -0.430625   -0.67125  
   0.36875  -0.424375   -0.65875  
   0.54625  -0.418125   -0.64625  
   0.64125    -0.4075    -0.5375  
    0.6475       -0.4     -0.435  
   0.65375    -0.3925    -0.3325  
      0.66     -0.385      -0.23  
   0.66625    -0.3775    -0.1275  
    0.6725      -0.37     -0.025  
   0.67875    -0.3625     0.0775  
  0.638125   -0.41125   -0.58875  
  0.644375   -0.40375   -0.48625  
  0.650625   -0.39625   -0.38375  
  0.656875   -0.38875   -0.28125  
  0.663125   -0.38125   -0.17875  
  0.669375   -0.37375   -0.07625  
  0.675625   -0.36625    0.02625  
  0.681875   -0.35875    0.12875  
    0.5075   -0.36125     0.1675  
      0.33    -0.3675      0.155  
    0.1525   -0.37375     0.1425  
    -0.025      -0.38       0.13  
   -0.2025   -0.38625     0.1175  
     -0.38    -0.3925      0.105  
   -0.5575   -0.39875     0.0925  
   0.59625  -0.358125    0.17375  
   0.41875  -0.364375    0.16125  
   0.24125  -0.370625    0.14875  
   0.06375  -0.376875    0.13625  
  -0.11375  -0.383125    0.12375  
  -0.29125  -0.389375    0.11125  
  -0.46875  -0.395625    0.09875  
  -0.64625  -0.401875    0.08625  
  -0.74125    -0.4125    -0.0225  
   -0.7475      -0.42     -0.125  
  -0.75375    -0.4275    -0.2275  
     -0.76     -0.435      -0.33  
  -0.76625    -0.4425    -0.4325  
   -0.7725      -0.45     -0.535  
  -0.77875    -0.4575    -0.6375  
 -0.738125   -0.40875    0.02875  
 -0.744375   -0.41625   -0.07375  
 -0.750625   -0.42375   -0.17625  
 -0.756875   -0.43125   -0.27875  
 -0.763125   -0.43875   -0.38125  
 -0.769375   -0.44625   -0.48375  
 -0.775625   -0.45375   -0.58625  
 -0.781875   -0.46125   -0.68875  
  0.296139  -0.394044  -0.202794  
  0.263689  -0.391675  -0.155849  
  0.209862  -0.390555  -0.117365  
  0.138325   -0.39076 -0.0899648  
 0.0539548  -0.392276 -0.0755147  
  0.303595  -0.395649  -0.228456  
  0.282761  -0.392711  -0.178453  
   0.23925  -0.390952   -0.13537  
  0.176027   -0.39049  -0.102144  
 0.0974011  -0.391358 -0.0810376  
0.00872986  -0.393497 -0.0734906  
 -0.129807  -0.398746 -0.0884557  
 -0.216675   -0.40326  -0.114965  
 -0.292184  -0.408232  -0.152721  
 -0.351189  -0.413325  -0.199151  
 -0.389668  -0.418192   -0.25109  
-0.0839437   -0.39676  -0.080017  
 -0.174304  -0.400925  -0.100172  
 -0.256193  -0.405709  -0.132582  
 -0.324031  -0.410785  -0.175038  
 -0.373194  -0.415808  -0.224647  
 -0.400331  -0.420435  -0.278028  
 -0.396139  -0.425956  -0.357206  
 -0.363689  -0.428325  -0.404151  
 -0.309862  -0.429445  -0.442635  
 -0.238325   -0.42924  -0.470035  
 -0.153955  -0.427724  -0.484485  
 -0.403595  -0.424351  -0.331544  
 -0.382761  -0.427289  -0.381547  
  -0.33925  -0.429048   -0.42463  
 -0.276027   -0.42951  -0.457856  
 -0.197401  -0.428642  -0.478962  
  -0.10873  -0.426503  -0.486509  
 0.0298067  -0.421254  -0.471544  
  0.116675   -0.41674  -0.445035  
  0.192184  -0.411768  -0.407279  
  0.251189  -0.406675  -0.360849  
  0.289668  -0.401808   -0.30891  
-0.0160563   -0.42324  -0.479983  
 0.0743041  -0.419075  -0.459828  
  0.156193  -0.414291  -0.427418  
  0.224031  -0.409215  -0.384962  
  0.273194  -0.404192  -0.335353  
  0.300331  -0.399565  -0.281972  
   -0.5075    0.36125    -0.1675  
     -0.33     0.3675     -0.155  
   -0.1525    0.37375    -0.1425  
     0.025       0.38      -0.13  
    0.2025    0.38625    -0.1175  
      0.38     0.3925     -0.105  
    0.5575    0.39875    -0.0925  
  -0.59625   0.358125   -0.17375  
  -0.41875   0.364375   -0.16125  
  -0.24125   0.370625   -0.14875  
  -0.06375   0.376875   -0.13625  
   0.11375   0.383125   -0.12375  
   0.29125   0.389375   -0.11125  
   0.46875   0.395625   -0.09875  
   0.64625   0.401875   -0.08625  
   0.74125     0.4125     0.0225  
    0.7475       0.42      0.125  
   0.75375     0.4275     0.2275  
      0.76      0.435       0.33  
   0.76625     0.4425     0.4325  
    0.7725       0.45      0.535  
   0.77875     0.4575     0.6375  
  0.738125    0.40875   -0.02875  
  0.744375    0.41625    0.07375  
  0.750625    0.42375    0.17625  
  0.756875    0.43125    0.27875  
  0.763125    0.43875    0.38125  
  0.769375    0.44625    0.48375  
  0.775625    0.45375    0.58625  
  0.781875    0.46125    0.68875  
    0.6075    0.45875     0.7275  
      0.43     0.4525      0.715  
    0.2525    0.44625     0.7025  
     0.075       0.44       0.69  
   -0.1025    0.43375     0.6775  
     -0.28     0.4275      0.665  
   -0.4575    0.42125     0.6525  
   0.69625   0.461875    0.73375  
   0.51875   0.455625    0.72125  
   0.34125   0.449375    0.70875  
   0.16375   0.443125    0.69625  
  -0.01375   0.436875    0.68375  
  -0.19125   0.430625    0.67125  
  -0.36875   0.424375    0.65875  
  -0.54625   0.418125    0.64625  
  -0.64125     0.4075     0.5375  
   -0.6475        0.4      0.435  
  -0.65375     0.3925     0.3325  
     -0.66      0.385       0.23  
  -0.66625     0.3775     0.1275  
   -0.6725       0.37      0.025  
  -0.67875     0.3625    -0.0775  
 -0.638125    0.41125    0.58875  
 -0.644375    0.40375    0.48625  
 -0.650625    0.39625    0.38375  
 -0.656875    0.38875    0.28125  
 -0.663125    0.38125    0.17875  
 -0.669375    0.37375    0.07625  
 -0.675625    0.36625   -0.02625  
 -0.681875    0.35875   -0.12875  
  0.389668   0.418192    0.25109  
  0.351189   0.413325   0.199151  
  0.292184   0.408232   0.152721  
  0.216675    0.40326   0.114965  
  0.129807   0.398746  0.0884557  
  0.400331   0.420435   0.278028  
  0.373194   0.415808   0.224647  
  0.324031   0.410785   0.175038  
  0.256193   0.405709   0.132582  
  0.174304   0.400925   0.100172  
 0.0839437    0.39676   0.080017  
-0.0539548   0.392276  0.0755147  
 -0.138325    0.39076  0.0899648  
 -0.209862   0.390555   0.117365  
 -0.263689   0.391675   0.155849  
 -0.296139   0.394044   0.202794  
-0.00872986   0.393497  0.0734906  
-0.0974011   0.391358  0.0810376  
 -0.176027    0.39049   0.102144  
  -0.23925   0.390952    0.13537  
 -0.282761   0.392711   0.178453  
 -0.303595   0.395649   0.228456  
 -0.289668   0.401808    0.30891  
 -0.251189   0.406675   0.360849  
 -0.192184   0.411768   0.407279  
 -0.116675    0.41674   0.445035  
-0.0298067   0.421254   0.471544  
 -0.300331   0.399565   0.281972  
 -0.273194   0.404192   0.335353  
 -0.224031   0.409215   0.384962  
 -0.156193   0.414291   0.427418  
-0.0743041   0.419075   0.459828  
 0.0160563    0.42324   0.479983  
  0.153955   0.427724   0.484485  
  0.238325    0.42924   0.470035  
  0.309862   0.429445   0.442635  
  0.363689   0.428325   0.404151  
  0.396139   0.425956   0.357206  
   0.10873   0.426503   0.486509  
  0.197401   0.428642   0.478962  
  0.276027    0.42951   0.457856  
   0.33925   0.429048    0.42463  
  0.382761   0.427289   0.381547  
  0.403595   0.424351   0.331544  
    -0.765     -0.301     -0.628  
    -0.745     -0.137     -0.516  
    -0.725      0.027     -0.404  
    -0.705      0.191     -0.292  
    -0.775     -0.383     -0.684  
    -0.755     -0.219     -0.572  
    -0.735     -0.055      -0.46  
    -0.715      0.109     -0.348  
    -0.695      0.273     -0.236  
     0.655     -0.251     -0.528  
     0.675     -0.087     -0.416  
     0.695      0.077     -0.304  
     0.715      0.241     -0.192  
     0.645     -0.333     -0.584  
     0.665     -0.169     -0.472  
     0.685     -0.005      -0.36  
     0.705      0.159     -0.248  
     0.725      0.323     -0.136  
     0.705     -0.191      0.292  
     0.725     -0.027      0.404  
     0.745      0.137      0.516  
     0.765      0.301      0.628  
     0.695     -0.273      0.236  
     0.715     -0.109      0.348  
     0.735      0.055       0.46  
     0.755      0.219      0.572  
     0.775      0.383      0.684  
    -0.715     -0.241      0.192  
    -0.695     -0.077      0.304  
    -0.675      0.087      0.416  
    -0.655      0.251      0.528  
    -0.725     -0.323      0.136  
    -0.705     -0.159      0.248  
    -0.685      0.005       0.36  
    -0.665      0.169      0.472  
    -0.645      0.333      0.584  
     0.325    -0.2335     -0.143  
     0.345    -0.0695     -0.031  
     0.365     0.0945      0.081  
     0.385     0.2585      0.193  
     0.315    -0.3155     -0.199  
     0.335    -0.1515     -0.087  
     0.355     0.0125      0.025  
     0.375     0.1765      0.137  
     0.395     0.3405      0.249  
   -0.0425     -0.261     -0.373  
   -0.0225     -0.097     -0.261  
   -0.0025      0.067     -0.149  
    0.0175      0.231     -0.037  
   -0.0525     -0.343     -0.429  
   -0.0325     -0.179     -0.317  
   -0.0125     -0.015     -0.205  
    0.0075      0.149     -0.093  
    0.0275      0.313      0.019  
    -0.385    -0.2585     -0.193  
    -0.365    -0.0945     -0.081  
    -0.345     0.0695      0.031  
    -0.325     0.2335      0.143  
    -0.395    -0.3405     -0.249  
    -0.375    -0.1765     -0.137  
    -0.355    -0.0125     -0.025  
    -0.335     0.1515      0.087  
    -0.315     0.3155      0.199  
   -0.0175     -0.231      0.037  
    0.0025     -0.067      0.149  
    0.0225      0.097      0.261  
    0.0425      0.261      0.373  
   -0.0275     -0.313     -0.019  
   -0.0075     -0.149      0.093  
    0.0125      0.015      0.205  
    0.0325      0.179      0.317  
    0.0525      0.343      0.429  
 -0.382833  -0.434304  -0.479865  
  0.242861  -0.412845  -0.443835  
 -0.345022  -0.407148  -0.115159  
  0.283608  -0.385687 -0.0803377  
  0.358531  -0.401593  -0.335031  
 -0.204819  -0.433748  -0.547415  
  0.110299  -0.387387 -0.0308148  
 -0.458613  -0.418411  -0.224984  
  0.406349   -0.38977  -0.189517  
 -0.135532  -0.394442 -0.0256824  
 0.0521642  -0.423291  -0.509566  
 -0.506324  -0.430231  -0.370506  
  -0.57007  -0.410272 -0.0637129  
  -0.50335  -0.447702  -0.616696  
  0.408715  -0.371883  0.0602415  
  0.467187  -0.409797  -0.496033  
  -0.65883  -0.441993  -0.470852  
  0.117521  -0.428686  -0.612858  
 -0.286196  -0.393718  0.0482216  
  0.558824  -0.378009 -0.0891733  
  0.207502  -0.385668 -0.0478549  
  0.152272   -0.38224  0.0235748  
 0.0370093  -0.385041  0.0330854  
  0.368471  -0.379734  -0.032796  
 -0.413597  -0.412779  -0.165081  
 -0.546698   -0.41992  -0.208864  
 -0.581451  -0.425916   -0.27821  
 -0.414413  -0.406215  -0.072715  
  0.312934  -0.407231  -0.394786  
  0.446605  -0.400083  -0.351135  
  0.481427  -0.394086  -0.281798  
  0.309396   -0.41384  -0.485943  
-0.0606017  -0.428106   -0.52935  
 -0.309962  -0.434716  -0.516481  
 -0.465631  -0.440121  -0.526369  
  0.154901  -0.418157  -0.481069  
  0.344029  -0.387033  -0.124774  
 -0.443682  -0.432957  -0.435229  
 -0.258107  -0.401487 -0.0725831  
-0.0383097  -0.430935  -0.578442  
 -0.643606  -0.447583  -0.555671  
  0.320384  -0.420485  -0.583748  
 -0.436333  -0.399845  0.0258745  
  0.543608  -0.372417 -0.00433288  
 -0.160069  -0.389311  0.0566238  
  0.553546  -0.383369  -0.162083  
  -0.65354  -0.436632  -0.397931  
 -0.161108  -0.436543  -0.605094  
 0.0910664  -0.425465  -0.556506  
 -0.487506  -0.424086  -0.292323  
-0.0023932  -0.390333 -0.0244351  
  0.387487  -0.395915  -0.267685  
 -0.624543  -0.432127   -0.34705  
  0.524543  -0.387874  -0.212961  
-0.0760526   -0.38742  0.0475865  
  0.210824  -0.419614  -0.525166  
 -0.530699  -0.438903  -0.481763  
  0.431377  -0.381066 -0.0780894  
 -0.325613  -0.400384 -0.0285404  
  0.530052  -0.401417  -0.405158  
   0.25958  -0.374879  0.0813524  
 -0.319551  -0.441961  -0.613993  
  -0.63037  -0.418591  -0.154823  
 -0.632276  -0.452972  -0.636013  
  0.475481  -0.414579  -0.566588  
 -0.578963  -0.405497 0.00699202  
   0.53324  -0.366954  0.0766361  
-0.00186812  -0.433472  -0.629432  
 -0.510171  -0.412096  -0.114632  
 -0.396623  -0.441234  -0.571178  
  0.310594  -0.377933  0.0169494  
  0.409962  -0.407906  -0.445305  
  0.555069  -0.392563  -0.291626  
 0.0657487  -0.380971  0.0779792  
  -0.65509  -0.427437  -0.268378  
  0.365881  -0.414482  -0.518847  
  0.435058  -0.374897 0.00683177  
 -0.531781  -0.444892   -0.56527  
 -0.472908  -0.405632 -0.0397783  
 -0.231401  -0.394227   0.017903  
  -0.59726   -0.43749  -0.433787  
  0.497379  -0.382506   -0.12621  
  0.547126  -0.396733  -0.346721  
  0.160455  -0.377823  0.0820355  
 -0.647206  -0.423269  -0.213275  
 -0.250311  -0.441549  -0.637522  
 -0.136999  -0.438245  -0.639163  
  0.265604   -0.42005  -0.554457  
  0.150945  -0.422539  -0.540836  
  0.104294  -0.427075  -0.584682  
  0.218953  -0.424585  -0.598303  
  0.184949  -0.423562  -0.569569  
  0.539045  -0.385621  -0.187522  
  0.525463  -0.382937  -0.144147  
  0.451864  -0.386138  -0.157864  
  0.465446  -0.388822  -0.201239  
  0.495454   -0.38588  -0.172693  
 -0.118061  -0.388366  0.0521052  
 -0.195735  -0.391769  0.0372634  
 -0.183466  -0.394334 -0.00388972  
 -0.105792  -0.390931  0.0109521  
 -0.150764   -0.39135  0.0241077  
 -0.639042  -0.434379   -0.37249  
   -0.6254  -0.437061  -0.415859  
 -0.551792  -0.433861  -0.402147  
 -0.565433  -0.431179  -0.358778  
 -0.595417   -0.43412  -0.387318  
 -0.708053  -0.448792  -0.545335  
 -0.651218  -0.444788  -0.513261  
  -0.71254  -0.442246  -0.451676  
 -0.710297  -0.445519  -0.498506  
  0.300192  -0.423993  -0.624374  
   0.11001  -0.431218  -0.645179  
  0.205101  -0.427605  -0.634776  
 -0.408166  -0.396172  0.0654372  
 -0.361264  -0.396781   0.037048  
 -0.244348  -0.389984  0.0828608  
 -0.326257  -0.393078   0.074149  
  0.608054  -0.371208 -0.0146664  
  0.551216  -0.375213 -0.0467531  
  0.612537  -0.377755  -0.108337  
  0.610295  -0.374481 -0.0615015  
 -0.379717  -0.406682 -0.0939372  
 -0.462292  -0.409156 -0.0936737  
 -0.461884  -0.412438  -0.139857  
  -0.37931  -0.409964   -0.14012  
 -0.420801   -0.40956  -0.116897  
 -0.424232  -0.437212  -0.503117  
 -0.431127  -0.440677  -0.548774  
 -0.353293  -0.437975   -0.54383  
 -0.346397   -0.43451  -0.498173  
 -0.388762  -0.437594  -0.523473  
   0.32604  -0.382711 -0.0565668  
  0.339532  -0.378834 -0.00792332  
  0.259048    -0.3818 -0.0154528  
  0.245555  -0.385677 -0.0640963  
  0.292544  -0.382255 -0.0360098  
  0.276128  -0.413343  -0.464889  
  0.359679  -0.410873  -0.465624  
  0.361448  -0.407569  -0.420046  
  0.277897  -0.410038   -0.41931  
  0.318788  -0.410456  -0.442467  
 -0.382393  -0.413052  -0.182116  
 -0.318603   -0.40769   -0.13394  
  -0.35167  -0.410375  -0.157579  
  0.172914  -0.388214 -0.0689099  
  0.246735  -0.388121 -0.0988516  
  0.210791  -0.388084 -0.0831199  
 -0.274143  -0.431978  -0.493258  
 -0.346348  -0.431875   -0.46125  
 -0.311212   -0.43201  -0.478015  
  0.282062  -0.406953  -0.377818  
  0.217522  -0.412307  -0.425557  
  0.250964  -0.409626  -0.402136  
  0.592271  -0.386437   -0.22148  
  0.609898  -0.380435  -0.144791  
  0.601085  -0.383436  -0.183136  
-0.0505263   -0.38371  0.0887933  
 -0.181285  -0.387781  0.0870619  
 -0.115905  -0.385745  0.0879276  
 -0.692271  -0.433563  -0.338525  
 -0.709895  -0.439566  -0.415215  
 -0.701083  -0.436565   -0.37687  
 -0.251405    -0.4439  -0.670011  
 -0.194749  -0.442248  -0.670832  
 -0.149053  -0.437394  -0.622129  
 -0.205709  -0.439046  -0.621308  
 -0.200229  -0.440647   -0.64607  
 -0.284931  -0.441755  -0.625757  
 -0.374776   -0.44723  -0.664496  
 -0.313091  -0.445565  -0.667254  
 -0.619888  -0.455861  -0.681756  
 -0.705513  -0.455236  -0.636756  
 -0.700881  -0.458556  -0.685253  
  0.558366   -0.41104  -0.552044  
  0.466491  -0.417915  -0.609544  
  0.552308  -0.414582  -0.599147  
 -0.660107  -0.408999 -0.00775399  
 -0.568232  -0.402124   0.049746  
 -0.653178  -0.405437   0.039248  
   0.52037  -0.364102   0.122068  
  0.605995  -0.364727  0.0770681  
  0.601122  -0.361426   0.125409  
  0.588776  -0.400708  -0.420079  
  0.600438  -0.394617  -0.339611  
  0.538589  -0.399075   -0.37594  
  0.594607  -0.397663  -0.379845  
   0.29479   -0.37119   0.118176  
  0.156477  -0.375786   0.112268  
  0.210017  -0.376351  0.0816939  
  0.225634  -0.373488   0.115222  
 -0.688935  -0.419296  -0.139912  
 -0.700478  -0.425384  -0.220388  
 -0.638788   -0.42093  -0.184049  
 -0.694706   -0.42234   -0.18015  
  -0.45462  -0.402738 -0.00695189  
  -0.44366  -0.405923 -0.0562466  
 -0.370013  -0.403299 -0.0506277  
 -0.380973  -0.400114 -0.00133298  
 -0.412316  -0.403019 -0.0287898  
 -0.587693  -0.446238   -0.56047  
 -0.498706  -0.442506   -0.54582  
 -0.498165  -0.439512  -0.504066  
 -0.587152  -0.443243  -0.518717  
 -0.542929  -0.442875  -0.532268  
  0.489333  -0.373657 0.00124945  
  0.401764  -0.377316 -0.0129821  
  0.399924    -0.3804 -0.0554427  
  0.487492  -0.376741 -0.0412112  
  0.444628  -0.377029 -0.0270966  
  0.343133  -0.417484  -0.551297  
  0.337638  -0.414161  -0.502395  
   0.26011  -0.416727  -0.505555  
  0.301621  -0.417105  -0.528426  
  0.464378  -0.381786   -0.10215  
  0.387703  -0.384049  -0.101432  
  0.375189  -0.388401  -0.157145  
  0.419784  -0.385094  -0.129648  
 -0.563979  -0.438197  -0.457775  
  -0.48719   -0.43593  -0.458496  
 -0.475003  -0.431594  -0.402868  
 -0.519491  -0.434895  -0.430321  
 -0.278507  -0.397305 -0.00531873  
  -0.29186  -0.400935 -0.0505618  
 -0.196819  -0.397964 -0.0491328  
 -0.237663  -0.397635 -0.0272257  
 -0.466675  -0.450101  -0.665848  
 -0.567813  -0.450337  -0.626354  
 -0.543281  -0.452981  -0.673802  
  0.557343  -0.404898  -0.465516  
  0.471334  -0.412188   -0.53131  
  0.557854  -0.407969   -0.50878  
 -0.658785  -0.415136 -0.0943565  
 -0.574516  -0.407885 -0.0283604  
 -0.659446  -0.412067 -0.0510552  
  0.369358  -0.369691   0.107621  
  0.470978  -0.369419  0.0684388  
  0.444864  -0.366897   0.114844  
 -0.413258   -0.43363  -0.457547  
 -0.403686  -0.430641   -0.41969  
 -0.376254  -0.431339  -0.441088  
  0.198881  -0.415501  -0.462452  
  0.135788  -0.417449  -0.463052  
  0.177537  -0.414896  -0.444935  
 -0.301564  -0.404318 -0.0938713  
 -0.237391  -0.402373 -0.0937739  
 -0.278879  -0.405013  -0.113226  
  0.313819   -0.38636  -0.102556  
  0.303859  -0.389354  -0.140312  
  0.276534  -0.388656  -0.118963  
 -0.258798  -0.393972  0.0330623  
 -0.220041  -0.390877  0.0600621  
  0.528102  -0.380258  -0.107692  
     0.569  -0.380346  -0.126242  
 -0.628045  -0.439742   -0.45232  
  -0.66897  -0.439654  -0.433767  
  0.182863  -0.418885  -0.503118  
  0.103533  -0.420724  -0.495318  
 0.0716153  -0.424378  -0.533036  
  0.127239  -0.421632  -0.518077  
 -0.521489  -0.407952 -0.0517456  
 -0.507648  -0.402671  0.0164332  
 -0.514568  -0.405311 -0.0176562  
 -0.517565  -0.446297  -0.590983  
 -0.637941  -0.450278  -0.595842  
 -0.577753  -0.448288  -0.593412  
  0.421887   -0.37339  0.0335366  
  0.538424  -0.369686  0.0361516  
  0.480155  -0.371538  0.0348441  
  0.416534   -0.41214   -0.50744  
  0.397933  -0.417532  -0.575168  
  0.407233  -0.414836  -0.541304  
-0.00421877  -0.425698  -0.519458  
-0.0494557  -0.429521  -0.553896  
 0.0263783    -0.4282  -0.567474  
 0.0110798  -0.426949  -0.543466  
 -0.496915  -0.427159  -0.331415  
 -0.451231  -0.428094  -0.363856  
 -0.446253  -0.423293  -0.298662  
 -0.450255  -0.425755  -0.331479  
 0.0409854  -0.422272  -0.490555  
-0.0615509  -0.426553  -0.507175  
-0.0101375  -0.424469  -0.499721  
-0.0689626  -0.392387 -0.0250587  
 -0.132669  -0.396594  -0.057069  
-0.0199466  -0.392667 -0.0497175  
-0.0764532  -0.394574 -0.0525378  
  0.396918  -0.392842  -0.228601  
  0.351244  -0.391907  -0.196155  
  0.346243  -0.396707  -0.261343  
  0.350256  -0.394246  -0.228529  
  0.373009  -0.398754  -0.301358  
    0.3241    -0.4017   -0.32197  
   0.33667  -0.399159  -0.291665  
 -0.473059  -0.421249  -0.258653  
 -0.424141  -0.418301  -0.238037  
 -0.436695  -0.420842  -0.268341  
 0.0539528   -0.38886 -0.0276249  
 0.0821268  -0.389831 -0.0531648  
 0.0313413  -0.391178 -0.0505578  
 0.0889184  -0.419899  -0.477573  
  0.328975  -0.390556  -0.167799  
 -0.428882  -0.429441  -0.392207  
 -0.185562  -0.399445 -0.0746523  
  0.229496  -0.416114  -0.484003  
 -0.455711  -0.436571  -0.480807  
  0.356871   -0.38338 -0.0789992  
 -0.335788  -0.403809 -0.0722495  
  -0.13271  -0.430927  -0.538382  
 -0.179387  -0.430736   -0.51595  
  -0.12072  -0.428715  -0.512446  
 -0.534479  -0.425001  -0.285266  
 -0.602997  -0.429021   -0.31263  
 -0.549956   -0.42809  -0.322022  
  0.017308  -0.387687 0.00432519  
-0.0195217   -0.38623   0.040336  
-0.0442421  -0.389309 0.00763862  
  0.434457     -0.395  -0.274742  
  0.502985   -0.39098  -0.247379  
  0.449951  -0.391911   -0.23799  
 -0.182963  -0.435146  -0.576254  
-0.0997088  -0.433739  -0.591768  
 -0.116209  -0.432333  -0.565075  
 -0.706783  -0.452014  -0.591046  
  0.383341  -0.420954  -0.616959  
 -0.488199  -0.399148  0.0575916  
  0.607024  -0.367968  0.0312008  
 -0.436105  -0.415595  -0.195033  
 -0.404649  -0.415702   -0.20984  
  -0.25739  -0.434232  -0.531948  
 -0.227396  -0.431437  -0.505455  
    0.1589  -0.386527 -0.0393349  
  0.128151  -0.388943 -0.0601862  
  0.335733  -0.404412  -0.364908  
  0.304463  -0.404302  -0.350131  
 -0.502655  -0.419166  -0.216924  
 -0.564075  -0.422918  -0.243537  
 -0.518567  -0.422083  -0.251095  
  0.131285  -0.384813 -0.00362001  
 0.0946407   -0.38364  0.0283301  
 0.0742967   -0.38625 0.000352589  
  0.402568  -0.400838  -0.343083  
  0.464016  -0.397084  -0.316466  
  0.418512  -0.397919  -0.308912  
-0.0200889  -0.432203  -0.603937  
 0.0578264  -0.431079  -0.621145  
 0.0421023  -0.429639  -0.594309  
 -0.528435  -0.416008  -0.161748  
  -0.48227  -0.415802   -0.17839  
 -0.358087  -0.441597  -0.592586  
 -0.262185  -0.437855  -0.580704  
 -0.307739  -0.437915  -0.562267  
  0.231433  -0.380086  0.0202621  
  0.195167  -0.383307 -0.00953639  
  0.428283  -0.403994   -0.39822  
  0.382008  -0.404203  -0.381564  
-0.0384341  -0.436736  -0.659716  
 0.0357882  -0.433977  -0.652447  
 -0.233947   -0.43845  -0.601006  
  0.496865  -0.398408  -0.348928  
  0.470007  -0.404661  -0.425232  
  0.483436  -0.401535   -0.38708  
 -0.596952  -0.421595  -0.211069  
 -0.570271  -0.415344  -0.134728  
 -0.583611  -0.418469  -0.172899  
  0.156363  -0.380031  0.0528051  
  0.285087  -0.376406  0.0491509  
  0.220725  -0.378219   0.050978  
  0.518248  -0.393325  -0.286712  
  0.607534  -0.388782  -0.260813  
  0.555259  -0.389881  -0.254096  
  0.051379  -0.383006  0.0555323  
 0.0203744  -0.380486    0.10399  
0.000426352  -0.383358  0.0721628  
 -0.618271  -0.426677  -0.273294  
 -0.707545  -0.431219  -0.299189  
 -0.655271   -0.43012  -0.305909  
  0.507797  -0.378499 -0.0744515  
 -0.607599  -0.441492  -0.485518  
 -0.319885  -0.397043  0.0158647  
  0.438574  -0.408851  -0.470669  
  0.513675   -0.40478  -0.445374  
  0.359655  -0.374908  0.0385954  
  0.327222  -0.373049  0.0783858  
 -0.449987  -0.444468  -0.593937  
 -0.412381  -0.445849  -0.629217  
  -0.54012  -0.411184 -0.0891727  
 -0.614528   -0.41524  -0.114542  
-0.0694333  -0.435859  -0.634298  
 -0.084571  -0.434799  -0.613033  
 -0.116592  -0.439492  -0.665274  
  0.388106  -0.411506  -0.486532  
 -0.474346  -0.443487  -0.569878  
  0.380709  -0.376112  0.0128067  
  -0.49189  -0.408554 -0.0727096  
  0.551097  -0.394648  -0.319174  
  0.507556  -0.395866   -0.31782  
  0.113102  -0.379397  0.0800073  
  0.103871  -0.381519  0.0541687  
 -0.651148  -0.425353  -0.240827  
 -0.607611  -0.424136  -0.242182  
  0.603986  -0.391699  -0.300212  
 0.0884258  -0.378136   0.108129  
 -0.704011  -0.428302  -0.259788  
  0.180805  -0.407131  -0.337462  
 -0.287322  -0.412496  -0.214553  
 0.0869001  -0.395608   -0.13617  
 -0.195376  -0.425769   -0.43955  
 -0.133722  -0.402848  -0.144296  
 0.0374855  -0.417294  -0.419285  
 -0.307373  -0.423043  -0.353926  
  0.210613  -0.396607  -0.202536  
 -0.301383  -0.425277  -0.387784  
 -0.223269  -0.420423  -0.352799  
 -0.220567   -0.41644  -0.298104  
 -0.150945  -0.415187  -0.309999  
   -0.1597  -0.411501  -0.254614  
 -0.105851  -0.411716  -0.280421  
-0.0445105  -0.412599  -0.318755  
 0.0150482  -0.406987  -0.265284  
-0.0488278  -0.406252  -0.227946  
 0.0305115  -0.410609  -0.322615  
 0.0702902  -0.407212  -0.291822  
 -0.041869   -0.41677  -0.378354  
 -0.139644  -0.417258  -0.343816  
 -0.118544  -0.408149  -0.225045  
-0.0567115   -0.40264  -0.173975  
 0.0457912  -0.400697  -0.190115  
 0.0601214   -0.40349  -0.235346  
 -0.210786  -0.410593  -0.220272  
  0.133377  -0.398487  -0.196199  
  0.122044   -0.40737  -0.315945  
 0.0566806  -0.412547  -0.360857  
-0.0480087   -0.42062  -0.429733  
  0.133811  -0.411598  -0.380189  
 -0.313769  -0.419818  -0.306006  
  0.132395  -0.402197  -0.247805  
  0.217277  -0.399729  -0.249126  
  0.152325  -0.394866  -0.153454  
  -0.23016  -0.424282  -0.403971  
 -0.127641  -0.406064  -0.191957  
 -0.053043  -0.399301  -0.128715  
 -0.208636  -0.406561  -0.164649  
 -0.250955  -0.414673  -0.260464  
  0.156696  -0.404322  -0.287876  
  0.208543  -0.394383  -0.170479  
 -0.131327  -0.420313  -0.390168  
 -0.307139  -0.416203  -0.258142  
  0.209225  -0.403256  -0.295162  
-0.000727001  -0.400125  -0.162417  
 0.0212221  -0.396947  -0.127144  
 -0.262533  -0.409165  -0.178344  
 0.0958766  -0.415137  -0.413748  
 -0.134368  -0.423687  -0.436173  
-0.00526162  -0.418957  -0.424509  
  0.047083  -0.414921  -0.390071  
0.00740576  -0.414659  -0.369606  
-0.0449389  -0.418695  -0.404044  
0.00107207  -0.416808  -0.397057  
 0.0336461  -0.419274  -0.445415  
-0.0552544   -0.42281  -0.457367  
-0.0106589  -0.421099  -0.452246  
-0.0933826  -0.401074  -0.136506  
 -0.130681  -0.404456  -0.168126  
-0.0921761  -0.404352  -0.182966  
-0.0548773   -0.40097  -0.151345  
-0.0927793  -0.402713  -0.159736  
 0.0663457  -0.398152  -0.163142  
 0.0895841  -0.399592  -0.193157  
  0.142851  -0.396676  -0.174826  
  0.119613  -0.395237  -0.144812  
  0.104598  -0.397414  -0.168984  
  -0.21685  -0.427505  -0.454793  
 -0.212768  -0.425025   -0.42176  
 -0.270011  -0.426863  -0.423303  
 -0.244398  -0.427268  -0.439808  
  0.157308  -0.409364  -0.358825  
  0.162998  -0.411683  -0.393734  
  0.215997  -0.406903  -0.349156  
   0.19067  -0.409289  -0.371894  
 -0.131764  -0.400797  -0.116376  
-0.0452715   -0.39715  -0.101858  
-0.0886632  -0.398917  -0.108261  
  0.253376  -0.395325  -0.202665  
  0.213945  -0.398168  -0.225831  
  0.261139  -0.398615  -0.252063  
   0.25877  -0.396909  -0.227143  
 0.0375848  -0.405239  -0.250315  
 0.0529563  -0.402094  -0.212731  
-0.00151834  -0.403474  -0.209031  
-0.0168898  -0.406619  -0.246615  
 0.0180332  -0.404356  -0.229673  
 -0.171179  -0.404704  -0.154472  
 -0.212655   -0.40491  -0.139807  
 -0.172741  -0.402815  -0.127322  
 0.0426692  -0.407099  -0.278553  
-0.0147311  -0.409793  -0.292019  
-0.00699951  -0.411604  -0.320685  
 0.0504008  -0.408911  -0.307218  
 0.0178348  -0.409352  -0.299619  
-0.0773392  -0.408984  -0.254184  
-0.0751805  -0.412157  -0.299588  
-0.0460352  -0.409388  -0.273101  
 -0.083686    -0.4072  -0.226496  
 -0.139122  -0.409825   -0.23983  
 -0.132775  -0.411608  -0.267518  
 -0.108231  -0.409404  -0.247007  
-0.0920774  -0.414928  -0.331285  
 -0.128398  -0.413452   -0.29521  
 -0.145295  -0.416223  -0.326907  
 -0.110238   -0.41419  -0.313248  
 -0.190133  -0.413971  -0.276359  
 -0.185756  -0.415814  -0.304051  
 -0.159266  -0.413711  -0.285784  
 -0.221918  -0.418432  -0.325451  
 -0.181457  -0.418841  -0.348307  
 -0.183606  -0.417327  -0.326179  
 -0.135486  -0.418786  -0.366992  
 -0.226714  -0.422352  -0.378385  
 -0.180744  -0.422297   -0.39707  
   -0.1811  -0.420569  -0.372688  
 -0.351756    -0.4245  -0.355566  
 -0.310571   -0.42143  -0.329966  
 -0.359385  -0.421159  -0.305503  
 -0.357083  -0.422891  -0.330755  
-0.0431898  -0.414684  -0.348555  
  0.043596  -0.411578  -0.341736  
0.000203124  -0.413131  -0.345145  
-0.0527697  -0.404446   -0.20096  
 -0.123092  -0.407106  -0.208501  
 -0.087931  -0.405776  -0.204731  
 0.0962583  -0.402844  -0.241576  
  0.132886  -0.400342  -0.222002  
 0.0929212  -0.401218  -0.217366  
  0.112613  -0.393184  -0.113067  
  0.181093   -0.39271   -0.13541  
   0.14782  -0.392863  -0.123478  
  0.151424  -0.407251  -0.326703  
  0.089362  -0.409959  -0.338401  
 0.0952458  -0.412072  -0.370523  
  0.123335  -0.409662  -0.348613  
 -0.267168  -0.418129  -0.302055  
 -0.265321  -0.421733  -0.353362  
 -0.266244  -0.419931  -0.327708  
  0.101343  -0.404705  -0.269814  
 0.0694638  -0.404972  -0.260064  
 0.0961669  -0.407291  -0.303883  
 0.0698814  -0.409435   -0.32281  
  0.066681  -0.416215  -0.416517  
  0.114844  -0.413367  -0.396968  
 0.0809634  -0.414144   -0.39352  
  0.174836  -0.400963  -0.248466  
  0.171995  -0.397547  -0.199367  
  0.173416  -0.399255  -0.223917  
 -0.235761  -0.415557  -0.279284  
 -0.279047  -0.415438  -0.259303  
 -0.310454  -0.418011  -0.282074  
 -0.273107  -0.416784  -0.280679  
-0.0865983  -0.418542  -0.384261  
-0.0893378  -0.416735  -0.357773  
 -0.265771  -0.424779  -0.395877  
 -0.332536  -0.426801  -0.395967  
 -0.302511  -0.426914  -0.410254  
 -0.304378   -0.42416  -0.370855  
 -0.343569  -0.425724  -0.376201  
 -0.230871  -0.412633  -0.240368  
 -0.185243  -0.411047  -0.237443  
 -0.210502  -0.413302  -0.258363  
 -0.169214  -0.408329  -0.206115  
 -0.154168  -0.409077  -0.222972  
 -0.249054  -0.411545  -0.217413  
 -0.209711  -0.408577   -0.19246  
 -0.235584  -0.407863  -0.171496  
 -0.274928   -0.41083  -0.196448  
 -0.242319  -0.409704  -0.194454  
-0.0911885  -0.422154  -0.432953  
 -0.144162  -0.425705  -0.460329  
-0.0999592  -0.424328  -0.459731  
 0.0225321  -0.400411  -0.176266  
-0.0287193  -0.401383  -0.168196  
-0.0151188  -0.402428  -0.188613  
  0.236116  -0.393029  -0.163164  
  0.209578  -0.395495  -0.186507  
  0.246169  -0.394103   -0.18248  
 -0.265546  -0.423256   -0.37462  
 -0.348404  -0.417198  -0.254616  
 -0.297231   -0.41435  -0.236348  
 -0.319256  -0.412911  -0.206852  
 -0.335212  -0.415079  -0.230497  
 -0.170196  -0.406516  -0.180293  
  0.249447  -0.402532  -0.302036  
  0.195015  -0.405194  -0.316312  
  0.234104  -0.404693  -0.325833  
-0.0159105  -0.398124   -0.12793  
 0.0375885  -0.394611   -0.10133  
-0.0035903   -0.39581   -0.10071  
 0.0540611  -0.396277  -0.131657  
 0.0757311  -0.393818  -0.106347  
 -0.277359  -0.408699  -0.165532  
 -0.299479  -0.410808  -0.185743  
  0.106276  -0.415938  -0.429392  
 0.0704926  -0.417645  -0.438172  
 -0.164872  -0.424728  -0.437861  
 -0.181136  -0.426685  -0.458412  
  0.135519  -0.413829  -0.412193  
  0.144545   -0.40326  -0.267841  
   0.18296  -0.403789  -0.291519  
  0.213251  -0.401493  -0.272144  
  0.178898  -0.402376  -0.269992  
  0.256791  -0.400529  -0.277058  
   0.13937  -0.405846   -0.30191  
  0.120356  -0.405275  -0.285862  
 -0.355393  -0.419223  -0.280051  
 -0.245889  -0.406786  -0.152039  
  0.180434  -0.394624  -0.161966  
  0.209842  -0.392788  -0.148668  
 -0.264051  -0.413491  -0.238358  
  0.176214  -0.396086  -0.180667  
 -0.132848     -0.422  -0.413171  
 -0.172808  -0.423513  -0.417466  
-0.0888934  -0.420348  -0.408607  
  0.167192   -0.40552  -0.309111  
 0.0102476  -0.398536  -0.144781  
 0.0382966  -0.398344  -0.153962  
-0.0223149  -0.399753  -0.148063  
   -0.5875   -0.29475    -0.6155  
   -0.5675   -0.13075    -0.5035  
   -0.5475    0.03325    -0.3915  
   -0.5275    0.19725    -0.2795  
     -0.41    -0.2885     -0.603  
     -0.39    -0.1245     -0.491  
     -0.37     0.0395     -0.379  
     -0.35     0.2035     -0.267  
   -0.2325   -0.28225    -0.5905  
   -0.2125   -0.11825    -0.4785  
   -0.1925    0.04575    -0.3665  
   -0.1725    0.20975    -0.2545  
    -0.055     -0.276     -0.578  
    -0.035     -0.112     -0.466  
    -0.015      0.052     -0.354  
     0.005      0.216     -0.242  
    0.1225   -0.26975    -0.5655  
    0.1425   -0.10575    -0.4535  
    0.1625    0.05825    -0.3415  
    0.1825    0.22225    -0.2295  
       0.3    -0.2635     -0.553  
      0.32    -0.0995     -0.441  
      0.34     0.0645     -0.329  
      0.36     0.2285     -0.217  
    0.4775   -0.25725    -0.5405  
    0.4975   -0.09325    -0.4285  
    0.5175    0.07075    -0.3165  
    0.5375    0.23475    -0.2045  
   -0.5975   -0.37675    -0.6715  
  -0.67625  -0.297875   -0.62175  
  -0.68625  -0.379875   -0.67775  
   -0.5775   -0.21275    -0.5595  
  -0.65625  -0.133875   -0.50975  
  -0.66625  -0.215875   -0.56575  
   -0.5575   -0.04875    -0.4475  
  -0.63625   0.030125   -0.39775  
  -0.64625  -0.051875   -0.45375  
   -0.5375    0.11525    -0.3355  
  -0.61625   0.194125   -0.28575  
  -0.62625   0.112125   -0.34175  
   -0.5175    0.27925    -0.2235  
  -0.60625   0.276125   -0.22975  
     -0.42    -0.3705     -0.659  
  -0.49875  -0.291625   -0.60925  
  -0.50875  -0.373625   -0.66525  
      -0.4    -0.2065     -0.547  
  -0.47875  -0.127625   -0.49725  
  -0.48875  -0.209625   -0.55325  
     -0.38    -0.0425     -0.435  
  -0.45875   0.036375   -0.38525  
  -0.46875  -0.045625   -0.44125  
     -0.36     0.1215     -0.323  
  -0.43875   0.200375   -0.27325  
  -0.44875   0.118375   -0.32925  
     -0.34     0.2855     -0.211  
  -0.42875   0.282375   -0.21725  
   -0.2425   -0.36425    -0.6465  
  -0.32125  -0.285375   -0.59675  
  -0.33125  -0.367375   -0.65275  
   -0.2225   -0.20025    -0.5345  
  -0.30125  -0.121375   -0.48475  
  -0.31125  -0.203375   -0.54075  
   -0.2025   -0.03625    -0.4225  
  -0.28125   0.042625   -0.37275  
  -0.29125  -0.039375   -0.42875  
   -0.1825    0.12775    -0.3105  
  -0.26125   0.206625   -0.26075  
  -0.27125   0.124625   -0.31675  
   -0.1625    0.29175    -0.1985  
  -0.25125   0.288625   -0.20475  
    -0.065     -0.358     -0.634  
  -0.14375  -0.279125   -0.58425  
  -0.15375  -0.361125   -0.64025  
    -0.045     -0.194     -0.522  
  -0.12375  -0.115125   -0.47225  
  -0.13375  -0.197125   -0.52825  
    -0.025      -0.03      -0.41  
  -0.10375   0.048875   -0.36025  
  -0.11375  -0.033125   -0.41625  
    -0.005      0.134     -0.298  
  -0.08375   0.212875   -0.24825  
  -0.09375   0.130875   -0.30425  
     0.015      0.298     -0.186  
  -0.07375   0.294875   -0.19225  
    0.1125   -0.35175    -0.6215  
   0.03375  -0.272875   -0.57175  
   0.02375  -0.354875   -0.62775  
    0.1325   -0.18775    -0.5095  
   0.05375  -0.108875   -0.45975  
   0.04375  -0.190875   -0.51575  
    0.1525   -0.02375    -0.3975  
   0.07375   0.055125   -0.34775  
   0.06375  -0.026875   -0.40375  
    0.1725    0.14025    -0.2855  
   0.09375   0.219125   -0.23575  
   0.08375   0.137125   -0.29175  
    0.1925    0.30425    -0.1735  
   0.10375   0.301125   -0.17975  
      0.29    -0.3455     -0.609  
   0.21125  -0.266625   -0.55925  
   0.20125  -0.348625   -0.61525  
      0.31    -0.1815     -0.497  
   0.23125  -0.102625   -0.44725  
   0.22125  -0.184625   -0.50325  
      0.33    -0.0175     -0.385  
   0.25125   0.061375   -0.33525  
   0.24125  -0.020625   -0.39125  
      0.35     0.1465     -0.273  
   0.27125   0.225375   -0.22325  
   0.26125   0.143375   -0.27925  
      0.37     0.3105     -0.161  
   0.28125   0.307375   -0.16725  
    0.4675   -0.33925    -0.5965  
   0.38875  -0.260375   -0.54675  
   0.37875  -0.342375   -0.60275  
    0.4875   -0.17525    -0.4845  
   0.40875  -0.096375   -0.43475  
   0.39875  -0.178375   -0.49075  
    0.5075   -0.01125    -0.3725  
   0.42875   0.067625   -0.32275  
   0.41875  -0.014375   -0.37875  
    0.5275    0.15275    -0.2605  
   0.44875   0.231625   -0.21075  
   0.43875   0.149625   -0.26675  
    0.5475    0.31675    -0.1485  
   0.45875   0.313625   -0.15475  
   0.56625  -0.254125   -0.53425  
   0.55625  -0.336125   -0.59025  
   0.58625  -0.090125   -0.42225  
   0.57625  -0.172125   -0.47825  
   0.60625   0.073875   -0.31025  
   0.59625  -0.008125   -0.36625  
   0.62625   0.237875   -0.19825  
   0.61625   0.155875   -0.25425  
   0.63625   0.319875   -0.14225  
   0.66125    -0.2435    -0.4255  
   0.68125    -0.0795    -0.3135  
   0.70125     0.0845    -0.2015  
   0.72125     0.2485    -0.0895  
    0.6675     -0.236     -0.323  
    0.6875     -0.072     -0.211  
    0.7075      0.092     -0.099  
    0.7275      0.256      0.013  
   0.67375    -0.2285    -0.2205  
   0.69375    -0.0645    -0.1085  
   0.71375     0.0995     0.0035  
   0.73375     0.2635     0.1155  
      0.68     -0.221     -0.118  
       0.7     -0.057     -0.006  
      0.72      0.107      0.106  
      0.74      0.271      0.218  
   0.68625    -0.2135    -0.0155  
   0.70625    -0.0495     0.0965  
   0.72625     0.1145     0.2085  
   0.74625     0.2785     0.3205  
    0.6925     -0.206      0.087  
    0.7125     -0.042      0.199  
    0.7325      0.122      0.311  
    0.7525      0.286      0.423  
   0.69875    -0.1985     0.1895  
   0.71875    -0.0345     0.3015  
   0.73875     0.1295     0.4135  
   0.75875     0.2935     0.5255  
   0.65125    -0.3255    -0.4815  
  0.658125   -0.24725   -0.47675  
  0.648125   -0.32925   -0.53275  
   0.67125    -0.1615    -0.3695  
  0.678125   -0.08325   -0.36475  
  0.668125   -0.16525   -0.42075  
   0.69125     0.0025    -0.2575  
  0.698125    0.08075   -0.25275  
  0.688125   -0.00125   -0.30875  
   0.71125     0.1665    -0.1455  
  0.718125    0.24475   -0.14075  
  0.708125    0.16275   -0.19675  
   0.73125     0.3305    -0.0335  
  0.728125    0.32675   -0.08475  
    0.6575     -0.318     -0.379  
  0.664375   -0.23975   -0.37425  
  0.654375   -0.32175   -0.43025  
    0.6775     -0.154     -0.267  
  0.684375   -0.07575   -0.26225  
  0.674375   -0.15775   -0.31825  
    0.6975       0.01     -0.155  
  0.704375    0.08825   -0.15025  
  0.694375    0.00625   -0.20625  
    0.7175      0.174     -0.043  
  0.724375    0.25225   -0.03825  
  0.714375    0.17025   -0.09425  
    0.7375      0.338      0.069  
  0.734375    0.33425    0.01775  
   0.66375    -0.3105    -0.2765  
  0.670625   -0.23225   -0.27175  
  0.660625   -0.31425   -0.32775  
   0.68375    -0.1465    -0.1645  
  0.690625   -0.06825   -0.15975  
  0.680625   -0.15025   -0.21575  
   0.70375     0.0175    -0.0525  
  0.710625    0.09575   -0.04775  
  0.700625    0.01375   -0.10375  
   0.72375     0.1815     0.0595  
  0.730625    0.25975    0.06425  
  0.720625    0.17775    0.00825  
   0.74375     0.3455     0.1715  
  0.740625    0.34175    0.12025  
      0.67     -0.303     -0.174  
  0.676875   -0.22475   -0.16925  
  0.666875   -0.30675   -0.22525  
      0.69     -0.139     -0.062  
  0.696875   -0.06075   -0.05725  
  0.686875   -0.14275   -0.11325  
      0.71      0.025       0.05  
  0.716875    0.10325    0.05475  
  0.706875    0.02125   -0.00125  
      0.73      0.189      0.162  
  0.736875    0.26725    0.16675  
  0.726875    0.18525    0.11075  
      0.75      0.353      0.274  
  0.746875    0.34925    0.22275  
   0.67625    -0.2955    -0.0715  
  0.683125   -0.21725   -0.06675  
  0.673125   -0.29925   -0.12275  
   0.69625    -0.1315     0.0405  
  0.703125   -0.05325    0.04525  
  0.693125   -0.13525   -0.01075  
   0.71625     0.0325     0.1525  
  0.723125    0.11075    0.15725  
  0.713125    0.02875    0.10125  
   0.73625     0.1965     0.2645  
  0.743125    0.27475    0.26925  
  0.733125    0.19275    0.21325  
   0.75625     0.3605     0.3765  
  0.753125    0.35675    0.32525  
    0.6825     -0.288      0.031  
  0.689375   -0.20975    0.03575  
  0.679375   -0.29175   -0.02025  
    0.7025     -0.124      0.143  
  0.709375   -0.04575    0.14775  
  0.699375   -0.12775    0.09175  
    0.7225       0.04      0.255  
  0.729375    0.11825    0.25975  
  0.719375    0.03625    0.20375  
    0.7425      0.204      0.367  
  0.749375    0.28225    0.37175  
  0.739375    0.20025    0.31575  
    0.7625      0.368      0.479  
  0.759375    0.36425    0.42775  
   0.68875    -0.2805     0.1335  
  0.695625   -0.20225    0.13825  
  0.685625   -0.28425    0.08225  
   0.70875    -0.1165     0.2455  
  0.715625   -0.03825    0.25025  
  0.705625   -0.12025    0.19425  
   0.72875     0.0475     0.3575  
  0.735625    0.12575    0.36225  
  0.725625    0.04375    0.30625  
   0.74875     0.2115     0.4695  
  0.755625    0.28975    0.47425  
  0.745625    0.20775    0.41825  
   0.76875     0.3755     0.5815  
  0.765625    0.37175    0.53025  
  0.701875   -0.19475    0.24075  
  0.691875   -0.27675    0.18475  
  0.721875   -0.03075    0.35275  
  0.711875   -0.11275    0.29675  
  0.741875    0.13325    0.46475  
  0.731875    0.05125    0.40875  
  0.761875    0.29725    0.57675  
  0.751875    0.21525    0.52075  
  0.771875    0.37925    0.63275  
    0.5275   -0.19725     0.2795  
    0.5475   -0.03325     0.3915  
    0.5675    0.13075     0.5035  
    0.5875    0.29475     0.6155  
      0.35    -0.2035      0.267  
      0.37    -0.0395      0.379  
      0.39     0.1245      0.491  
      0.41     0.2885      0.603  
    0.1725   -0.20975     0.2545  
    0.1925   -0.04575     0.3665  
    0.2125    0.11825     0.4785  
    0.2325    0.28225     0.5905  
    -0.005     -0.216      0.242  
     0.015     -0.052      0.354  
     0.035      0.112      0.466  
     0.055      0.276      0.578  
   -0.1825   -0.22225     0.2295  
   -0.1625   -0.05825     0.3415  
   -0.1425    0.10575     0.4535  
   -0.1225    0.26975     0.5655  
     -0.36    -0.2285      0.217  
     -0.34    -0.0645      0.329  
     -0.32     0.0995      0.441  
      -0.3     0.2635      0.553  
   -0.5375   -0.23475     0.2045  
   -0.5175   -0.07075     0.3165  
   -0.4975    0.09325     0.4285  
   -0.4775    0.25725     0.5405  
    0.5175   -0.27925     0.2235  
   0.61625  -0.194125    0.28575  
   0.60625  -0.276125    0.22975  
    0.5375   -0.11525     0.3355  
   0.63625  -0.030125    0.39775  
   0.62625  -0.112125    0.34175  
    0.5575    0.04875     0.4475  
   0.65625   0.133875    0.50975  
   0.64625   0.051875    0.45375  
    0.5775    0.21275     0.5595  
   0.67625   0.297875    0.62175  
   0.66625   0.215875    0.56575  
    0.5975    0.37675     0.6715  
   0.68625   0.379875    0.67775  
      0.34    -0.2855      0.211  
   0.43875  -0.200375    0.27325  
   0.42875  -0.282375    0.21725  
      0.36    -0.1215      0.323  
   0.45875  -0.036375    0.38525  
   0.44875  -0.118375    0.32925  
      0.38     0.0425      0.435  
   0.47875   0.127625    0.49725  
   0.46875   0.045625    0.44125  
       0.4     0.2065      0.547  
   0.49875   0.291625    0.60925  
   0.48875   0.209625    0.55325  
      0.42     0.3705      0.659  
   0.50875   0.373625    0.66525  
    0.1625   -0.29175     0.1985  
   0.26125  -0.206625    0.26075  
   0.25125  -0.288625    0.20475  
    0.1825   -0.12775     0.3105  
   0.28125  -0.042625    0.37275  
   0.27125  -0.124625    0.31675  
    0.2025    0.03625     0.4225  
   0.30125   0.121375    0.48475  
   0.29125   0.039375    0.42875  
    0.2225    0.20025     0.5345  
   0.32125   0.285375    0.59675  
   0.31125   0.203375    0.54075  
    0.2425    0.36425     0.6465  
   0.33125   0.367375    0.65275  
    -0.015     -0.298      0.186  
   0.08375  -0.212875    0.24825  
   0.07375  -0.294875    0.19225  
     0.005     -0.134      0.298  
   0.10375  -0.048875    0.36025  
   0.09375  -0.130875    0.30425  
     0.025       0.03       0.41  
   0.12375   0.115125    0.47225  
   0.11375   0.033125    0.41625  
     0.045      0.194      0.522  
   0.14375   0.279125    0.58425  
   0.13375   0.197125    0.52825  
     0.065      0.358      0.634  
   0.15375   0.361125    0.64025  
   -0.1925   -0.30425     0.1735  
  -0.09375  -0.219125    0.23575  
  -0.10375  -0.301125    0.17975  
   -0.1725   -0.14025     0.2855  
  -0.07375  -0.055125    0.34775  
  -0.08375  -0.137125    0.29175  
   -0.1525    0.02375     0.3975  
  -0.05375   0.108875    0.45975  
  -0.06375   0.026875    0.40375  
   -0.1325    0.18775     0.5095  
  -0.03375   0.272875    0.57175  
  -0.04375   0.190875    0.51575  
   -0.1125    0.35175     0.6215  
  -0.02375   0.354875    0.62775  
     -0.37    -0.3105      0.161  
  -0.27125  -0.225375    0.22325  
  -0.28125  -0.307375    0.16725  
     -0.35    -0.1465      0.273  
  -0.25125  -0.061375    0.33525  
  -0.26125  -0.143375    0.27925  
     -0.33     0.0175      0.385  
  -0.23125   0.102625    0.44725  
  -0.24125   0.020625    0.39125  
     -0.31     0.1815      0.497  
  -0.21125   0.266625    0.55925  
  -0.22125   0.184625    0.50325  
     -0.29     0.3455      0.609  
  -0.20125   0.348625    0.61525  
   -0.5475   -0.31675     0.1485  
  -0.44875  -0.231625    0.21075  
  -0.45875  -0.313625    0.15475  
   -0.5275   -0.15275     0.2605  
  -0.42875  -0.067625    0.32275  
  -0.43875  -0.149625    0.26675  
   -0.5075    0.01125     0.3725  
  -0.40875   0.096375    0.43475  
  -0.41875   0.014375    0.37875  
   -0.4875    0.17525     0.4845  
  -0.38875   0.260375    0.54675  
  -0.39875   0.178375    0.49075  
   -0.4675    0.33925     0.5965  
  -0.37875   0.342375    0.60275  
  -0.62625  -0.237875    0.19825  
  -0.63625  -0.319875    0.14225  
  -0.60625  -0.073875    0.31025  
  -0.61625  -0.155875    0.25425  
  -0.58625   0.090125    0.42225  
  -0.59625   0.008125    0.36625  
  -0.56625   0.254125    0.53425  
  -0.57625   0.172125    0.47825  
  -0.55625   0.336125    0.59025  
  -0.72125    -0.2485     0.0895  
  -0.70125    -0.0845     0.2015  
  -0.68125     0.0795     0.3135  
  -0.66125     0.2435     0.4255  
   -0.7275     -0.256     -0.013  
   -0.7075     -0.092      0.099  
   -0.6875      0.072      0.211  
   -0.6675      0.236      0.323  
  -0.73375    -0.2635    -0.1155  
  -0.71375    -0.0995    -0.0035  
  -0.69375     0.0645     0.1085  
  -0.67375     0.2285     0.2205  
     -0.74     -0.271     -0.218  
     -0.72     -0.107     -0.106  
      -0.7      0.057      0.006  
     -0.68      0.221      0.118  
  -0.74625    -0.2785    -0.3205  
  -0.72625    -0.1145    -0.2085  
  -0.70625     0.0495    -0.0965  
  -0.68625     0.2135     0.0155  
   -0.7525     -0.286     -0.423  
   -0.7325     -0.122     -0.311  
   -0.7125      0.042     -0.199  
   -0.6925      0.206     -0.087  
  -0.75875    -0.2935    -0.5255  
  -0.73875    -0.1295    -0.4135  
  -0.71875     0.0345    -0.3015  
  -0.69875     0.1985    -0.1895  
  -0.73125    -0.3305     0.0335  
 -0.718125   -0.24475    0.14075  
 -0.728125   -0.32675    0.08475  
  -0.71125    -0.1665     0.1455  
 -0.698125   -0.08075    0.25275  
 -0.708125   -0.16275    0.19675  
  -0.69125    -0.0025     0.2575  
 -0.678125    0.08325    0.36475  
 -0.688125    0.00125    0.30875  
  -0.67125     0.1615     0.3695  
 -0.658125    0.24725    0.47675  
 -0.668125    0.16525    0.42075  
  -0.65125     0.3255     0.4815  
 -0.648125    0.32925    0.53275  
   -0.7375     -0.338     -0.069  
 -0.724375   -0.25225    0.03825  
 -0.734375   -0.33425   -0.01775  
   -0.7175     -0.174      0.043  
 -0.704375   -0.08825    0.15025  
 -0.714375   -0.17025    0.09425  
   -0.6975      -0.01      0.155  
 -0.684375    0.07575    0.26225  
 -0.694375   -0.00625    0.20625  
   -0.6775      0.154      0.267  
 -0.664375    0.23975    0.37425  
 -0.674375    0.15775    0.31825  
   -0.6575      0.318      0.379  
 -0.654375    0.32175    0.43025  
  -0.74375    -0.3455    -0.1715  
 -0.730625   -0.25975   -0.06425  
 -0.740625   -0.34175   -0.12025  
  -0.72375    -0.1815    -0.0595  
 -0.710625   -0.09575    0.04775  
 -0.720625   -0.17775   -0.00825  
  -0.70375    -0.0175     0.0525  
 -0.690625    0.06825    0.15975  
 -0.700625   -0.01375    0.10375  
  -0.68375     0.1465     0.1645  
 -0.670625    0.23225    0.27175  
 -0.680625    0.15025    0.21575  
  -0.66375     0.3105     0.2765  
 -0.660625    0.31425    0.32775  
     -0.75     -0.353     -0.274  
 -0.736875   -0.26725   -0.16675  
 -0.746875   -0.34925   -0.22275  
     -0.73     -0.189     -0.162  
 -0.716875   -0.10325   -0.05475  
 -0.726875   -0.18525   -0.11075  
     -0.71     -0.025      -0.05  
 -0.696875    0.06075    0.05725  
 -0.706875   -0.02125    0.00125  
     -0.69      0.139      0.062  
 -0.676875    0.22475    0.16925  
 -0.686875    0.14275    0.11325  
     -0.67      0.303      0.174  
 -0.666875    0.30675    0.22525  
  -0.75625    -0.3605    -0.3765  
 -0.743125   -0.27475   -0.26925  
 -0.753125   -0.35675   -0.32525  
  -0.73625    -0.1965    -0.2645  
 -0.723125   -0.11075   -0.15725  
 -0.733125   -0.19275   -0.21325  
  -0.71625    -0.0325    -0.1525  
 -0.703125    0.05325   -0.04525  
 -0.713125   -0.02875   -0.10125  
  -0.69625     0.1315    -0.0405  
 -0.683125    0.21725    0.06675  
 -0.693125    0.13525    0.01075  
  -0.67625     0.2955     0.0715  
 -0.673125    0.29925    0.12275  
   -0.7625     -0.368     -0.479  
 -0.749375   -0.28225   -0.37175  
 -0.759375   -0.36425   -0.42775  
   -0.7425     -0.204     -0.367  
 -0.729375   -0.11825   -0.25975  
 -0.739375   -0.20025   -0.31575  
   -0.7225      -0.04     -0.255  
 -0.709375    0.04575   -0.14775  
 -0.719375   -0.03625   -0.20375  
   -0.7025      0.124     -0.143  
 -0.689375    0.20975   -0.03575  
 -0.699375    0.12775   -0.09175  
   -0.6825      0.288     -0.031  
 -0.679375    0.29175    0.02025  
  -0.76875    -0.3755    -0.5815  
 -0.755625   -0.28975   -0.47425  
 -0.765625   -0.37175   -0.53025  
  -0.74875    -0.2115    -0.4695  
 -0.735625   -0.12575   -0.36225  
 -0.745625   -0.20775   -0.41825  
  -0.72875    -0.0475    -0.3575  
 -0.715625    0.03825   -0.25025  
 -0.725625   -0.04375   -0.30625  
  -0.70875     0.1165    -0.2455  
 -0.695625    0.20225   -0.13825  
 -0.705625    0.12025   -0.19425  
  -0.68875     0.2805    -0.1335  
 -0.685625    0.28425   -0.08225  
 -0.761875   -0.29725   -0.57675  
 -0.771875   -0.37925   -0.63275  
 -0.741875   -0.13325   -0.46475  
 -0.751875   -0.21525   -0.52075  
 -0.721875    0.03075   -0.35275  
 -0.731875   -0.05125   -0.40875  
 -0.701875    0.19475   -0.24075  
 -0.711875    0.11275   -0.29675  
 -0.691875    0.27675   -0.18475  
 0.0498067  -0.257254  -0.359544  
 0.0698067 -0.0932536  -0.247544  
 0.0898067  0.0707464  -0.135544  
  0.109807   0.234746 -0.0235443  
  0.136675   -0.25274  -0.333035  
  0.156675 -0.0887404  -0.221035  
  0.176675  0.0752596  -0.109035  
  0.196675    0.23926 0.00296479  
  0.212184  -0.247768  -0.295279  
  0.232184 -0.0837678  -0.183279  
  0.252184  0.0802322 -0.0712792  
  0.272184   0.244232  0.0407208  
  0.271189  -0.242675  -0.248849  
  0.291189 -0.0786747  -0.136849  
  0.311189  0.0853253 -0.0248494  
  0.331189   0.249325  0.0871506  
  0.309668  -0.237808   -0.19691  
  0.329668 -0.0738082 -0.0849098  
  0.349668  0.0901918  0.0270902  
  0.369668   0.254192    0.13909  
0.00394374   -0.25924  -0.367983  
 0.0398067  -0.339254  -0.415544  
-0.00605626   -0.34124  -0.423983  
 0.0239437 -0.0952401  -0.255983  
 0.0598067  -0.175254  -0.303544  
 0.0139437   -0.17724  -0.311983  
 0.0439437  0.0687599  -0.143983  
 0.0798067 -0.0112536  -0.191544  
 0.0339437 -0.0132401  -0.199983  
 0.0639437    0.23276  -0.031983  
 0.0998067   0.152746 -0.0795443  
 0.0539437    0.15076  -0.087983  
  0.119807   0.316746  0.0324557  
 0.0739437    0.31476   0.024017  
 0.0943041  -0.255075  -0.347828  
  0.126675   -0.33474  -0.389035  
 0.0843041  -0.337075  -0.403828  
  0.114304 -0.0910747  -0.235828  
  0.146675   -0.17074  -0.277035  
  0.104304  -0.173075  -0.291828  
  0.134304  0.0729253  -0.123828  
  0.166675 -0.00674038  -0.165035  
  0.124304 -0.00907465  -0.179828  
  0.154304   0.236925 -0.0118282  
  0.186675    0.15726 -0.0530352  
  0.144304   0.154925 -0.0678282  
  0.206675    0.32126  0.0589648  
  0.164304   0.318925  0.0441718  
  0.176193  -0.250291  -0.315418  
  0.202184  -0.329768  -0.351279  
  0.166193  -0.332291  -0.371418  
  0.196193 -0.0862908  -0.203418  
  0.222184  -0.165768  -0.239279  
  0.186193  -0.168291  -0.259418  
  0.216193  0.0777092 -0.0914184  
  0.242184 -0.00176777  -0.127279  
  0.206193 -0.00429078  -0.147418  
  0.236193   0.241709  0.0205816  
  0.262184   0.162232 -0.0152792  
  0.226193   0.159709 -0.0354184  
  0.282184   0.326232  0.0967208  
  0.246193   0.323709  0.0765816  
  0.244031  -0.245215  -0.272962  
  0.261189  -0.324675  -0.304849  
  0.234031  -0.327215  -0.328962  
  0.264031 -0.0812145  -0.160962  
  0.281189  -0.160675  -0.192849  
  0.254031  -0.163215  -0.216962  
  0.284031  0.0827855 -0.0489623  
  0.301189 0.00332532 -0.0808494  
  0.274031 0.000785495  -0.104962  
  0.304031   0.246785  0.0630377  
  0.321189   0.167325  0.0311506  
  0.294031   0.164785 0.00703774  
  0.341189   0.331325   0.143151  
  0.314031   0.328785   0.119038  
  0.293194  -0.240192  -0.223353  
  0.299668  -0.319808   -0.25291  
  0.283194  -0.322192  -0.279353  
  0.313194 -0.0761918  -0.111353  
  0.319668  -0.155808   -0.14091  
  0.303194  -0.158192  -0.167353  
  0.333194  0.0878082 0.000646885  
  0.339668 0.00819179 -0.0289098  
  0.323194 0.00580824 -0.0553531  
  0.353194   0.251808   0.112647  
  0.359668   0.172192  0.0830902  
  0.343194   0.169808  0.0566469  
  0.379668   0.336192    0.19509  
  0.363194   0.333808   0.168647  
  0.320331  -0.235565  -0.169972  
  0.310331  -0.317565  -0.225972  
  0.340331 -0.0715648 -0.0579717  
  0.330331  -0.153565  -0.113972  
  0.360331  0.0924352  0.0540283  
  0.350331  0.0104352 -0.00197174  
  0.380331   0.256435   0.166028  
  0.370331   0.174435   0.110028  
  0.390331   0.338435   0.222028  
 -0.376139  -0.261956  -0.245206  
 -0.356139 -0.0979564  -0.133206  
 -0.336139  0.0660436 -0.0212061  
 -0.316139   0.230044  0.0907939  
 -0.343689  -0.264325  -0.292151  
 -0.323689  -0.100325  -0.180151  
 -0.303689  0.0636747 -0.0681506  
 -0.283689   0.227675  0.0438494  
 -0.289862  -0.265445  -0.330635  
 -0.269862  -0.101445  -0.218635  
 -0.249862  0.0625546  -0.106635  
 -0.229862   0.226555 0.00536544  
 -0.218325   -0.26524  -0.358035  
 -0.198325   -0.10124  -0.246035  
 -0.178325  0.0627596  -0.134035  
 -0.158325    0.22676 -0.0220352  
 -0.133955  -0.263724  -0.372485  
 -0.113955 -0.0997241  -0.260485  
-0.0939548  0.0642759  -0.148485  
-0.0739548   0.228276 -0.0364853  
 -0.383595  -0.260351  -0.219544  
 -0.386139  -0.343956  -0.301206  
 -0.393595  -0.342351  -0.275544  
 -0.363595  -0.096351  -0.107544  
 -0.366139  -0.179956  -0.189206  
 -0.373595  -0.178351  -0.163544  
 -0.343595   0.067649 0.00445601  
 -0.346139 -0.0159564 -0.0772061  
 -0.353595  -0.014351  -0.051544  
 -0.323595   0.231649   0.116456  
 -0.326139   0.148044  0.0347939  
 -0.333595   0.149649   0.060456  
 -0.306139   0.312044   0.146794  
 -0.313595   0.313649   0.172456  
 -0.362761  -0.263289  -0.269547  
 -0.353689  -0.346325  -0.348151  
 -0.372761  -0.345289  -0.325547  
 -0.342761 -0.0992887  -0.157547  
 -0.333689  -0.182325  -0.236151  
 -0.352761  -0.181289  -0.213547  
 -0.322761  0.0647113 -0.0455471  
 -0.313689 -0.0183253  -0.124151  
 -0.332761 -0.0172887  -0.101547  
 -0.302761   0.228711  0.0664529  
 -0.293689   0.145675 -0.0121506  
 -0.312761   0.146711  0.0104529  
 -0.273689   0.309675  0.0998494  
 -0.292761   0.310711   0.122453  
  -0.31925  -0.265048   -0.31263  
 -0.299862  -0.347445  -0.386635  
  -0.32925  -0.347048   -0.36863  
  -0.29925  -0.101048   -0.20063  
 -0.279862  -0.183445  -0.274635  
  -0.30925  -0.183048   -0.25663  
  -0.27925  0.0629517 -0.0886299  
 -0.259862 -0.0194454  -0.162635  
  -0.28925 -0.0190483   -0.14463  
  -0.25925   0.226952  0.0233701  
 -0.239862   0.144555 -0.0506346  
  -0.26925   0.144952 -0.0326299  
 -0.219862   0.308555  0.0613654  
  -0.24925   0.308952  0.0793701  
 -0.256027   -0.26551  -0.345856  
 -0.228325   -0.34724  -0.414035  
 -0.266027   -0.34751  -0.401856  
 -0.236027   -0.10151  -0.233856  
 -0.208325   -0.18324  -0.302035  
 -0.246027   -0.18351  -0.289856  
 -0.216027  0.0624902  -0.121856  
 -0.188325 -0.0192404  -0.190035  
 -0.226027 -0.0195098  -0.177856  
 -0.196027    0.22649 -0.00985647  
 -0.168325    0.14476 -0.0780352  
 -0.206027    0.14449 -0.0658565  
 -0.148325    0.30876  0.0339648  
 -0.186027    0.30849  0.0461435  
 -0.177401  -0.264642  -0.366962  
 -0.143955  -0.345724  -0.428485  
 -0.187401  -0.346642  -0.422962  
 -0.157401  -0.100642  -0.254962  
 -0.123955  -0.181724  -0.316485  
 -0.167401  -0.182642  -0.310962  
 -0.137401  0.0633583  -0.142962  
 -0.103955 -0.0177241  -0.204485  
 -0.147401 -0.0186417  -0.198962  
 -0.117401   0.227358 -0.0309624  
-0.0839548   0.146276 -0.0924853  
 -0.127401   0.145358 -0.0869624  
-0.0639548   0.310276  0.0195147  
 -0.107401   0.309358  0.0250376  
-0.0887299  -0.262503  -0.374509  
-0.0987299  -0.344503  -0.430509  
-0.0687299 -0.0985033  -0.262509  
-0.0787299  -0.180503  -0.318509  
-0.0487299  0.0654967  -0.150509  
-0.0587299 -0.0165033  -0.206509  
-0.0287299   0.229497 -0.0385094  
-0.0387299   0.147497 -0.0945094  
-0.0187299   0.311497  0.0174906  
 -0.109807  -0.234746  0.0235443  
-0.0898067 -0.0707464   0.135544  
-0.0698067  0.0932536   0.247544  
-0.0498067   0.257254   0.359544  
 -0.196675   -0.23926 -0.00296479  
 -0.176675 -0.0752596   0.109035  
 -0.156675  0.0887404   0.221035  
 -0.136675    0.25274   0.333035  
 -0.272184  -0.244232 -0.0407208  
 -0.252184 -0.0802322  0.0712792  
 -0.232184  0.0837678   0.183279  
 -0.212184   0.247768   0.295279  
 -0.331189  -0.249325 -0.0871506  
 -0.311189 -0.0853253  0.0248494  
 -0.291189  0.0786747   0.136849  
 -0.271189   0.242675   0.248849  
 -0.369668  -0.254192   -0.13909  
 -0.349668 -0.0901918 -0.0270902  
 -0.329668  0.0738082  0.0849098  
 -0.309668   0.237808    0.19691  
-0.0639437   -0.23276   0.031983  
 -0.119807  -0.316746 -0.0324557  
-0.0739437   -0.31476  -0.024017  
-0.0439437 -0.0687599   0.143983  
-0.0998067  -0.152746  0.0795443  
-0.0539437   -0.15076   0.087983  
-0.0239437  0.0952401   0.255983  
-0.0798067  0.0112536   0.191544  
-0.0339437  0.0132401   0.199983  
-0.00394374    0.25924   0.367983  
-0.0598067   0.175254   0.303544  
-0.0139437    0.17724   0.311983  
-0.0398067   0.339254   0.415544  
0.00605626    0.34124   0.423983  
 -0.154304  -0.236925  0.0118282  
 -0.206675   -0.32126 -0.0589648  
 -0.164304  -0.318925 -0.0441718  
 -0.134304 -0.0729254   0.123828  
 -0.186675   -0.15726  0.0530352  
 -0.144304  -0.154925  0.0678282  
 -0.114304  0.0910746   0.235828  
 -0.166675 0.00674038   0.165035  
 -0.124304 0.00907465   0.179828  
-0.0943041   0.255075   0.347828  
 -0.146675    0.17074   0.277035  
 -0.104304   0.173075   0.291828  
 -0.126675    0.33474   0.389035  
-0.0843041   0.337075   0.403828  
 -0.236193  -0.241709 -0.0205816  
 -0.282184  -0.326232 -0.0967208  
 -0.246193  -0.323709 -0.0765816  
 -0.216193 -0.0777092  0.0914184  
 -0.262184  -0.162232  0.0152792  
 -0.226193  -0.159709  0.0354184  
 -0.196193  0.0862908   0.203418  
 -0.242184 0.00176777   0.127279  
 -0.206193 0.00429078   0.147418  
 -0.176193   0.250291   0.315418  
 -0.222184   0.165768   0.239279  
 -0.186193   0.168291   0.259418  
 -0.202184   0.329768   0.351279  
 -0.166193   0.332291   0.371418  
 -0.304031  -0.246785 -0.0630377  
 -0.341189  -0.331325  -0.143151  
 -0.314031  -0.328785  -0.119038  
 -0.284031 -0.0827855  0.0489623  
 -0.321189  -0.167325 -0.0311506  
 -0.294031  -0.164785 -0.00703774  
 -0.264031  0.0812145   0.160962  
 -0.301189 -0.00332532  0.0808494  
 -0.274031 -0.000785495   0.104962  
 -0.244031   0.245215   0.272962  
 -0.281189   0.160675   0.192849  
 -0.254031   0.163215   0.216962  
 -0.261189   0.324675   0.304849  
 -0.234031   0.327215   0.328962  
 -0.353194  -0.251808  -0.112647  
 -0.379668  -0.336192   -0.19509  
 -0.363194  -0.333808  -0.168647  
 -0.333194 -0.0878082 -0.000646886  
 -0.359668  -0.172192 -0.0830902  
 -0.343194  -0.169808 -0.0566469  
 -0.313194  0.0761918   0.111353  
 -0.339668 -0.00819179  0.0289098  
 -0.323194 -0.00580824  0.0553531  
 -0.293194   0.240192   0.223353  
 -0.319668   0.155808    0.14091  
 -0.303194   0.158192   0.167353  
 -0.299668   0.319808    0.25291  
 -0.283194   0.322192   0.279353  
 -0.380331  -0.256435  -0.166028  
 -0.390331  -0.338435  -0.222028  
 -0.360331 -0.0924352 -0.0540283  
 -0.370331  -0.174435  -0.110028  
 -0.340331  0.0715648  0.0579717  
 -0.350331 -0.0104352 0.00197175  
 -0.320331   0.235565   0.169972  
 -0.330331   0.153565   0.113972  
 -0.310331   0.317565   0.225972  
  0.316139  -0.230044 -0.0907939  
  0.336139 -0.0660436  0.0212061  
  0.356139  0.0979564   0.133206  
  0.376139   0.261956   0.245206  
  0.283689  -0.227675 -0.0438494  
  0.303689 -0.0636747  0.0681506  
  0.323689   0.100325   0.180151  
  0.343689   0.264325   0.292151  
  0.229862  -0.226555 -0.00536544  
  0.249862 -0.0625546   0.106635  
  0.269862   0.101445   0.218635  
  0.289862   0.265445   0.330635  
  0.158325   -0.22676  0.0220352  
  0.178325 -0.0627596   0.134035  
  0.198325    0.10124   0.246035  
  0.218325    0.26524   0.358035  
 0.0739548  -0.228276  0.0364853  
 0.0939548 -0.0642759   0.148485  
  0.113955  0.0997241   0.260485  
  0.133955   0.263724   0.372485  
  0.323595  -0.231649  -0.116456  
  0.306139  -0.312044  -0.146794  
  0.313595  -0.313649  -0.172456  
  0.343595  -0.067649 -0.00445601  
  0.326139  -0.148044 -0.0347939  
  0.333595  -0.149649  -0.060456  
  0.363595   0.096351   0.107544  
  0.346139  0.0159564  0.0772061  
  0.353595   0.014351   0.051544  
  0.383595   0.260351   0.219544  
  0.366139   0.179956   0.189206  
  0.373595   0.178351   0.163544  
  0.386139   0.343956   0.301206  
  0.393595   0.342351   0.275544  
  0.302761  -0.228711 -0.0664529  
  0.273689  -0.309675 -0.0998494  
  0.292761  -0.310711  -0.122453  
  0.322761 -0.0647113  0.0455471  
  0.293689  -0.145675  0.0121506  
  0.312761  -0.146711 -0.0104529  
  0.342761  0.0992887   0.157547  
  0.313689  0.0183253   0.124151  
  0.332761  0.0172887   0.101547  
  0.362761   0.263289   0.269547  
  0.333689   0.182325   0.236151  
  0.352761   0.181289   0.213547  
  0.353689   0.346325   0.348151  
  0.372761   0.345289   0.325547  
   0.25925  -0.226952 -0.0233701  
  0.219862  -0.308555 -0.0613654  
   0.24925  -0.308952 -0.0793701  
   0.27925 -0.0629517  0.0886299  
  0.239862  -0.144555  0.0506346  
   0.26925  -0.144952  0.0326299  
   0.29925   0.101048    0.20063  
  0.259862  0.0194454   0.162635  
   0.28925  0.0190483    0.14463  
   0.31925   0.265048    0.31263  
  0.279862   0.183445   0.274635  
   0.30925   0.183048    0.25663  
  0.299862   0.347445   0.386635  
   0.32925   0.347048    0.36863  
  0.196027   -0.22649 0.00985647  
  0.148325   -0.30876 -0.0339648  
  0.186027   -0.30849 -0.0461435  
  0.216027 -0.0624902   0.121856  
  0.168325   -0.14476  0.0780352  
  0.206027   -0.14449  0.0658565  
  0.236027    0.10151   0.233856  
  0.188325  0.0192404   0.190035  
  0.226027  0.0195098   0.177856  
  0.256027    0.26551   0.345856  
  0.208325    0.18324   0.302035  
  0.246027    0.18351   0.289856  
  0.228325    0.34724   0.414035  
  0.266027    0.34751   0.401856  
  0.117401  -0.227358  0.0309624  
 0.0639548  -0.310276 -0.0195147  
  0.107401  -0.309358 -0.0250376  
  0.137401 -0.0633583   0.142962  
 0.0839548  -0.146276  0.0924853  
  0.127401  -0.145358  0.0869624  
  0.157401   0.100642   0.254962  
  0.103955  0.0177241   0.204485  
  0.147401  0.0186417   0.198962  
  0.177401   0.264642   0.366962  
  0.123955   0.181724   0.316485  
  0.167401   0.182642   0.310962  
  0.143955   0.345724   0.428485  
  0.187401   0.346642   0.422962  
 0.0287299  -0.229497  0.0385094  
 0.0187299  -0.311497 -0.0174906  
 0.0487299 -0.0654967   0.150509  
 0.0387299  -0.147497  0.0945094  
 0.0687299  0.0985033   0.262509  
 0.0587299  0.0165033   0.206509  
 0.0887299   0.262503   0.374509  
 0.0787299   0.180503   0.318509  
 0.0987299   0.344503   0.430509  
 -0.282833   0.385696  0.0801353  
  0.342861   0.407155   0.116165  
 -0.245022   0.412852   0.444841  
  0.383608   0.434313   0.479662  
  0.458531   0.418407   0.224969  
 -0.104819   0.386252  0.0125853  
  0.210299   0.432613   0.529185  
 -0.358613   0.401589   0.335016  
  0.506349    0.43023   0.370483  
 -0.035532   0.425558   0.534318  
  0.152164   0.396709  0.0504338  
 -0.406324   0.389769   0.189494  
  -0.47007   0.409728   0.496287  
  -0.40335   0.372298 -0.0566956  
  0.508715   0.448117   0.620241  
  0.567187   0.410203  0.0639674  
  -0.55883   0.378007   0.089148  
  0.217521   0.391314 -0.0528577  
 -0.186196   0.426282   0.608222  
  0.658824   0.441991   0.470827  
  0.307502   0.434332   0.512145  
  0.252272    0.43776   0.583575  
  0.137009   0.434959   0.593085  
  0.468471   0.440266   0.527204  
 -0.313597   0.407221   0.394919  
 -0.446698    0.40008   0.351136  
 -0.481451   0.394084    0.28179  
 -0.314413   0.413785   0.487285  
  0.412934   0.412769   0.165214  
  0.546605   0.419917   0.208865  
  0.581427   0.425914   0.278202  
  0.409396    0.40616  0.0740567  
 0.0393983   0.391894    0.03065  
 -0.209962   0.385284  0.0435188  
 -0.365631   0.379879  0.0336305  
  0.254901   0.401843  0.0789305  
  0.444029   0.432967   0.435226  
 -0.343682   0.387043   0.124771  
 -0.158107   0.418513   0.487417  
 0.0616903   0.389065 -0.0184418  
 -0.543606   0.372417 0.00432928  
  0.420384   0.399515  -0.023748  
 -0.336333   0.420155   0.585874  
  0.643608   0.447583   0.555667  
-0.0600693   0.430689   0.616624  
  0.653546   0.436631   0.397917  
  -0.55354   0.383368   0.162069  
-0.0611078   0.383457 -0.0450939  
  0.191066   0.394535 0.00349442  
 -0.387506   0.395914   0.267677  
 0.0976068   0.429667   0.535565  
  0.487487   0.424085   0.292315  
 -0.524543   0.387873    0.21295  
  0.624543   0.432126   0.347039  
 0.0239474    0.43258   0.607587  
  0.310824   0.400386  0.0348338  
 -0.430699   0.381097  0.0782374  
  0.531377   0.438934   0.481911  
 -0.225613   0.419616    0.53146  
  0.630052   0.418583   0.154842  
   0.35958   0.445121   0.641352  
 -0.219551   0.378039 -0.0539928  
  -0.53037   0.401409   0.405177  
 -0.532276   0.367028 -0.0760125  
  0.575481   0.405421 -0.00658801  
 -0.478963   0.414503   0.566992  
   0.63324   0.453046   0.636636  
 0.0981319   0.386528  -0.069432  
 -0.410171   0.407904   0.445368  
 -0.296623   0.378766 -0.0111784  
  0.410594   0.442067   0.576949  
  0.509962   0.412094   0.114695  
  0.655069   0.427437   0.268374  
  0.165749   0.439029   0.637979  
  -0.55509   0.392563   0.291622  
  0.465881   0.405518  0.0411532  
  0.535058   0.445103   0.566832  
 -0.431781   0.375108 -0.00526959  
 -0.372908   0.414368   0.520222  
 -0.131401   0.425773   0.577903  
  -0.49726    0.38251   0.126213  
  0.597379   0.437494    0.43379  
  0.647126   0.423267   0.213279  
  0.260455   0.442177   0.642035  
 -0.547206   0.396731   0.346725  
 -0.150311   0.378451 -0.0775217  
-0.0369985   0.381755 -0.0791634  
  0.365604    0.39995 0.00554289  
  0.250945   0.397461  0.0191641  
  0.204294   0.392925 -0.0246816  
  0.318953   0.395415 -0.0383029  
  0.284949   0.396438 -0.00956938  
  0.639045   0.434379   0.372478  
  0.625463   0.437063   0.415853  
  0.551864   0.433862   0.402136  
  0.565446   0.431178   0.358761  
  0.595454    0.43412   0.387307  
 -0.018061   0.431634   0.612105  
 -0.095735   0.428231   0.597263  
-0.0834663   0.425666    0.55611  
-0.00579227   0.429069   0.570952  
-0.0507636    0.42865   0.584108  
 -0.539042   0.385621    0.18751  
   -0.5254   0.382939   0.144141  
 -0.451792   0.386139   0.157853  
 -0.465433   0.388821   0.201222  
 -0.495417    0.38588   0.172682  
 -0.608053   0.371208  0.0146646  
 -0.551218   0.375212  0.0467386  
  -0.61254   0.377754   0.108324  
 -0.610297   0.374481  0.0614943  
  0.400192   0.396007  -0.064374  
   0.21001   0.388782 -0.0851789  
  0.305101   0.392395 -0.0747764  
 -0.308166   0.423828   0.625437  
 -0.261264   0.423219   0.597048  
 -0.144348   0.430016   0.642861  
 -0.226257   0.426922   0.634149  
  0.708054   0.448792   0.545334  
  0.651216   0.444787   0.513247  
  0.712537   0.442245   0.451663  
  0.710295   0.445519   0.498498  
 -0.279717   0.413318   0.466063  
 -0.362292   0.410844   0.466326  
 -0.361884   0.407562   0.420143  
  -0.27931   0.410036    0.41988  
 -0.320801    0.41044   0.443103  
 -0.324232   0.382788  0.0568829  
 -0.331127   0.379323   0.011226  
 -0.253293   0.382025  0.0161702  
 -0.246397    0.38549  0.0618271  
 -0.288762   0.382406  0.0365265  
   0.42604   0.437289   0.503433  
  0.439532   0.441166   0.552077  
  0.359048     0.4382   0.544547  
  0.345555   0.434323   0.495904  
  0.392544   0.437745    0.52399  
  0.376128   0.406657  0.0951109  
  0.459679   0.409127  0.0943757  
  0.461448   0.412431   0.139954  
  0.377897   0.409962    0.14069  
  0.418788   0.409544   0.117533  
 -0.282393   0.406948   0.377884  
 -0.218603    0.41231    0.42606  
  -0.25167   0.409625   0.402421  
  0.272914   0.431786    0.49109  
  0.346735   0.431879   0.461148  
  0.310791   0.431916    0.47688  
 -0.174143   0.388022  0.0667418  
 -0.246348   0.388125  0.0987504  
 -0.211212    0.38799  0.0819853  
  0.382062   0.413047   0.182182  
  0.317522   0.407693   0.134443  
  0.350964   0.410374   0.157864  
  0.692271   0.433563    0.33852  
  0.709898   0.439565   0.415209  
  0.701085   0.436564   0.376864  
 0.0494737    0.43629   0.648793  
-0.0812847   0.432219   0.647062  
-0.0159055   0.434255   0.647928  
 -0.592271   0.386437   0.221475  
 -0.609895   0.380434   0.144785  
 -0.601083   0.383435    0.18313  
 -0.151405     0.3761  -0.110011  
-0.0947493   0.377752  -0.110832  
-0.0490532   0.382606 -0.0621287  
 -0.105709   0.380954 -0.0613078  
 -0.100229   0.379353 -0.0860697  
 -0.184931   0.378245 -0.0657572  
 -0.274776    0.37277  -0.104496  
 -0.213091   0.374435  -0.107254  
 -0.519888   0.364139  -0.121756  
 -0.605513   0.364764 -0.0767563  
 -0.600881   0.361444  -0.125253  
  0.658366    0.40896   0.007956  
  0.566491   0.402085  -0.049544  
  0.652308   0.405418  -0.039147  
 -0.560107   0.411001   0.552246  
 -0.468232   0.417876   0.609746  
 -0.553178   0.414563   0.599248  
   0.62037   0.455898   0.682068  
  0.705995   0.455273   0.637068  
  0.701122   0.458574   0.685409  
  0.688776   0.419292   0.139921  
  0.700438   0.425383   0.220389  
  0.638589   0.420925    0.18406  
  0.694607   0.422337   0.180155  
   0.39479    0.44881   0.678176  
  0.256477   0.444214   0.672268  
  0.310017   0.443649   0.641694  
  0.325634   0.446512   0.675222  
 -0.588935   0.400704   0.420088  
 -0.600478   0.394616   0.339612  
 -0.538788    0.39907   0.375951  
 -0.594706    0.39766    0.37985  
  -0.35462   0.417262   0.553048  
  -0.34366   0.414077   0.503753  
 -0.270013   0.416701   0.509372  
 -0.280973   0.419886   0.558667  
 -0.312316   0.416981    0.53121  
 -0.487693   0.373762 -0.000470156  
 -0.398706   0.377494  0.0141805  
 -0.398165   0.380488   0.055934  
 -0.487152   0.376757  0.0412833  
 -0.442929   0.377125  0.0277319  
  0.589333   0.446343   0.561249  
  0.501764   0.442684   0.547018  
  0.499924     0.4396   0.504557  
  0.587492   0.443259   0.518789  
  0.544628   0.442971   0.532903  
  0.443133   0.402516 0.00870257  
  0.437638   0.405839  0.0576049  
   0.36011   0.403273  0.0544453  
  0.401621   0.402895  0.0315739  
  0.564378   0.438214    0.45785  
  0.487703   0.435951   0.458568  
  0.475189   0.431599   0.402855  
  0.519784   0.434906   0.430352  
 -0.463979   0.381803   0.102225  
  -0.38719    0.38407   0.101504  
 -0.375003   0.388406   0.157132  
 -0.419491   0.385105   0.129679  
 -0.178507   0.422695   0.554681  
  -0.19186   0.419065   0.509438  
-0.0968194   0.422036   0.510867  
 -0.137663   0.422365   0.532774  
 -0.366675   0.369899  -0.105848  
 -0.467813   0.369663 -0.0663541  
 -0.443281   0.367019  -0.113802  
  0.657343   0.415102  0.0944837  
  0.571334   0.407812  0.0286897  
  0.657854   0.412031  0.0512198  
 -0.558785   0.404864   0.465644  
 -0.474516   0.412115    0.53164  
 -0.559446   0.407933   0.508945  
  0.469358   0.450309   0.667621  
  0.570978   0.450581   0.628439  
  0.544864   0.453103   0.674844  
 -0.313258    0.38637   0.102453  
 -0.303686   0.389359    0.14031  
 -0.276254   0.388661   0.118912  
  0.298881   0.404499  0.0975479  
  0.235788   0.402551  0.0969477  
  0.277537   0.405104   0.115065  
 -0.201564   0.415682   0.466129  
 -0.137391   0.417627   0.466226  
 -0.178879   0.414987   0.446774  
  0.413819    0.43364   0.457444  
  0.403859   0.430646   0.419688  
  0.376534   0.431344   0.441037  
 -0.158798   0.426028   0.593062  
 -0.120041   0.429123   0.620062  
  0.628102   0.439742   0.452308  
     0.669   0.439654   0.433758  
 -0.528045   0.380258    0.10768  
  -0.56897   0.380346   0.126233  
  0.282863   0.401115  0.0568822  
  0.203533   0.399276  0.0646822  
  0.171615   0.395622  0.0269641  
  0.227239   0.398368  0.0419232  
 -0.421489   0.412048   0.508254  
 -0.407648   0.417329   0.576433  
 -0.414568   0.414689   0.542344  
 -0.417565   0.373703 -0.0309826  
 -0.537941   0.369722 -0.0358416  
 -0.477753   0.371712 -0.0334121  
  0.521887    0.44661   0.593537  
  0.638424   0.450314   0.596152  
  0.580155   0.448462   0.594844  
  0.516534    0.40786  0.0525603  
  0.497933   0.402468  -0.015168  
  0.507233   0.405164  0.0186961  
 0.0957812   0.394302  0.0405419  
 0.0505443   0.390479 0.00610411  
  0.126378     0.3918 -0.00747369  
   0.11108   0.393051  0.0165341  
 -0.396915   0.392841   0.228585  
 -0.351231   0.391906   0.196144  
 -0.346253   0.396707   0.261338  
 -0.350255   0.394245   0.228521  
  0.140985   0.397728  0.0694448  
 0.0384491   0.393447   0.052825  
 0.0898625   0.395531  0.0602794  
 0.0310374   0.427613   0.534941  
-0.0326693   0.423406   0.502931  
 0.0800534   0.427333   0.510282  
 0.0235468   0.425426   0.507462  
  0.496918   0.427158   0.331399  
  0.451244   0.428093   0.363845  
  0.446243   0.423293   0.298657  
  0.450256   0.425754   0.331471  
  0.473009   0.421246   0.258642  
    0.4241     0.4183    0.23803  
   0.43667   0.420841   0.268335  
 -0.373059   0.398751   0.301347  
 -0.324141   0.401699   0.321963  
 -0.336695   0.399158   0.291659  
  0.153953    0.43114   0.532375  
  0.182127   0.430169   0.506835  
  0.131341   0.428822   0.509442  
  0.188918   0.400101   0.082427  
  0.428975   0.429444   0.392201  
 -0.328882   0.390559   0.167793  
-0.0855617   0.420555   0.485348  
  0.329496   0.403886  0.0759966  
 -0.355711   0.383429  0.0791935  
  0.456871    0.43662   0.481001  
 -0.235788   0.416191    0.48775  
-0.0327102   0.389073  0.0216177  
-0.0793868   0.389264    0.04405  
  -0.02072   0.391285  0.0475542  
 -0.434479   0.394999   0.274734  
 -0.502997   0.390979    0.24737  
 -0.449956    0.39191   0.237978  
  0.117308   0.432313   0.564325  
 0.0804783    0.43377   0.600336  
 0.0557579   0.430691   0.567639  
  0.534457      0.425   0.285258  
  0.602985    0.42902   0.312621  
  0.549951   0.428089    0.32201  
-0.0829633   0.384854 -0.0162543  
0.000291243   0.386261 -0.0317679  
-0.0162095   0.387667 -0.00507509  
 -0.606783   0.367986 -0.0310458  
  0.483341   0.399046  -0.056959  
 -0.388199   0.420852   0.617592  
  0.707024   0.452032   0.591201  
 -0.336105   0.404405   0.364967  
 -0.304649   0.404298    0.35016  
  -0.15739   0.385768  0.0280521  
 -0.127396   0.388563  0.0545448  
    0.2589   0.433473   0.520665  
  0.228151   0.431057   0.499814  
  0.435733   0.415588   0.195092  
  0.404463   0.415698   0.209869  
 -0.402655   0.400834   0.343076  
 -0.464075   0.397082   0.316463  
 -0.418567   0.397917   0.308905  
  0.231285   0.435187    0.55638  
  0.194641    0.43636    0.58833  
  0.174297    0.43375   0.560353  
  0.502568   0.419162   0.216917  
  0.564016   0.422916   0.243534  
  0.518512   0.422081   0.251088  
 0.0799111   0.387797 -0.0439369  
  0.157826   0.388921 -0.0611448  
  0.142102   0.390361 -0.0343093  
 -0.428435   0.403992   0.398252  
  -0.38227   0.404198    0.38161  
 -0.258087   0.378403 -0.0325856  
 -0.162185   0.382145 -0.0207037  
 -0.207739   0.382085 -0.00226677  
  0.331433   0.439914   0.580262  
  0.295167   0.436693   0.550464  
  0.528283   0.416006    0.16178  
  0.482008   0.415797   0.178436  
 0.0615659   0.383264  -0.099716  
  0.135788   0.386023 -0.0924474  
 -0.133947    0.38155 -0.0410057  
  0.596865   0.421592   0.211072  
  0.570007   0.415339   0.134768  
  0.583436   0.418465    0.17292  
 -0.496952   0.398405   0.348931  
 -0.470271   0.404656   0.425272  
 -0.483611   0.401531   0.387101  
  0.256363   0.439969   0.612805  
  0.385087   0.443594   0.609151  
  0.320725   0.441781   0.610978  
  0.618248   0.426675   0.273288  
  0.707534   0.431218   0.299187  
  0.655259   0.430119   0.305904  
  0.151379   0.436994   0.615532  
  0.120374   0.439514    0.66399  
  0.100426   0.436642   0.632163  
 -0.518271   0.393323   0.286706  
 -0.607545   0.388781   0.260811  
 -0.555271    0.38988   0.254091  
  0.607797   0.441501   0.485549  
 -0.507599   0.378508  0.0744819  
 -0.219885   0.422957   0.575865  
  0.538574   0.411149   0.089331  
  0.613675    0.41522   0.114626  
  0.459655   0.445092   0.598595  
  0.427222   0.446951   0.638386  
 -0.349987   0.375532  -0.033937  
 -0.312381   0.374151 -0.0692167  
  -0.44012   0.408816   0.470827  
 -0.514528    0.40476   0.445458  
 0.0305667   0.384141 -0.0742977  
  0.015429   0.385201 -0.0530328  
-0.0165917   0.380508  -0.105274  
  0.488106   0.408494   0.073468  
 -0.374346   0.376513 -0.00987827  
  0.480709   0.443888   0.572807  
  -0.39189   0.411446    0.48729  
  0.651097   0.425352   0.240826  
  0.607556   0.424134    0.24218  
  0.213102   0.440603   0.640007  
  0.203871   0.438481   0.614169  
 -0.551148   0.394647   0.319173  
 -0.507611   0.395864   0.317818  
  0.703986   0.428301   0.259788  
  0.188426   0.441864   0.668129  
 -0.604011   0.391698   0.300212  
  0.280805   0.412869   0.222538  
 -0.187322   0.407504   0.345447  
    0.1869   0.424392    0.42383  
-0.0953755   0.394231    0.12045  
-0.0337221   0.417152   0.415704  
  0.137486   0.402706   0.140715  
 -0.207373   0.396957   0.206074  
  0.310613   0.423393   0.357464  
 -0.201383   0.394723   0.172216  
 -0.123269   0.399577   0.207201  
 -0.120567    0.40356   0.261896  
 -0.050945   0.404813   0.250001  
   -0.0597   0.408499   0.305386  
-0.00585052   0.408284   0.279579  
 0.0554895   0.407401   0.241245  
  0.115048   0.413013   0.294716  
 0.0511722   0.413748   0.332054  
  0.130511   0.409391   0.237385  
   0.17029   0.412788   0.268178  
  0.058131    0.40323   0.181646  
-0.0396443   0.402742   0.216184  
-0.0185441   0.411851   0.334955  
 0.0432885    0.41736   0.386025  
  0.145791   0.419303   0.369885  
  0.160121    0.41651   0.324654  
 -0.110786   0.409407   0.339728  
  0.233377   0.421513   0.363801  
  0.222044    0.41263   0.244055  
  0.156681   0.407453   0.199143  
 0.0519913    0.39938   0.130267  
  0.233811   0.408402   0.179811  
 -0.213769   0.400182   0.253994  
  0.232395   0.417803   0.312195  
  0.317277   0.420271   0.310874  
  0.252325   0.425134   0.406546  
  -0.13016   0.395718   0.156029  
-0.0276407   0.413936   0.368043  
  0.046957   0.420699   0.431285  
 -0.108636   0.413439   0.395351  
 -0.150955   0.405327   0.299536  
  0.256696   0.415678   0.272124  
  0.308543   0.425617   0.389521  
-0.0313275   0.399687   0.169832  
 -0.207139   0.403797   0.301858  
  0.309225   0.416744   0.264838  
  0.099273   0.419875   0.397583  
  0.121222   0.423053   0.432856  
 -0.162533   0.410835   0.381656  
  0.195877   0.404863   0.146252  
-0.0343682   0.396313   0.123827  
 0.0947384   0.401043   0.135491  
  0.147083   0.405079   0.169929  
  0.107406   0.405341   0.190394  
 0.0550611   0.401305   0.155956  
  0.101072   0.403192   0.162943  
  0.133646   0.400726   0.114585  
 0.0447456    0.39719   0.102633  
 0.0893411   0.398901   0.107754  
0.00661742   0.418926   0.423494  
-0.0306814   0.415544   0.391874  
0.00782389   0.415648   0.377034  
 0.0451227    0.41903   0.408655  
0.00722066   0.417287   0.400264  
  0.166346   0.421848   0.396858  
  0.189584   0.420408   0.366843  
  0.242851   0.423324   0.385174  
  0.219613   0.424763   0.415188  
  0.204598   0.422586   0.391016  
  -0.11685   0.392495   0.105207  
 -0.112768   0.394975    0.13824  
 -0.170011   0.393137   0.136697  
 -0.144398   0.392732   0.120192  
  0.257308   0.410636   0.201175  
  0.262998   0.408317   0.166266  
  0.315997   0.413097   0.210844  
   0.29067   0.410711   0.188106  
-0.0317644   0.419203   0.443624  
 0.0547285    0.42285   0.458142  
 0.0113368   0.421083   0.451739  
  0.353376   0.424675   0.357335  
  0.313945   0.421832   0.334169  
  0.361139   0.421385   0.307937  
   0.35877   0.423091   0.332857  
  0.137585   0.414761   0.309685  
  0.152956   0.417906   0.347269  
 0.0984817   0.416526   0.350969  
 0.0831102   0.413381   0.313385  
  0.118033   0.415644   0.330327  
-0.0711789   0.415296   0.405528  
 -0.112655    0.41509   0.420193  
-0.0727415   0.417185   0.432678  
  0.142669   0.412901   0.281447  
 0.0852689   0.410207   0.267981  
 0.0930005   0.408396   0.239315  
  0.150401   0.411089   0.252782  
  0.117835   0.410648   0.260381  
 0.0226608   0.411016   0.305816  
 0.0248195   0.407843   0.260412  
 0.0539648   0.410612   0.286899  
  0.016314     0.4128   0.333504  
 -0.039122   0.410175    0.32017  
-0.0327753   0.408392   0.292482  
-0.00823061   0.410596   0.312993  
0.00792262   0.405072   0.228715  
-0.0283978   0.406548    0.26479  
-0.0452947   0.403777   0.233093  
-0.0102376    0.40581   0.246752  
-0.0901335   0.406029   0.283641  
 -0.085756   0.404186   0.255949  
-0.0592656   0.406289   0.274216  
 -0.121918   0.401568   0.234549  
-0.0814566   0.401159   0.211693  
-0.0836063   0.402673   0.233821  
-0.0354859   0.401214   0.193008  
 -0.126714   0.397648   0.181615  
-0.0807438   0.397703    0.16293  
-0.0811002   0.399431   0.187312  
 -0.251756     0.3955   0.204434  
 -0.210571    0.39857   0.230034  
 -0.259385   0.398841   0.254497  
 -0.257083   0.397109   0.229245  
 0.0568102   0.405316   0.211445  
  0.143596   0.408422   0.218264  
  0.100203   0.406869   0.214855  
 0.0472303   0.415554    0.35904  
-0.0230924   0.412894   0.351499  
  0.012069   0.414224   0.355269  
  0.196258   0.417156   0.318424  
  0.232886   0.419658   0.337998  
  0.192921   0.418782   0.342634  
  0.212613   0.426816   0.446933  
  0.281093    0.42729    0.42459  
   0.24782   0.427137   0.436522  
  0.251424   0.412749   0.233297  
  0.189362   0.410041   0.221599  
  0.195246   0.407928   0.189477  
  0.223335   0.410338   0.211387  
 -0.167168   0.401871   0.257945  
 -0.165321   0.398267   0.206638  
 -0.166244   0.400069   0.232292  
  0.201343   0.415295   0.290186  
  0.169464   0.415028   0.299936  
  0.196167   0.412709   0.256117  
  0.169881   0.410565    0.23719  
  0.166681   0.403785   0.143483  
  0.214844   0.406633   0.163032  
  0.180963   0.405856    0.16648  
  0.274836   0.419037   0.311534  
  0.271995   0.422453   0.360633  
  0.273416   0.420745   0.336083  
 -0.135761   0.404443   0.280716  
 -0.179047   0.404562   0.300697  
 -0.210454   0.401989   0.277926  
 -0.173107   0.403216   0.279321  
 0.0134017   0.401458   0.175739  
 0.0106622   0.403265   0.202227  
 -0.165771   0.395221   0.164123  
 -0.232536   0.393199   0.164033  
 -0.202511   0.393086   0.149746  
 -0.204378    0.39584   0.189145  
 -0.243569   0.394276   0.183799  
 -0.130871   0.407367   0.319632  
-0.0852432   0.408953   0.322557  
 -0.110502   0.406698   0.301637  
-0.0692136   0.411671   0.353885  
-0.0541678   0.410923   0.337028  
 -0.149054   0.408455   0.342587  
 -0.109711   0.411423    0.36754  
 -0.135584   0.412137   0.388504  
 -0.174928    0.40917   0.363552  
 -0.142319   0.410296   0.365546  
0.00881151   0.397846   0.127047  
-0.0441615   0.394295  0.0996709  
4.08266e-05   0.395672   0.100269  
  0.122532   0.419589   0.383734  
 0.0712807   0.418617   0.391804  
 0.0848812   0.417572   0.371387  
  0.336116   0.426971   0.396836  
  0.309578   0.424505   0.373493  
  0.346169   0.425897    0.37752  
 -0.165546   0.396744    0.18538  
 -0.248404   0.402802   0.305384  
 -0.197231    0.40565   0.323652  
 -0.219256   0.407089   0.353148  
 -0.235212   0.404921   0.329503  
-0.0701962   0.413484   0.379707  
  0.349447   0.417468   0.257964  
  0.295015   0.414806   0.243688  
  0.334104   0.415307   0.234167  
 0.0840895   0.421876    0.43207  
  0.137588   0.425389    0.45867  
 0.0964097    0.42419    0.45929  
  0.154061   0.423723   0.428343  
  0.175731   0.426182   0.453653  
 -0.177359   0.411301   0.394468  
 -0.199479   0.409192   0.374257  
  0.206276   0.404062   0.130608  
  0.170493   0.402355   0.121828  
-0.0648719   0.395272   0.122139  
-0.0811365   0.393315   0.101588  
  0.235519   0.406171   0.147807  
  0.244545    0.41674   0.292159  
   0.28296   0.416211   0.268481  
  0.313251   0.418507   0.287856  
  0.278898   0.417624   0.290008  
  0.356791   0.419471   0.282942  
   0.23937   0.414154    0.25809  
  0.220356   0.414725   0.274138  
 -0.255393   0.400777   0.279949  
 -0.145889   0.413214   0.407961  
  0.280434   0.425376   0.398034  
  0.309842   0.427212   0.411332  
 -0.164051   0.406509   0.321642  
  0.276214   0.423914   0.379333  
-0.0328479      0.398   0.146829  
-0.0728078   0.396487   0.142534  
 0.0111066   0.399652   0.151393  
  0.267192    0.41448   0.250889  
  0.110248   0.421464   0.415219  
  0.138297   0.421656   0.406038  
 0.0776851   0.420247   0.411937  
 -0.362833  -0.270304  -0.367865  
 -0.342833  -0.106304  -0.255865  
 -0.322833  0.0576961  -0.143865  
 -0.302833   0.221696 -0.0318647  
  0.262861  -0.248845  -0.331835  
  0.282861 -0.0848454  -0.219835  
  0.302861  0.0791546  -0.107835  
  0.322861   0.243155 0.00416519  
 -0.325022  -0.243148 -0.00315949  
 -0.305022  -0.079148   0.108841  
 -0.285022   0.084852   0.220841  
 -0.265022   0.248852   0.332841  
  0.303608  -0.221687  0.0316623  
  0.323608 -0.0576871   0.143662  
  0.343608   0.106313   0.255662  
  0.363608   0.270313   0.367662  
  0.378531  -0.237593  -0.223031  
  0.398531 -0.0735926  -0.111031  
  0.418531  0.0904074 0.000969235  
  0.438531   0.254407   0.112969  
 -0.184819  -0.269748  -0.435415  
 -0.164819  -0.105748  -0.323415  
 -0.144819  0.0582516  -0.211415  
 -0.124819   0.222252 -0.0994147  
  0.130299  -0.223387  0.0811852  
  0.150299 -0.0593865   0.193185  
  0.170299   0.104613   0.305185  
  0.190299   0.268613   0.417185  
 -0.438613  -0.254411  -0.112984  
 -0.418613 -0.0904109 -0.00098362  
 -0.398613  0.0735891   0.111016  
 -0.378613   0.237589   0.223016  
  0.426349   -0.22577  -0.077517  
  0.446349 -0.0617696   0.034483  
  0.466349    0.10223   0.146483  
  0.486349    0.26623   0.258483  
 -0.115532  -0.230442  0.0863176  
 -0.095532 -0.0664416   0.198318  
 -0.075532  0.0975584   0.310318  
 -0.055532   0.261558   0.422318  
 0.0721642  -0.259291  -0.397566  
 0.0921642 -0.0952908  -0.285566  
  0.112164  0.0687092  -0.173566  
  0.132164   0.232709 -0.0615662  
 -0.486324  -0.266231  -0.258506  
 -0.466324  -0.102231  -0.146506  
 -0.446324  0.0617687 -0.0345061  
 -0.426324   0.225769  0.0774939  
  -0.55007  -0.246272  0.0482871  
  -0.53007 -0.0822721   0.160287  
  -0.51007  0.0817279   0.272287  
  -0.49007   0.245728   0.384287  
  -0.48335  -0.283702  -0.504696  
  -0.46335  -0.119702  -0.392696  
  -0.44335  0.0442978  -0.280696  
  -0.42335   0.208298  -0.168696  
  0.428715  -0.207883   0.172241  
  0.448715 -0.0438829   0.284241  
  0.468715   0.120117   0.396241  
  0.488715   0.284117   0.508241  
  0.487187  -0.245797  -0.384033  
  0.507187 -0.0817968  -0.272033  
  0.527187  0.0822032  -0.160033  
  0.547187   0.246203 -0.0480326  
  -0.63883  -0.277993  -0.358852  
  -0.61883  -0.113993  -0.246852  
  -0.59883  0.0500071  -0.134852  
  -0.57883   0.214007  -0.022852  
  0.137521  -0.264686  -0.500858  
  0.157521  -0.100686  -0.388858  
  0.177521  0.0633144  -0.276858  
  0.197521   0.227314  -0.164858  
 -0.266196  -0.229718   0.160222  
 -0.246196 -0.0657182   0.272222  
 -0.226196  0.0982818   0.384222  
 -0.206196   0.262282   0.496222  
  0.578824  -0.214009  0.0228267  
  0.598824 -0.0500091   0.134827  
  0.618824   0.113991   0.246827  
  0.638824   0.277991   0.358827  
  0.227502  -0.221668  0.0641451  
  0.247502 -0.0576676   0.176145  
  0.267502   0.106332   0.288145  
  0.287502   0.270332   0.400145  
  0.172272   -0.21824   0.135575  
  0.192272 -0.0542398   0.247575  
  0.212272    0.10976   0.359575  
  0.232272    0.27376   0.471575  
 0.0570093  -0.221041   0.145085  
 0.0770093  -0.057041   0.257085  
 0.0970093   0.106959   0.369085  
  0.117009   0.270959   0.481085  
  0.388471  -0.215734   0.079204  
  0.408471 -0.0517341   0.191204  
  0.428471   0.112266   0.303204  
  0.448471   0.276266   0.415204  
 -0.393597  -0.248779 -0.0530814  
 -0.373597 -0.0847791  0.0589186  
 -0.353597  0.0792209   0.170919  
 -0.333597   0.243221   0.282919  
 -0.526698   -0.25592 -0.0968639  
 -0.506698 -0.0919202  0.0151361  
 -0.486698  0.0720798   0.127136  
 -0.466698    0.23608   0.239136  
 -0.561451  -0.261916   -0.16621  
 -0.541451 -0.0979158 -0.0542097  
 -0.521451  0.0660842  0.0577903  
 -0.501451   0.230084    0.16979  
 -0.394413  -0.242215   0.039285  
 -0.374413 -0.0782153   0.151285  
 -0.354413  0.0857847   0.263285  
 -0.334413   0.249785   0.375285  
  0.332934  -0.243231  -0.282786  
  0.352934 -0.0792314  -0.170786  
  0.372934  0.0847686  -0.058786  
  0.392934   0.248769   0.053214  
  0.466605  -0.236083  -0.239135  
  0.486605 -0.0720825  -0.127135  
  0.506605  0.0919175 -0.0151351  
  0.526605   0.255917  0.0968649  
  0.501427  -0.230086  -0.169798  
  0.521427 -0.0660855 -0.0577979  
  0.541427  0.0979145  0.0542021  
  0.561427   0.261914   0.166202  
  0.329396   -0.24984  -0.373943  
  0.349396 -0.0858405  -0.261943  
  0.369396  0.0781595  -0.149943  
  0.389396    0.24216 -0.0379433  
-0.0406017  -0.264106   -0.41735  
-0.0206017  -0.100106   -0.30535  
-0.00060171  0.0638938   -0.19335  
 0.0193983   0.227894   -0.08135  
 -0.289962  -0.270716  -0.404481  
 -0.269962  -0.106716  -0.292481  
 -0.249962  0.0572841  -0.180481  
 -0.229962   0.221284 -0.0684812  
 -0.445631  -0.276121  -0.414369  
 -0.425631  -0.112121  -0.302369  
 -0.405631  0.0518794  -0.190369  
 -0.385631   0.215879 -0.0783695  
  0.174901  -0.254157  -0.369069  
  0.194901 -0.0901567  -0.257069  
  0.214901  0.0738433  -0.145069  
  0.234901   0.237843 -0.0330695  
  0.364029  -0.223033 -0.0127738  
  0.384029 -0.0590328  0.0992262  
  0.404029   0.104967   0.211226  
  0.424029   0.268967   0.323226  
 -0.423682  -0.268957  -0.323229  
 -0.403682  -0.104957  -0.211229  
 -0.383682   0.059043 -0.0992294  
 -0.363682   0.223043  0.0127706  
 -0.238107  -0.237487  0.0394169  
 -0.218107 -0.0734873   0.151417  
 -0.198107  0.0905127   0.263417  
 -0.178107   0.254513   0.375417  
-0.0183097  -0.266935  -0.466442  
0.00169028  -0.102935  -0.354442  
 0.0216903  0.0610651  -0.242442  
 0.0416903   0.225065  -0.130442  
 -0.623606  -0.283583  -0.443671  
 -0.603606  -0.119583  -0.331671  
 -0.583606  0.0444166  -0.219671  
 -0.563606   0.208417  -0.107671  
  0.340384  -0.256485  -0.471748  
  0.360384 -0.0924852  -0.359748  
  0.380384  0.0715148  -0.247748  
  0.400384   0.235515  -0.135748  
 -0.416333  -0.235845   0.137874  
 -0.396333 -0.0718446   0.249874  
 -0.376333  0.0921554   0.361874  
 -0.356333   0.256155   0.473874  
  0.563608  -0.208417   0.107667  
  0.583608 -0.0444168   0.219667  
  0.603608   0.119583   0.331667  
  0.623608   0.283583   0.443667  
 -0.140069  -0.225311   0.168624  
 -0.120069 -0.0613114   0.280624  
 -0.100069   0.102689   0.392624  
-0.0800693   0.266689   0.504624  
  0.573546  -0.219369 -0.0500829  
  0.593546 -0.0553691  0.0619171  
  0.613546   0.108631   0.173917  
  0.633546   0.272631   0.285917  
  -0.63354  -0.272632  -0.285931  
  -0.61354  -0.108632  -0.173931  
  -0.59354  0.0553683 -0.0619306  
  -0.57354   0.219368  0.0500694  
 -0.141108  -0.272543  -0.493094  
 -0.121108  -0.108543  -0.381094  
 -0.101108  0.0554569  -0.269094  
-0.0811078   0.219457  -0.157094  
  0.111066  -0.261465  -0.444506  
  0.131066 -0.0974646  -0.332506  
  0.151066  0.0665354  -0.220506  
  0.171066   0.230535  -0.108506  
 -0.467506  -0.260086  -0.180323  
 -0.447506 -0.0960865 -0.0683232  
 -0.427506  0.0679135  0.0436768  
 -0.407506   0.231914   0.155677  
 0.0176068  -0.226333  0.0875649  
 0.0376068 -0.0623334   0.199565  
 0.0576068   0.101667   0.311565  
 0.0776068   0.265667   0.423565  
  0.407487  -0.231915  -0.155685  
  0.427487 -0.0679147 -0.0436853  
  0.447487  0.0960853  0.0683147  
  0.467487   0.260085   0.180315  
 -0.604543  -0.268127   -0.23505  
 -0.584543  -0.104127   -0.12305  
 -0.564543   0.059873 -0.0110497  
 -0.544543   0.223873    0.10095  
  0.544543  -0.223874  -0.100961  
  0.564543 -0.0598738   0.011039  
  0.584543   0.104126   0.123039  
  0.604543   0.268126   0.235039  
-0.0560526   -0.22342   0.159587  
-0.0360526 -0.0594197   0.271587  
-0.0160526    0.10458   0.383587  
0.00394741    0.26858   0.495587  
  0.230824  -0.255614  -0.413166  
  0.250824 -0.0916139  -0.301166  
  0.270824  0.0723861  -0.189166  
  0.290824   0.236386 -0.0771662  
 -0.510699  -0.274903  -0.369763  
 -0.490699  -0.110903  -0.257763  
 -0.470699  0.0530969  -0.145763  
 -0.450699   0.217097 -0.0337626  
  0.451377  -0.217066  0.0339106  
  0.471377 -0.0530659   0.145911  
  0.491377   0.110934   0.257911  
  0.511377   0.274934   0.369911  
 -0.305613  -0.236384  0.0834596  
 -0.285613 -0.0723836    0.19546  
 -0.265613  0.0916164    0.30746  
 -0.245613   0.255616    0.41946  
  0.550052  -0.237417  -0.293158  
  0.570052 -0.0734169  -0.181158  
  0.590052  0.0905831 -0.0691584  
  0.610052   0.254583  0.0428416  
   0.27958  -0.210879   0.193352  
   0.29958 -0.0468791   0.305352  
   0.31958   0.117121   0.417352  
   0.33958   0.281121   0.529352  
 -0.299551  -0.277961  -0.501993  
 -0.279551  -0.113961  -0.389993  
 -0.259551  0.0500391  -0.277993  
 -0.239551   0.214039  -0.165993  
  -0.61037  -0.254591 -0.0428234  
  -0.59037 -0.0905914  0.0691766  
  -0.57037  0.0734086   0.181177  
  -0.55037   0.237409   0.293177  
 -0.612276  -0.288972  -0.524013  
 -0.592276  -0.124972  -0.412013  
 -0.572276  0.0390279  -0.300013  
 -0.552276   0.203028  -0.188013  
  0.495481  -0.250579  -0.454588  
  0.515481 -0.0865791  -0.342588  
  0.535481  0.0774209  -0.230588  
  0.555481   0.241421  -0.118588  
 -0.558963  -0.241497   0.118992  
 -0.538963 -0.0774972   0.230992  
 -0.518963  0.0865028   0.342992  
 -0.498963   0.250503   0.454992  
   0.55324  -0.202954   0.188636  
   0.57324 -0.0389543   0.300636  
   0.59324   0.125046   0.412636  
   0.61324   0.289046   0.524636  
 0.0181319  -0.269472  -0.517432  
 0.0381319  -0.105472  -0.405432  
 0.0581319   0.058528  -0.293432  
 0.0781319   0.222528  -0.181432  
 -0.490171  -0.248096 -0.00263242  
 -0.470171  -0.084096   0.109368  
 -0.450171   0.079904   0.221368  
 -0.430171   0.243904   0.333368  
 -0.376623  -0.277234  -0.459178  
 -0.356623  -0.113234  -0.347178  
 -0.336623  0.0507664  -0.235178  
 -0.316623   0.214766  -0.123178  
  0.330594  -0.213933   0.128949  
  0.350594  -0.049933   0.240949  
  0.370594   0.114067   0.352949  
  0.390594   0.278067   0.464949  
  0.429962  -0.243906  -0.333305  
  0.449962 -0.0799059  -0.221305  
  0.469962  0.0840941  -0.109305  
  0.489962   0.248094  0.0026946  
  0.575069  -0.228563  -0.179626  
  0.595069 -0.0645635 -0.0676264  
  0.615069  0.0994365  0.0443736  
  0.635069   0.263437   0.156374  
 0.0857487  -0.216971   0.189979  
  0.105749 -0.0529711   0.301979  
  0.125749   0.111029   0.413979  
  0.145749   0.275029   0.525979  
  -0.63509  -0.263437  -0.156378  
  -0.61509 -0.0994375  -0.044378  
  -0.59509  0.0645625   0.067622  
  -0.57509   0.228563   0.179622  
  0.385881  -0.250482  -0.406847  
  0.405881 -0.0864823  -0.294847  
  0.425881  0.0775177  -0.182847  
  0.445881   0.241518 -0.0708468  
  0.455058  -0.210897   0.118832  
  0.475058 -0.0468974   0.230832  
  0.495058   0.117103   0.342832  
  0.515058   0.281103   0.454832  
 -0.511781  -0.280892   -0.45327  
 -0.491781  -0.116892   -0.34127  
 -0.471781  0.0471077   -0.22927  
 -0.451781   0.211108   -0.11727  
 -0.452908  -0.241632  0.0722217  
 -0.432908 -0.0776317   0.184222  
 -0.412908  0.0863683   0.296222  
 -0.392908   0.250368   0.408222  
 -0.211401  -0.230227   0.129903  
 -0.191401 -0.0662267   0.241903  
 -0.171401  0.0977733   0.353903  
 -0.151401   0.261773   0.465903  
  -0.57726   -0.27349  -0.321787  
  -0.55726   -0.10949  -0.209787  
  -0.53726  0.0545097  -0.097787  
  -0.51726    0.21851   0.014213  
  0.517379  -0.218506 -0.0142103  
  0.537379 -0.0545059  0.0977897  
  0.557379   0.109494    0.20979  
  0.577379   0.273494    0.32179  
  0.567126  -0.232733  -0.234721  
  0.587126 -0.0687332  -0.122721  
  0.607126  0.0952668 -0.0107212  
  0.627126   0.259267   0.101279  
  0.180455  -0.213823   0.194035  
  0.200455 -0.0498228   0.306035  
  0.220455   0.114177   0.418035  
  0.240455   0.278177   0.530035  
 -0.627206  -0.259269  -0.101275  
 -0.607206  -0.095269  0.0107249  
 -0.587206   0.068731   0.122725  
 -0.567206   0.232731   0.234725  
 -0.230311  -0.277549  -0.525522  
 -0.210311  -0.113549  -0.413522  
 -0.190311   0.050451  -0.301522  
 -0.170311   0.214451  -0.189522  
 -0.116999  -0.274245  -0.527163  
-0.0969985  -0.110245  -0.415163  
-0.0769985  0.0537546  -0.303163  
-0.0569985   0.217755  -0.191163  
  0.330384  -0.338485  -0.527748  
  0.220824  -0.337614  -0.469166  
  0.101066  -0.343465  -0.500506  
  0.127521  -0.346686  -0.556858  
  0.285604   -0.25605  -0.442457  
  0.238953  -0.260585  -0.486303  
  0.170945  -0.258539  -0.428836  
  0.124294  -0.263075  -0.472682  
  0.275604   -0.33805  -0.498457  
  0.228953  -0.342585  -0.542303  
  0.160945  -0.340539  -0.484836  
  0.114294  -0.345075  -0.528682  
  0.204949  -0.259562  -0.457569  
  0.194949  -0.341562  -0.513569  
  0.350384  -0.174485  -0.415748  
  0.240824  -0.173614  -0.357166  
  0.121066  -0.179465  -0.388506  
  0.147521  -0.182686  -0.444858  
  0.305604 -0.0920495  -0.330457  
  0.258953 -0.0965854  -0.374303  
  0.190945 -0.0945393  -0.316836  
  0.144294 -0.0990751  -0.360682  
  0.295604   -0.17405  -0.386457  
  0.248953  -0.178585  -0.430303  
  0.180945  -0.176539  -0.372836  
  0.134294  -0.181075  -0.416682  
  0.224949 -0.0955623  -0.345569  
  0.214949  -0.177562  -0.401569  
  0.370384 -0.0104852  -0.303748  
  0.260824 -0.00961393  -0.245166  
  0.141066 -0.0154646  -0.276506  
  0.167521 -0.0186856  -0.332858  
  0.325604  0.0719505  -0.218457  
  0.278953  0.0674146  -0.262303  
  0.210945  0.0694607  -0.204836  
  0.164294  0.0649249  -0.248682  
  0.315604 -0.0100495  -0.274457  
  0.268953 -0.0145854  -0.318303  
  0.200945 -0.0125393  -0.260836  
  0.154294 -0.0170751  -0.304682  
  0.244949  0.0684377  -0.233569  
  0.234949 -0.0135623  -0.289569  
  0.390384   0.153515  -0.191748  
  0.280824   0.154386  -0.133166  
  0.161066   0.148535  -0.164506  
  0.187521   0.145314  -0.220858  
  0.345604    0.23595  -0.106457  
  0.298953   0.231415  -0.150303  
  0.230945   0.233461 -0.0928359  
  0.184294   0.228925  -0.136682  
  0.335604    0.15395  -0.162457  
  0.288953   0.149415  -0.206303  
  0.220945   0.151461  -0.148836  
  0.174294   0.146925  -0.192682  
  0.264949   0.232438  -0.121569  
  0.254949   0.150438  -0.177569  
  0.410384   0.317515  -0.079748  
  0.300824   0.318386 -0.0211662  
  0.181066   0.312535 -0.0525056  
  0.207521   0.309314  -0.108858  
  0.355604    0.31795 -0.0504571  
  0.308953   0.313415 -0.0943029  
  0.240945   0.315461 -0.0368359  
  0.194294   0.310925 -0.0806816  
  0.274949   0.314438 -0.0655694  
  0.534543  -0.305874  -0.156961  
  0.563546  -0.301369  -0.106083  
  0.507379  -0.300506 -0.0702103  
  0.416349   -0.30777  -0.133517  
  0.559045  -0.221621 -0.0755219  
  0.485446  -0.224822  -0.089239  
  0.545463  -0.218937 -0.0321466  
  0.471864  -0.222138 -0.0458636  
  0.549045  -0.303621  -0.131522  
  0.475446  -0.306822  -0.145239  
  0.535463  -0.300937 -0.0881466  
  0.461864  -0.304138  -0.101864  
  0.515454   -0.22188 -0.0606928  
  0.505454   -0.30388  -0.116693  
  0.554543  -0.141874  -0.044961  
  0.583546  -0.137369 0.00591709  
  0.527379  -0.136506  0.0417897  
  0.436349   -0.14377  -0.021517  
  0.579045 -0.0576214  0.0364781  
  0.505446 -0.0608217   0.022761  
  0.565463 -0.0549375  0.0798534  
  0.491864 -0.0581377  0.0661364  
  0.569045  -0.139621 -0.0195219  
  0.495446  -0.142822  -0.033239  
  0.555463  -0.136937  0.0238534  
  0.481864  -0.140138  0.0101364  
  0.535454 -0.0578796  0.0513072  
  0.525454   -0.13988 -0.00469279  
  0.574543  0.0221262   0.067039  
  0.603546  0.0266309   0.117917  
  0.547379  0.0274941    0.15379  
  0.456349  0.0202304   0.090483  
  0.599045   0.106379   0.148478  
  0.525446   0.103178   0.134761  
  0.585463   0.109063   0.191853  
  0.511864   0.105862   0.178136  
  0.589045  0.0243786  0.0924781  
  0.515446  0.0211783   0.078761  
  0.575463  0.0270625   0.135853  
  0.501864  0.0238623   0.122136  
  0.555454    0.10612   0.163307  
  0.545454  0.0241204   0.107307  
  0.594543   0.186126   0.179039  
  0.623546   0.190631   0.229917  
  0.567379   0.191494    0.26579  
  0.476349    0.18423   0.202483  
  0.619045   0.270379   0.260478  
  0.545446   0.267178   0.246761  
  0.605463   0.273063   0.303853  
  0.531864   0.269862   0.290136  
  0.609045   0.188379   0.204478  
  0.535446   0.185178   0.190761  
  0.595463   0.191063   0.247853  
  0.521864   0.187862   0.234136  
  0.575454    0.27012   0.275307  
  0.565454    0.18812   0.219307  
  0.614543   0.350126   0.291039  
  0.643546   0.354631   0.341917  
  0.587379   0.355494    0.37779  
  0.496349    0.34823   0.314483  
  0.629045   0.352379   0.316478  
  0.555446   0.349178   0.302761  
  0.615463   0.355063   0.359853  
  0.541864   0.351862   0.346136  
  0.585454    0.35212   0.331307  
-0.0660526   -0.30542   0.103587  
 -0.150069  -0.307311   0.112624  
 -0.221401  -0.312227   0.073903  
 -0.125532  -0.312442  0.0303176  
 -0.098061  -0.224366   0.164105  
-0.0857923  -0.226931   0.122952  
 -0.175735  -0.227769   0.149263  
 -0.163466  -0.230334    0.10811  
 -0.108061  -0.306366   0.108105  
-0.0957923  -0.308931  0.0669521  
 -0.185735  -0.309769  0.0932634  
 -0.173466  -0.312334  0.0521103  
 -0.130764   -0.22735   0.136108  
 -0.140764   -0.30935  0.0801077  
-0.0460526   -0.14142   0.215587  
 -0.130069  -0.143311   0.224624  
 -0.201401  -0.148227   0.185903  
 -0.105532  -0.148442   0.142318  
 -0.078061 -0.0603656   0.276105  
-0.0657923 -0.0629306   0.234952  
 -0.155735 -0.0637691   0.261263  
 -0.143466 -0.0663341    0.22011  
 -0.088061  -0.142366   0.220105  
-0.0757923  -0.144931   0.178952  
 -0.165735  -0.145769   0.205263  
 -0.153466  -0.148334    0.16411  
 -0.110764 -0.0633499   0.248108  
 -0.120764   -0.14535   0.192108  
-0.0260526  0.0225803   0.327587  
 -0.110069  0.0206886   0.336624  
 -0.181401  0.0157733   0.297903  
 -0.085532  0.0155584   0.254318  
 -0.058061   0.103634   0.388105  
-0.0457923   0.101069   0.346952  
 -0.135735   0.100231   0.373263  
 -0.123466  0.0976659    0.33211  
 -0.068061  0.0216344   0.332105  
-0.0557923  0.0190694   0.290952  
 -0.145735  0.0182309   0.317263  
 -0.133466  0.0156659    0.27611  
-0.0907636    0.10065   0.360108  
 -0.100764  0.0186501   0.304108  
-0.00605259    0.18658   0.439587  
-0.0900693   0.184689   0.448624  
 -0.161401   0.179773   0.409903  
 -0.065532   0.179558   0.366318  
 -0.038061   0.267634   0.500105  
-0.0257923   0.265069   0.458952  
 -0.115735   0.264231   0.485263  
 -0.103466   0.261666    0.44411  
 -0.048061   0.185634   0.444105  
-0.0357923   0.183069   0.402952  
 -0.125735   0.182231   0.429263  
 -0.113466   0.179666    0.38811  
-0.0707636    0.26465   0.472108  
-0.0807636    0.18265   0.416108  
 0.0139474    0.35058   0.551587  
-0.0700693   0.348689   0.560624  
 -0.141401   0.343773   0.521903  
 -0.045532   0.343558   0.478318  
 -0.028061   0.349634   0.556105  
-0.0157923   0.347069   0.514952  
 -0.105735   0.346231   0.541263  
-0.0934663   0.343666    0.50011  
-0.0607636    0.34665   0.528108  
 -0.614543  -0.350127   -0.29105  
  -0.64354  -0.354632  -0.341931  
  -0.58726   -0.35549  -0.377787  
 -0.496324  -0.348231  -0.314506  
 -0.619042  -0.270379   -0.26049  
 -0.545433  -0.267179  -0.246778  
   -0.6054  -0.273061  -0.303859  
 -0.531792  -0.269861  -0.290147  
 -0.629042  -0.352379   -0.31649  
 -0.555433  -0.349179  -0.302778  
   -0.6154  -0.355061  -0.359859  
 -0.541792  -0.351861  -0.346147  
 -0.575417   -0.27012  -0.275318  
 -0.585417   -0.35212  -0.331318  
 -0.594543  -0.186127   -0.17905  
  -0.62354  -0.190632  -0.229931  
  -0.56726   -0.19149  -0.265787  
 -0.476324  -0.184231  -0.202506  
 -0.599042  -0.106379   -0.14849  
 -0.525433  -0.103179  -0.134778  
   -0.5854  -0.109061  -0.191859  
 -0.511792  -0.105861  -0.178147  
 -0.609042  -0.188379   -0.20449  
 -0.535433  -0.185179  -0.190778  
   -0.5954  -0.191061  -0.247859  
 -0.521792  -0.187861  -0.234147  
 -0.555417   -0.10612  -0.163318  
 -0.565417   -0.18812  -0.219318  
 -0.574543  -0.022127 -0.0670497  
  -0.60354 -0.0266317  -0.117931  
  -0.54726 -0.0274903  -0.153787  
 -0.456324 -0.0202313 -0.0905061  
 -0.579042  0.0576207 -0.0364902  
 -0.505433  0.0608209 -0.0227779  
   -0.5654   0.054939 -0.0798588  
 -0.491792  0.0581392 -0.0661466  
 -0.589042 -0.0243793 -0.0924902  
 -0.515433 -0.0211791 -0.0787779  
   -0.5754  -0.027061  -0.135859  
 -0.501792 -0.0238608  -0.122147  
 -0.535417  0.0578799 -0.0513184  
 -0.545417 -0.0241201  -0.107318  
 -0.554543   0.141873  0.0449503  
  -0.58354   0.137368 -0.00593065  
  -0.52726    0.13651  -0.041787  
 -0.436324   0.143769  0.0214939  
 -0.559042   0.221621  0.0755098  
 -0.485433   0.224821  0.0892221  
   -0.5454   0.218939  0.0321412  
 -0.471792   0.222139  0.0458534  
 -0.569042   0.139621  0.0195098  
 -0.495433   0.142821  0.0332221  
   -0.5554   0.136939 -0.0238588  
 -0.481792   0.140139 -0.0101466  
 -0.515417    0.22188  0.0606816  
 -0.525417    0.13988 0.00468162  
 -0.534543   0.305873    0.15695  
  -0.56354   0.301368   0.106069  
  -0.50726    0.30051   0.070213  
 -0.416324   0.307769   0.133494  
 -0.549042   0.303621    0.13151  
 -0.475433   0.306821   0.145222  
   -0.5354   0.300939  0.0881412  
 -0.461792   0.304139   0.101853  
 -0.505417    0.30388   0.116682  
 -0.633606  -0.365583  -0.499671  
  -0.64883  -0.359993  -0.414852  
  -0.69254  -0.278246  -0.339676  
 -0.688053  -0.284792  -0.433335  
 -0.631218  -0.280788  -0.401261  
  -0.70254  -0.360246  -0.395676  
 -0.698053  -0.366792  -0.489335  
 -0.641218  -0.362788  -0.457261  
 -0.690297  -0.281519  -0.386506  
 -0.700297  -0.363519  -0.442506  
 -0.613606  -0.201583  -0.387671  
  -0.62883  -0.195993  -0.302852  
  -0.67254  -0.114246  -0.227676  
 -0.668053  -0.120792  -0.321335  
 -0.611218  -0.116788  -0.289261  
  -0.68254  -0.196246  -0.283676  
 -0.678053  -0.202792  -0.377335  
 -0.621218  -0.198788  -0.345261  
 -0.670297  -0.117519  -0.274506  
 -0.680297  -0.199519  -0.330506  
 -0.593606 -0.0375834  -0.275671  
  -0.60883 -0.0319929  -0.190852  
  -0.65254  0.0497536  -0.115676  
 -0.648053  0.0432083  -0.209335  
 -0.591218  0.0472119  -0.177261  
  -0.66254 -0.0322464  -0.171676  
 -0.658053 -0.0387917  -0.265335  
 -0.601218 -0.0347881  -0.233261  
 -0.650297  0.0464809  -0.162506  
 -0.660297 -0.0355191  -0.218506  
 -0.573606   0.126417  -0.163671  
  -0.58883   0.132007  -0.078852  
  -0.63254   0.213754 -0.00367602  
 -0.628053   0.207208 -0.0973354  
 -0.571218   0.211212 -0.0652614  
  -0.64254   0.131754  -0.059676  
 -0.638053   0.125208  -0.153335  
 -0.581218   0.129212  -0.121261  
 -0.630297   0.210481 -0.0505057  
 -0.640297   0.128481  -0.106506  
 -0.553606   0.290417 -0.0516707  
  -0.56883   0.296007   0.033148  
  -0.62254   0.295754   0.052324  
 -0.618053   0.289208 -0.0413354  
 -0.561218   0.293212 -0.00926138  
 -0.620297   0.292481 0.00549431  
   0.13001  -0.267218  -0.533179  
  0.320192  -0.259993  -0.512374  
   0.12001  -0.349218  -0.589179  
  0.310192  -0.341993  -0.568374  
  0.225101  -0.263605  -0.522776  
  0.215101  -0.345605  -0.578776  
   0.15001  -0.103218  -0.421179  
  0.340192 -0.0959926  -0.400374  
   0.14001  -0.185218  -0.477179  
  0.330192  -0.177993  -0.456374  
  0.245101 -0.0996052  -0.410776  
  0.235101  -0.181605  -0.466776  
   0.17001  0.0607822  -0.309179  
  0.360192  0.0680074  -0.288374  
   0.16001 -0.0212178  -0.365179  
  0.350192 -0.0139926  -0.344374  
  0.265101  0.0643948  -0.298776  
  0.255101 -0.0176052  -0.354776  
   0.19001   0.224782  -0.197179  
  0.380192   0.232007  -0.176374  
   0.18001   0.142782  -0.253179  
  0.370192   0.150007  -0.232374  
  0.285101   0.228395  -0.186776  
  0.275101   0.146395  -0.242776  
   0.20001   0.306782  -0.141179  
  0.390192   0.314007  -0.120374  
  0.295101   0.310395  -0.130776  
 -0.426333  -0.317845  0.0818745  
 -0.276196  -0.311718   0.104222  
 -0.224348  -0.225984   0.194861  
 -0.388166  -0.232172   0.177437  
 -0.341264  -0.232781   0.149048  
 -0.234348  -0.307984   0.138861  
 -0.398166  -0.314172   0.121437  
 -0.351264  -0.314781   0.093048  
 -0.306257  -0.229078   0.186149  
 -0.316257  -0.311078   0.130149  
 -0.406333  -0.153845   0.193874  
 -0.256196  -0.147718   0.216222  
 -0.204348 -0.0619841   0.306861  
 -0.368166 -0.0681723   0.289437  
 -0.321264 -0.0687814   0.261048  
 -0.214348  -0.143984   0.250861  
 -0.378166  -0.150172   0.233437  
 -0.331264  -0.150781   0.205048  
 -0.286257 -0.0650782   0.298149  
 -0.296257  -0.147078   0.242149  
 -0.386333  0.0101554   0.305874  
 -0.236196  0.0162818   0.328222  
 -0.184348   0.102016   0.418861  
 -0.348166  0.0958277   0.401437  
 -0.301264  0.0952186   0.373048  
 -0.194348  0.0200159   0.362861  
 -0.358166  0.0138277   0.345437  
 -0.311264  0.0132186   0.317048  
 -0.266257  0.0989218   0.410149  
 -0.276257  0.0169218   0.354149  
 -0.366333   0.174155   0.417874  
 -0.216196   0.180282   0.440222  
 -0.164348   0.266016   0.530861  
 -0.328166   0.259828   0.513437  
 -0.281264   0.259219   0.485048  
 -0.174348   0.184016   0.474861  
 -0.338166   0.177828   0.457437  
 -0.291264   0.177219   0.429048  
 -0.246257   0.262922   0.522149  
 -0.256257   0.180922   0.466149  
 -0.346333   0.338155   0.529874  
 -0.196196   0.344282   0.552222  
 -0.154348   0.348016   0.586861  
 -0.318166   0.341828   0.569437  
 -0.271264   0.341219   0.541048  
 -0.236257   0.344922   0.578149  
  0.553608  -0.290417  0.0516671  
  0.568824  -0.296009 -0.0331733  
  0.632537  -0.213755 0.00366334  
  0.628054  -0.207208  0.0973336  
  0.571216  -0.211213  0.0652469  
  0.622537  -0.295755 -0.0523367  
  0.618054  -0.289208  0.0413336  
  0.561216  -0.293213  0.0092469  
  0.630295  -0.210481  0.0504985  
  0.620295  -0.292481 -0.00550155  
  0.573608  -0.126417   0.163667  
  0.588824  -0.132009  0.0788267  
  0.652537 -0.0497546   0.115663  
  0.648054 -0.0432084   0.209334  
  0.591216  -0.047213   0.177247  
  0.642537  -0.131755  0.0596633  
  0.638054  -0.125208   0.153334  
  0.581216  -0.129213   0.121247  
  0.650295 -0.0464815   0.162498  
  0.640295  -0.128481   0.106498  
  0.593608  0.0375832   0.275667  
  0.608824  0.0319909   0.190827  
  0.672537   0.114245   0.227663  
  0.668054   0.120792   0.321334  
  0.611216   0.116787   0.289247  
  0.662537  0.0322454   0.171663  
  0.658054  0.0387916   0.265334  
  0.601216   0.034787   0.233247  
  0.670295   0.117519   0.274498  
  0.660295  0.0355185   0.218498  
  0.613608   0.201583   0.387667  
  0.628824   0.195991   0.302827  
  0.692537   0.278245   0.339663  
  0.688054   0.284792   0.433334  
  0.631216   0.280787   0.401247  
  0.682537   0.196245   0.283663  
  0.678054   0.202792   0.377334  
  0.621216   0.198787   0.345247  
  0.690295   0.281519   0.386498  
  0.680295   0.199519   0.330498  
  0.633608   0.365583   0.499667  
  0.648824   0.359991   0.414827  
  0.702537   0.360245   0.395663  
  0.698054   0.366792   0.489334  
  0.641216   0.362787   0.457247  
  0.700295   0.363519   0.442498  
 -0.335022  -0.325148 -0.0591595  
 -0.404413  -0.324215  -0.016715  
 -0.500171  -0.330096 -0.0586324  
 -0.403597  -0.330779  -0.109081  
 -0.359717  -0.242682  0.0180628  
  -0.35931  -0.245964 -0.0281204  
 -0.442292  -0.245156  0.0183263  
 -0.441884  -0.248438 -0.0278569  
 -0.369717  -0.324682 -0.0379372  
  -0.36931  -0.327964 -0.0841204  
 -0.452292  -0.327156 -0.0376737  
 -0.451884  -0.330438 -0.0838569  
 -0.400801   -0.24556 -0.00489707  
 -0.410801   -0.32756 -0.0608971  
 -0.315022  -0.161148  0.0528405  
 -0.384413  -0.160215   0.095285  
 -0.480171  -0.166096  0.0533676  
 -0.383597  -0.166779 0.00291862  
 -0.339717 -0.0786817   0.130063  
  -0.33931 -0.0819636  0.0838796  
 -0.422292 -0.0811556   0.130326  
 -0.421884 -0.0844376  0.0841431  
 -0.349717  -0.160682  0.0740628  
  -0.34931  -0.163964  0.0278796  
 -0.432292  -0.163156  0.0743263  
 -0.431884  -0.166438  0.0281431  
 -0.380801 -0.0815596   0.107103  
 -0.390801   -0.16356  0.0511029  
 -0.295022 0.00285195   0.164841  
 -0.364413 0.00378474   0.207285  
 -0.460171 -0.00209599   0.165368  
 -0.363597 -0.00277915   0.114919  
 -0.319717  0.0853183   0.242063  
  -0.31931  0.0820364    0.19588  
 -0.402292  0.0828444   0.242326  
 -0.401884  0.0795624   0.196143  
 -0.329717 0.00331835   0.186063  
  -0.32931 3.64038e-05    0.13988  
 -0.412292 0.000844374   0.186326  
 -0.411884 -0.00243757   0.140143  
 -0.360801  0.0824404   0.219103  
 -0.370801 0.000440389   0.163103  
 -0.275022   0.166852   0.276841  
 -0.344413   0.167785   0.319285  
 -0.440171   0.161904   0.277368  
 -0.343597   0.161221   0.226919  
 -0.299717   0.249318   0.354063  
  -0.29931   0.246036    0.30788  
 -0.382292   0.246844   0.354326  
 -0.381884   0.243562   0.308143  
 -0.309717   0.167318   0.298063  
  -0.30931   0.164036    0.25188  
 -0.392292   0.164844   0.298326  
 -0.391884   0.161562   0.252143  
 -0.340801    0.24644   0.331103  
 -0.350801    0.16444   0.275103  
 -0.255022   0.330852   0.388841  
 -0.324413   0.331785   0.431285  
 -0.420171   0.325904   0.389368  
 -0.323597   0.325221   0.338919  
 -0.289717   0.331318   0.410063  
  -0.28931   0.328036    0.36388  
 -0.372292   0.328844   0.410326  
 -0.371884   0.325562   0.364143  
 -0.330801    0.32844   0.387103  
 -0.372833  -0.352304  -0.423865  
 -0.455631  -0.358121  -0.470369  
 -0.386623  -0.359234  -0.515178  
 -0.299962  -0.352716  -0.460481  
 -0.404232  -0.273212  -0.391117  
 -0.326397   -0.27051  -0.386173  
 -0.411127  -0.276677  -0.436774  
 -0.333293  -0.273975   -0.43183  
 -0.414232  -0.355212  -0.447117  
 -0.336397   -0.35251  -0.442173  
 -0.421127  -0.358677  -0.492774  
 -0.343293  -0.355975   -0.48783  
 -0.368762  -0.273594  -0.411473  
 -0.378762  -0.355594  -0.467473  
 -0.352833  -0.188304  -0.311865  
 -0.435631  -0.194121  -0.358369  
 -0.366623  -0.195234  -0.403178  
 -0.279962  -0.188716  -0.348481  
 -0.384232  -0.109212  -0.279117  
 -0.306397   -0.10651  -0.274173  
 -0.391127  -0.112677  -0.324774  
 -0.313293  -0.109975   -0.31983  
 -0.394232  -0.191212  -0.335117  
 -0.316397   -0.18851  -0.330173  
 -0.401127  -0.194677  -0.380774  
 -0.323293  -0.191975   -0.37583  
 -0.348762  -0.109594  -0.299473  
 -0.358762  -0.191594  -0.355473  
 -0.332833 -0.0243039  -0.199865  
 -0.415631 -0.0301206  -0.246369  
 -0.346623 -0.0312336  -0.291178  
 -0.259962 -0.0247159  -0.236481  
 -0.364232  0.0547877  -0.167117  
 -0.286397  0.0574901  -0.162173  
 -0.371127  0.0513229  -0.212774  
 -0.293293  0.0540252   -0.20783  
 -0.374232 -0.0272123  -0.223117  
 -0.296397 -0.0245099  -0.218173  
 -0.381127 -0.0306771  -0.268774  
 -0.303293 -0.0279748   -0.26383  
 -0.328762  0.0544065  -0.187473  
 -0.338762 -0.0275935  -0.243473  
 -0.312833   0.139696 -0.0878647  
 -0.395631   0.133879  -0.134369  
 -0.326623   0.132766  -0.179178  
 -0.239962   0.139284  -0.124481  
 -0.344232   0.218788 -0.0551171  
 -0.266397    0.22149 -0.0501729  
 -0.351127   0.215323  -0.100774  
 -0.273293   0.218025 -0.0958298  
 -0.354232   0.136788  -0.111117  
 -0.276397    0.13949  -0.106173  
 -0.361127   0.133323  -0.156774  
 -0.283293   0.136025   -0.15183  
 -0.308762   0.218406 -0.0754735  
 -0.318762   0.136406  -0.131473  
 -0.292833   0.303696  0.0241353  
 -0.375631   0.297879 -0.0223695  
 -0.306623   0.296766 -0.0671784  
 -0.219962   0.303284 -0.0124812  
 -0.334232   0.300788 0.000882919  
 -0.256397    0.30349 0.00582705  
 -0.341127   0.297323  -0.044774  
 -0.263293   0.300025 -0.0398298  
 -0.298762   0.300406 -0.0194735  
  0.293608  -0.303687 -0.0243377  
  0.378471  -0.297734   0.023204  
  0.320594  -0.295933  0.0729494  
  0.217502  -0.303668 0.00814509  
   0.34604  -0.218711  0.0554332  
  0.265555  -0.221677  0.0479037  
  0.359532  -0.214834   0.104077  
  0.279048    -0.2178  0.0965472  
   0.33604  -0.300711 -0.000566844  
  0.255555  -0.303677 -0.00809629  
  0.349532  -0.296834  0.0480767  
  0.269048    -0.2998  0.0405472  
  0.312544  -0.218255  0.0759902  
  0.302544  -0.300255  0.0199902  
  0.313608  -0.139687  0.0876623  
  0.398471  -0.133734   0.135204  
  0.340594  -0.131933   0.184949  
  0.237502  -0.139668   0.120145  
   0.36604 -0.0547106   0.167433  
  0.285555 -0.0576774   0.159904  
  0.379532 -0.0508336   0.216077  
  0.299048 -0.0538003   0.208547  
   0.35604  -0.136711   0.111433  
  0.275555  -0.139677   0.103904  
  0.369532  -0.132834   0.160077  
  0.289048    -0.1358   0.152547  
  0.332544 -0.0542555    0.18799  
  0.322544  -0.136255    0.13199  
  0.333608  0.0243129   0.199662  
  0.418471  0.0302659   0.247204  
  0.360594   0.032067   0.296949  
  0.257502  0.0243324   0.232145  
   0.38604   0.109289   0.279433  
  0.305555   0.106323   0.271904  
  0.399532   0.113166   0.328077  
  0.319048     0.1102   0.320547  
   0.37604  0.0272894   0.223433  
  0.295555  0.0243226   0.215904  
  0.389532  0.0311664   0.272077  
  0.309048  0.0281997   0.264547  
  0.352544   0.109745    0.29999  
  0.342544  0.0277445    0.24399  
  0.353608   0.188313   0.311662  
  0.438471   0.194266   0.359204  
  0.380594   0.196067   0.408949  
  0.277502   0.188332   0.344145  
   0.40604   0.273289   0.391433  
  0.325555   0.270323   0.383904  
  0.419532   0.277166   0.440077  
  0.339048     0.2742   0.432547  
   0.39604   0.191289   0.335433  
  0.315555   0.188323   0.327904  
  0.409532   0.195166   0.384077  
  0.329048     0.1922   0.376547  
  0.372544   0.273745    0.41199  
  0.362544   0.191745    0.35599  
  0.373608   0.352313   0.423662  
  0.458471   0.358266   0.471204  
  0.400594   0.360067   0.520949  
  0.297502   0.352332   0.456145  
   0.41604   0.355289   0.447433  
  0.335555   0.352323   0.439904  
  0.429532   0.359166   0.496077  
  0.349048     0.3562   0.488547  
  0.382544   0.355745    0.46799  
  0.252861  -0.330845  -0.387835  
  0.319396   -0.33184  -0.429943  
  0.419962  -0.325906  -0.389305  
  0.322934  -0.325231  -0.338786  
  0.296128  -0.249343  -0.352889  
  0.297897  -0.246038   -0.30731  
  0.379679  -0.246873  -0.353624  
  0.381448  -0.243569  -0.308046  
  0.286128  -0.331343  -0.408889  
  0.287897  -0.328038   -0.36331  
  0.369679  -0.328873  -0.409624  
  0.371448  -0.325569  -0.364046  
  0.338788  -0.246456  -0.330467  
  0.328788  -0.328456  -0.386467  
  0.272861  -0.166845  -0.275835  
  0.339396   -0.16784  -0.317943  
  0.439962  -0.161906  -0.277305  
  0.342934  -0.161231  -0.226786  
  0.316128  -0.085343  -0.240889  
  0.317897 -0.0820384   -0.19531  
  0.399679 -0.0828732  -0.241624  
  0.401448 -0.0795687  -0.196046  
  0.306128  -0.167343  -0.296889  
  0.307897  -0.164038   -0.25131  
  0.389679  -0.164873  -0.297624  
  0.391448  -0.161569  -0.252046  
  0.358788 -0.0824558  -0.218467  
  0.348788  -0.164456  -0.274467  
  0.292861 -0.00284544  -0.163835  
  0.359396 -0.00384049  -0.205943  
  0.459962  0.0020941  -0.165305  
  0.362934 0.00276858  -0.114786  
  0.336128   0.078657  -0.128889  
  0.337897  0.0819616 -0.0833104  
  0.419679  0.0811268  -0.129624  
  0.421448  0.0844313 -0.0840457  
  0.326128 -0.00334297  -0.184889  
  0.327897 -3.84315e-05   -0.13931  
  0.409679 -0.000873195  -0.185624  
  0.411448 0.00243134  -0.140046  
  0.378788  0.0815442  -0.106467  
  0.368788 -0.000455813  -0.162467  
  0.312861   0.161155 -0.0518348  
  0.379396    0.16016 -0.0939433  
  0.479962   0.166094 -0.0533054  
  0.382934   0.166769 -0.00278597  
  0.356128   0.242657 -0.0168891  
  0.357897   0.245962  0.0286896  
  0.439679   0.245127 -0.0176243  
  0.441448   0.248431  0.0279543  
  0.346128   0.160657 -0.0728891  
  0.347897   0.163962 -0.0273104  
  0.429679   0.163127 -0.0736243  
  0.431448   0.166431 -0.0280457  
  0.398788   0.245544 0.00553263  
  0.388788   0.163544 -0.0504674  
  0.332861   0.325155  0.0601652  
  0.399396    0.32416  0.0180567  
  0.499962   0.330094  0.0586946  
  0.402934   0.330769   0.109214  
  0.366128   0.324657  0.0391109  
  0.367897   0.327962  0.0846896  
  0.449679   0.327127  0.0383757  
  0.451448   0.330431  0.0839543  
  0.408788   0.327544  0.0615326  
 -0.298603   -0.24369 -0.0219401  
 -0.362393  -0.249052  -0.070116  
 -0.308603   -0.32569 -0.0779401  
 -0.372393  -0.331052  -0.126116  
  -0.33167  -0.246375 -0.0455791  
  -0.34167  -0.328375  -0.101579  
 -0.278603 -0.0796901  0.0900599  
 -0.342393 -0.0850522   0.041884  
 -0.288603   -0.16169  0.0340599  
 -0.352393  -0.167052  -0.014116  
  -0.31167 -0.0823745  0.0664209  
  -0.32167  -0.164375  0.0104209  
 -0.258603  0.0843099    0.20206  
 -0.322393  0.0789478   0.153884  
 -0.268603 0.00230986    0.14606  
 -0.332393 -0.00305223   0.097884  
  -0.29167  0.0816255   0.178421  
  -0.30167 -0.000374546   0.122421  
 -0.238603    0.24831    0.31406  
 -0.302393   0.242948   0.265884  
 -0.248603    0.16631    0.25806  
 -0.312393   0.160948   0.209884  
  -0.27167   0.245625   0.290421  
  -0.28167   0.163625   0.234421  
 -0.228603    0.33031    0.37006  
 -0.292393   0.324948   0.321884  
  -0.26167   0.327625   0.346421  
  0.266735  -0.224121  0.0131484  
  0.192914  -0.224214  0.0430901  
  0.256735  -0.306121 -0.0428516  
  0.182914  -0.306214 -0.0129099  
  0.230791  -0.224084  0.0288801  
  0.220791  -0.306084 -0.0271199  
  0.286735 -0.0601208   0.125148  
  0.212914 -0.0602136    0.15509  
  0.276735  -0.142121  0.0691484  
  0.202914  -0.142214  0.0990901  
  0.250791 -0.0600838    0.14088  
  0.240791  -0.142084  0.0848801  
  0.306735   0.103879   0.237148  
  0.232914   0.103786    0.26709  
  0.296735  0.0218792   0.181148  
  0.222914  0.0217864    0.21109  
  0.270791   0.103916    0.25288  
  0.260791  0.0219162    0.19688  
  0.326735   0.267879   0.349148  
  0.252914   0.267786    0.37909  
  0.316735   0.185879   0.293148  
  0.242914   0.185786    0.32309  
  0.290791   0.267916    0.36488  
  0.280791   0.185916    0.30888  
  0.336735   0.349879   0.405148  
  0.262914   0.349786    0.43509  
  0.300791   0.349916    0.42088  
 -0.326348  -0.267875   -0.34925  
 -0.254143  -0.267978  -0.381258  
 -0.336348  -0.349875   -0.40525  
 -0.264143  -0.349978  -0.437258  
 -0.291212   -0.26801  -0.366015  
 -0.301212   -0.35001  -0.422015  
 -0.306348  -0.103875   -0.23725  
 -0.234143  -0.103978  -0.269258  
 -0.316348  -0.185875   -0.29325  
 -0.244143  -0.185978  -0.325258  
 -0.271212   -0.10401  -0.254015  
 -0.281212   -0.18601  -0.310015  
 -0.286348  0.0601253   -0.12525  
 -0.214143  0.0600218  -0.157258  
 -0.296348 -0.0218747   -0.18125  
 -0.224143 -0.0219782  -0.213258  
 -0.251212  0.0599901  -0.142015  
 -0.261212 -0.0220099  -0.198015  
 -0.266348   0.224125 -0.0132496  
 -0.194143   0.224022 -0.0452582  
 -0.276348   0.142125 -0.0692496  
 -0.204143   0.142022  -0.101258  
 -0.231212    0.22399 -0.0300147  
 -0.241212    0.14199 -0.0860147  
 -0.256348   0.306125  0.0427504  
 -0.184143   0.306022  0.0107418  
 -0.221212    0.30599  0.0259853  
  0.237522  -0.248307  -0.313557  
  0.302062  -0.242953  -0.265818  
  0.227522  -0.330307  -0.369557  
  0.292062  -0.324953  -0.321818  
  0.270964  -0.245626  -0.290136  
  0.260964  -0.327626  -0.346136  
  0.257522 -0.0843066  -0.201557  
  0.322062 -0.0789531  -0.153818  
  0.247522  -0.166307  -0.257557  
  0.312062  -0.160953  -0.209818  
  0.290964 -0.0816265  -0.178136  
  0.280964  -0.163626  -0.234136  
  0.277522  0.0796934  -0.089557  
  0.342062  0.0850469 -0.0418177  
  0.267522 -0.00230661  -0.145557  
  0.332062 0.00304695 -0.0978177  
  0.310964  0.0823735 -0.0661363  
  0.300964 0.000373532  -0.122136  
  0.297522   0.243693   0.022443  
  0.362062   0.249047  0.0701823  
  0.287522   0.161693  -0.033557  
  0.352062   0.167047  0.0141823  
  0.330964   0.246374  0.0458637  
  0.320964   0.164374 -0.0101363  
  0.307522   0.325693   0.078443  
  0.372062   0.331047   0.126182  
  0.340964   0.328374   0.101864  
  0.612271  -0.222437   -0.10948  
  0.629898  -0.216435 -0.0327915  
  0.602271  -0.304437   -0.16548  
  0.619898  -0.298435 -0.0887915  
  0.621085  -0.219436  -0.071136  
  0.611085  -0.301436  -0.127136  
  0.632271 -0.0584369 0.00251952  
  0.649898 -0.0524345  0.0792085  
  0.622271  -0.140437 -0.0534805  
  0.639898  -0.134435  0.0232085  
  0.641085 -0.0554357   0.040864  
  0.631085  -0.137436  -0.015136  
  0.652271   0.105563    0.11452  
  0.669898   0.111565   0.191209  
  0.642271  0.0235631  0.0585195  
  0.659898  0.0295655   0.135209  
  0.661085   0.108564   0.152864  
  0.651085  0.0265643   0.096864  
  0.672271   0.269563    0.22652  
  0.689898   0.275565   0.303209  
  0.662271   0.187563    0.17052  
  0.679898   0.193565   0.247209  
  0.681085   0.272564   0.264864  
  0.671085   0.190564   0.208864  
  0.682271   0.351563    0.28252  
  0.699898   0.357565   0.359209  
  0.691085   0.354564   0.320864  
-0.0305263   -0.21971   0.200793  
 -0.161285  -0.223781   0.199062  
-0.0405263   -0.30171   0.144793  
 -0.171285  -0.305781   0.143062  
-0.0959055  -0.221745   0.199928  
 -0.105905  -0.303745   0.143928  
-0.0105263 -0.0557099   0.312793  
 -0.141285 -0.0597807   0.311062  
-0.0205263   -0.13771   0.256793  
 -0.151285  -0.141781   0.255062  
-0.0759055 -0.0577453   0.311928  
-0.0859055  -0.139745   0.255928  
0.00947371    0.10829   0.424793  
 -0.121285   0.104219   0.423062  
-0.000526294  0.0262901   0.368793  
 -0.131285  0.0222193   0.367062  
-0.0559055   0.106255   0.423928  
-0.0659055  0.0242547   0.367928  
 0.0294737    0.27229   0.536793  
 -0.101285   0.268219   0.535062  
 0.0194737    0.19029   0.480793  
 -0.111285   0.186219   0.479062  
-0.0359055   0.270255   0.535928  
-0.0459055   0.188255   0.479928  
 0.0394737    0.35429   0.592793  
-0.0912847   0.350219   0.591062  
-0.0259055   0.352255   0.591928  
 -0.672271  -0.269563  -0.226525  
 -0.689895  -0.275566  -0.303215  
 -0.682271  -0.351563  -0.282525  
 -0.699895  -0.357566  -0.359215  
 -0.681083  -0.272565   -0.26487  
 -0.691083  -0.354565   -0.32087  
 -0.652271  -0.105563  -0.114525  
 -0.669895  -0.111566  -0.191215  
 -0.662271  -0.187563  -0.170525  
 -0.679895  -0.193566  -0.247215  
 -0.661083  -0.108565   -0.15287  
 -0.671083  -0.190565   -0.20887  
 -0.632271  0.0584365 -0.00252485  
 -0.649895  0.0524342 -0.0792153  
 -0.642271 -0.0235635 -0.0585249  
 -0.659895 -0.0295658  -0.135215  
 -0.641083  0.0554353 -0.0408701  
 -0.651083 -0.0265647 -0.0968701  
 -0.612271   0.222437   0.109475  
 -0.629895   0.216434  0.0327847  
 -0.622271   0.140437  0.0534751  
 -0.639895   0.134434 -0.0232153  
 -0.621083   0.219435  0.0711299  
 -0.631083   0.137435  0.0151299  
 -0.602271   0.304437   0.165475  
 -0.619895   0.298434  0.0887847  
 -0.611083   0.301435    0.12713  
 -0.240311  -0.359549  -0.581522  
 -0.126999  -0.356245  -0.583163  
 -0.151108  -0.354543  -0.549094  
 -0.231405    -0.2799  -0.558011  
 -0.185709  -0.275046  -0.509308  
 -0.174749  -0.278248  -0.558832  
 -0.129053  -0.273394  -0.510129  
 -0.241405    -0.3619  -0.614011  
 -0.195709  -0.357046  -0.565308  
 -0.184749  -0.360248  -0.614832  
 -0.139053  -0.355394  -0.566129  
 -0.180229  -0.276647   -0.53407  
 -0.190229  -0.358647   -0.59007  
 -0.220311  -0.195549  -0.469522  
 -0.106999  -0.192245  -0.471163  
 -0.131108  -0.190543  -0.437094  
 -0.211405    -0.1159  -0.446011  
 -0.165709  -0.111046  -0.397308  
 -0.154749  -0.114248  -0.446832  
 -0.109053  -0.109394  -0.398129  
 -0.221405    -0.1979  -0.502011  
 -0.175709  -0.193046  -0.453308  
 -0.164749  -0.196248  -0.502832  
 -0.119053  -0.191394  -0.454129  
 -0.160229  -0.112647   -0.42207  
 -0.170229  -0.194647   -0.47807  
 -0.200311  -0.031549  -0.357522  
-0.0869985 -0.0282454  -0.359163  
 -0.111108 -0.0265431  -0.325094  
 -0.191405  0.0481005  -0.334011  
 -0.145709   0.052954  -0.285308  
 -0.134749  0.0497523  -0.334832  
-0.0890532  0.0546057  -0.286129  
 -0.201405 -0.0338995  -0.390011  
 -0.155709  -0.029046  -0.341308  
 -0.144749 -0.0322477  -0.390832  
-0.0990532 -0.0273943  -0.342129  
 -0.140229  0.0513531   -0.31007  
 -0.150229 -0.0306469   -0.36607  
 -0.180311   0.132451  -0.245522  
-0.0669985   0.135755  -0.247163  
-0.0911078   0.137457  -0.213094  
 -0.171405     0.2121  -0.222011  
 -0.125709   0.216954  -0.173308  
 -0.114749   0.213752  -0.222832  
-0.0690532   0.218606  -0.174129  
 -0.181405     0.1301  -0.278011  
 -0.135709   0.134954  -0.229308  
 -0.124749   0.131752  -0.278832  
-0.0790532   0.136606  -0.230129  
 -0.120229   0.215353   -0.19807  
 -0.130229   0.133353   -0.25407  
 -0.160311   0.296451  -0.133522  
-0.0469985   0.299755  -0.135163  
-0.0711078   0.301457  -0.101094  
 -0.161405     0.2941  -0.166011  
 -0.115709   0.298954  -0.117308  
 -0.104749   0.295752  -0.166832  
-0.0590532   0.300606  -0.118129  
 -0.110229   0.297353   -0.14207  
 -0.309551  -0.359961  -0.557993  
 -0.264931  -0.277755  -0.513757  
 -0.354776   -0.28323  -0.552496  
 -0.274931  -0.359755  -0.569757  
 -0.364776   -0.36523  -0.608496  
 -0.293091  -0.281565  -0.555254  
 -0.303091  -0.363565  -0.611254  
 -0.289551  -0.195961  -0.445993  
 -0.244931  -0.113755  -0.401757  
 -0.334776   -0.11923  -0.440496  
 -0.254931  -0.195755  -0.457757  
 -0.344776   -0.20123  -0.496496  
 -0.273091  -0.117565  -0.443254  
 -0.283091  -0.199565  -0.499254  
 -0.269551 -0.0319609  -0.333993  
 -0.224931   0.050245  -0.289757  
 -0.314776  0.0447695  -0.328496  
 -0.234931  -0.031755  -0.345757  
 -0.324776 -0.0372305  -0.384496  
 -0.253091   0.046435  -0.331254  
 -0.263091  -0.035565  -0.387254  
 -0.249551   0.132039  -0.221993  
 -0.204931   0.214245  -0.177757  
 -0.294776    0.20877  -0.216496  
 -0.214931   0.132245  -0.233757  
 -0.304776    0.12677  -0.272496  
 -0.233091   0.210435  -0.219254  
 -0.243091   0.128435  -0.275254  
 -0.229551   0.296039  -0.109993  
 -0.194931   0.296245  -0.121757  
 -0.284776    0.29077  -0.160496  
 -0.223091   0.292435  -0.163254  
 -0.622276  -0.370972  -0.580013  
 -0.599888  -0.291861  -0.569756  
 -0.685513  -0.291236  -0.524756  
 -0.609888  -0.373861  -0.625756  
 -0.695513  -0.373236  -0.580756  
 -0.680881  -0.294556  -0.573253  
 -0.690881  -0.376556  -0.629253  
 -0.602276  -0.206972  -0.468013  
 -0.579888  -0.127861  -0.457756  
 -0.665513  -0.127236  -0.412756  
 -0.589888  -0.209861  -0.513756  
 -0.675513  -0.209236  -0.468756  
 -0.660881  -0.130556  -0.461253  
 -0.670881  -0.212556  -0.517253  
 -0.582276 -0.0429721  -0.356013  
 -0.559888  0.0361389  -0.345756  
 -0.645513  0.0367639  -0.300756  
 -0.569888 -0.0458611  -0.401756  
 -0.655513 -0.0452361  -0.356756  
 -0.640881  0.0334445  -0.349253  
 -0.650881 -0.0485555  -0.405253  
 -0.562276   0.121028  -0.244013  
 -0.539888   0.200139  -0.233756  
 -0.625513   0.200764  -0.188756  
 -0.549888   0.118139  -0.289756  
 -0.635513   0.118764  -0.244756  
 -0.620881   0.197444  -0.237253  
 -0.630881   0.115444  -0.293253  
 -0.542276   0.285028  -0.132013  
 -0.529888   0.282139  -0.177756  
 -0.615513   0.282764  -0.132756  
 -0.610881   0.279444  -0.181253  
  0.485481  -0.332579  -0.510588  
  0.578366   -0.24704  -0.440044  
  0.486491  -0.253915  -0.497544  
  0.568366   -0.32904  -0.496044  
  0.476491  -0.335915  -0.553544  
  0.572308  -0.250582  -0.487147  
  0.562308  -0.332582  -0.543147  
  0.505481  -0.168579  -0.398588  
  0.598366 -0.0830395  -0.328044  
  0.506491 -0.0899145  -0.385544  
  0.588366   -0.16504  -0.384044  
  0.496491  -0.171915  -0.441544  
  0.592308 -0.0865823  -0.375147  
  0.582308  -0.168582  -0.431147  
  0.525481 -0.00457908  -0.286588  
  0.618366  0.0809605  -0.216044  
  0.526491  0.0740855  -0.273544  
  0.608366 -0.00103954  -0.272044  
  0.516491 -0.00791454  -0.329544  
  0.612308  0.0774177  -0.263147  
  0.602308 -0.00458227  -0.319147  
  0.545481   0.159421  -0.174588  
  0.638366    0.24496  -0.104044  
  0.546491   0.238085  -0.161544  
  0.628366    0.16296  -0.160044  
  0.536491   0.156085  -0.217544  
  0.632308   0.241418  -0.151147  
  0.622308   0.159418  -0.207147  
  0.565481   0.323421  -0.062588  
  0.648366    0.32696  -0.048044  
  0.556491   0.320085  -0.105544  
  0.642308   0.323418  -0.095147  
 -0.568963  -0.323497   0.062992  
 -0.640107  -0.244999   0.104246  
 -0.548232  -0.238124   0.161746  
 -0.650107  -0.326999   0.048246  
 -0.558232  -0.320124   0.105746  
 -0.633178  -0.241437   0.151248  
 -0.643178  -0.323437   0.095248  
 -0.548963  -0.159497   0.174992  
 -0.620107 -0.0809986   0.216246  
 -0.528232 -0.0741236   0.273746  
 -0.630107  -0.162999   0.160246  
 -0.538232  -0.156124   0.217746  
 -0.613178 -0.0774368   0.263248  
 -0.623178  -0.159437   0.207248  
 -0.528963 0.00450279   0.286992  
 -0.600107  0.0830014   0.328246  
 -0.508232  0.0898764   0.385746  
 -0.610107 0.00100139   0.272246  
 -0.518232 0.00787639   0.329746  
 -0.593178  0.0865632   0.375248  
 -0.603178  0.0045632   0.319248  
 -0.508963   0.168503   0.398992  
 -0.580107   0.247001   0.440246  
 -0.488232   0.253876   0.497746  
 -0.590107   0.165001   0.384246  
 -0.498232   0.171876   0.441746  
 -0.573178   0.250563   0.487248  
 -0.583178   0.168563   0.431248  
 -0.488963   0.332503   0.510992  
 -0.570107   0.329001   0.496246  
 -0.478232   0.335876   0.553746  
 -0.563178   0.332563   0.543248  
   0.54324  -0.284954   0.132636  
   0.54037  -0.200102   0.234068  
  0.625995  -0.200727   0.189068  
   0.53037  -0.282102   0.178068  
  0.615995  -0.282727   0.133068  
  0.621122  -0.197426   0.237409  
  0.611122  -0.279426   0.181409  
   0.56324  -0.120954   0.244636  
   0.56037 -0.0361021   0.346068  
  0.645995 -0.0367271   0.301068  
   0.55037  -0.118102   0.290068  
  0.635995  -0.118727   0.245068  
  0.641122 -0.0334261   0.349409  
  0.631122  -0.115426   0.293409  
   0.58324  0.0430457   0.356636  
   0.58037   0.127898   0.458068  
  0.665995   0.127273   0.413068  
   0.57037  0.0458979   0.402068  
  0.655995  0.0452729   0.357068  
  0.661122   0.130574   0.461409  
  0.651122  0.0485739   0.405409  
   0.60324   0.207046   0.468636  
   0.60037   0.291898   0.570068  
  0.685995   0.291273   0.525068  
   0.59037   0.209898   0.514068  
  0.675995   0.209273   0.469068  
  0.681122   0.294574   0.573409  
  0.671122   0.212574   0.517409  
   0.62324   0.371046   0.580636  
   0.61037   0.373898   0.626068  
  0.695995   0.373273   0.581068  
  0.691122   0.376574   0.629409  
  0.540052  -0.319417  -0.349158  
  0.557126  -0.314733  -0.290721  
  0.608776  -0.236708  -0.308079  
  0.558589  -0.235075   -0.26394  
  0.620438  -0.230617  -0.227611  
  0.598776  -0.318708  -0.364079  
  0.548589  -0.317075   -0.31994  
  0.610438  -0.312617  -0.283611  
  0.614607  -0.233663  -0.267845  
  0.604607  -0.315663  -0.323845  
  0.560052  -0.155417  -0.237158  
  0.577126  -0.150733  -0.178721  
  0.628776 -0.0727085  -0.196079  
  0.578589  -0.071075   -0.15194  
  0.640438 -0.0666166  -0.115611  
  0.618776  -0.154708  -0.252079  
  0.568589  -0.153075   -0.20794  
  0.630438  -0.148617  -0.171611  
  0.634607 -0.0696625  -0.155845  
  0.624607  -0.151663  -0.211845  
  0.580052 0.00858307  -0.125158  
  0.597126  0.0132668 -0.0667212  
  0.648776  0.0912915 -0.0840792  
  0.598589   0.092925 -0.0399398  
  0.660438  0.0973834 -0.0036106  
  0.638776 0.00929153  -0.140079  
  0.588589   0.010925 -0.0959398  
  0.650438  0.0153834 -0.0596106  
  0.654607  0.0943375 -0.0438449  
  0.644607  0.0123375 -0.0998449  
  0.600052   0.172583 -0.0131584  
  0.617126   0.177267  0.0452788  
  0.668776   0.255292  0.0279208  
  0.618589   0.256925  0.0720602  
  0.680438   0.261383   0.108389  
  0.658776   0.173292 -0.0280792  
  0.608589   0.174925  0.0160602  
  0.670438   0.179383  0.0523894  
  0.674607   0.258337  0.0681551  
  0.664607   0.176337  0.0121551  
  0.620052   0.336583  0.0988416  
  0.637126   0.341267   0.157279  
  0.678776   0.337292  0.0839208  
  0.628589   0.338925    0.12806  
  0.690438   0.343383   0.164389  
  0.684607   0.340337   0.124155  
   0.26958  -0.292879   0.137352  
  0.170455  -0.295823   0.138035  
   0.31479   -0.20719   0.230176  
  0.230017  -0.212351   0.193694  
  0.176477  -0.211786   0.224268  
   0.30479   -0.28919   0.174176  
  0.220017  -0.294351   0.137694  
  0.166477  -0.293786   0.168268  
  0.245634  -0.209488   0.227222  
  0.235634  -0.291488   0.171222  
   0.28958  -0.128879   0.249352  
  0.190455  -0.131823   0.250035  
   0.33479 -0.0431896   0.342176  
  0.250017  -0.048351   0.305694  
  0.196477 -0.0477864   0.336268  
   0.32479   -0.12519   0.286176  
  0.240017  -0.130351   0.249694  
  0.186477  -0.129786   0.280268  
  0.265634  -0.045488   0.339222  
  0.255634  -0.127488   0.283222  
   0.30958  0.0351209   0.361352  
  0.210455  0.0321772   0.362035  
   0.35479    0.12081   0.454176  
  0.270017   0.115649   0.417694  
  0.216477   0.116214   0.448268  
   0.34479  0.0388104   0.398176  
  0.260017   0.033649   0.361694  
  0.206477  0.0342136   0.392268  
  0.285634   0.118512   0.451222  
  0.275634   0.036512   0.395222  
   0.32958   0.199121   0.473352  
  0.230455   0.196177   0.474035  
   0.37479    0.28481   0.566176  
  0.290017   0.279649   0.529694  
  0.236477   0.280214   0.560268  
   0.36479    0.20281   0.510176  
  0.280017   0.197649   0.473694  
  0.226477   0.198214   0.504268  
  0.305634   0.282512   0.563222  
  0.295634   0.200512   0.507222  
   0.34958   0.363121   0.585352  
  0.250455   0.360177   0.586035  
   0.38479    0.36681   0.622176  
  0.300017   0.361649   0.585694  
  0.246477   0.362214   0.616268  
  0.315634   0.364512   0.619222  
  -0.62037  -0.336591 -0.0988234  
 -0.637206  -0.341269  -0.157275  
 -0.668935  -0.255296 -0.0279117  
 -0.618788   -0.25693 -0.0720492  
 -0.680478  -0.261384  -0.108388  
 -0.678935  -0.337296 -0.0839117  
 -0.628788   -0.33893  -0.128049  
 -0.690478  -0.343384  -0.164388  
 -0.674706   -0.25834 -0.0681496  
 -0.684706   -0.34034   -0.12415  
  -0.60037  -0.172591  0.0131766  
 -0.617206  -0.177269 -0.0452751  
 -0.648935 -0.0912957  0.0840883  
 -0.598788 -0.0929302  0.0399508  
 -0.660478 -0.0973845 0.00361246  
 -0.658935  -0.173296  0.0280883  
 -0.608788   -0.17493 -0.0160492  
 -0.670478  -0.179384 -0.0523875  
 -0.654706 -0.0943401  0.0438504  
 -0.664706   -0.17634 -0.0121496  
  -0.58037 -0.00859138   0.125177  
 -0.597206  -0.013269  0.0667249  
 -0.628935  0.0727043   0.196088  
 -0.578788  0.0710698   0.151951  
 -0.640478  0.0666155   0.115612  
 -0.638935 -0.00929569   0.140088  
 -0.588788 -0.0109302  0.0959508  
 -0.650478 -0.0153845  0.0596125  
 -0.634706  0.0696599    0.15585  
 -0.644706 -0.0123401  0.0998504  
  -0.56037   0.155409   0.237177  
 -0.577206   0.150731   0.178725  
 -0.608935   0.236704   0.308088  
 -0.558788    0.23507   0.263951  
 -0.620478   0.230616   0.227612  
 -0.618935   0.154704   0.252088  
 -0.568788    0.15307   0.207951  
 -0.630478   0.148616   0.171612  
 -0.614706    0.23366    0.26785  
 -0.624706    0.15166    0.21185  
  -0.54037   0.319409   0.349177  
 -0.557206   0.314731   0.290725  
 -0.598935   0.318704   0.364088  
 -0.548788    0.31707   0.319951  
 -0.610478   0.312616   0.283612  
 -0.604706    0.31566    0.32385  
 -0.462908  -0.323632  0.0162217  
 -0.315613  -0.318384  0.0274596  
  -0.43462  -0.238738   0.105048  
 -0.360973  -0.236114   0.110667  
  -0.42366  -0.241923  0.0557534  
 -0.350013  -0.239299  0.0613723  
  -0.44462  -0.320738  0.0490481  
 -0.370973  -0.318114   0.054667  
  -0.43366  -0.323923 -0.00024662  
 -0.360013  -0.321299 0.00537229  
 -0.392316  -0.239019  0.0832102  
 -0.402316  -0.321019  0.0272102  
 -0.442908  -0.159632   0.128222  
 -0.295613  -0.154384    0.13946  
  -0.41462 -0.0747382   0.217048  
 -0.340973 -0.0721141   0.222667  
  -0.40366 -0.0779235   0.167753  
 -0.330013 -0.0752994   0.173372  
  -0.42462  -0.156738   0.161048  
 -0.350973  -0.154114   0.166667  
  -0.41366  -0.159923   0.111753  
 -0.340013  -0.157299   0.117372  
 -0.372316 -0.0750188    0.19521  
 -0.382316  -0.157019    0.13921  
 -0.422908 0.00436827   0.240222  
 -0.275613  0.0096164    0.25146  
  -0.39462  0.0892618   0.329048  
 -0.320973  0.0918859   0.334667  
  -0.38366  0.0860765   0.279753  
 -0.310013  0.0887006   0.285372  
  -0.40462 0.00726184   0.273048  
 -0.330973  0.0098859   0.278667  
  -0.39366  0.0040765   0.223753  
 -0.320013 0.00670057   0.229372  
 -0.352316  0.0889812    0.30721  
 -0.362316  0.0069812    0.25121  
 -0.402908   0.168368   0.352222  
 -0.255613   0.173616    0.36346  
  -0.37462   0.253262   0.441048  
 -0.300973   0.255886   0.446667  
  -0.36366   0.250077   0.391753  
 -0.290013   0.252701   0.397372  
  -0.38462   0.171262   0.385048  
 -0.310973   0.173886   0.390667  
  -0.37366   0.168077   0.335753  
 -0.300013   0.170701   0.341372  
 -0.332316   0.252981    0.41921  
 -0.342316   0.170981    0.36321  
 -0.382908   0.332368   0.464222  
 -0.235613   0.337616    0.47546  
  -0.36462   0.335262   0.497048  
 -0.290973   0.337886   0.502667  
  -0.35366   0.332077   0.447753  
 -0.280013   0.334701   0.453372  
 -0.322316   0.334981    0.47521  
 -0.521781  -0.362892   -0.50927  
 -0.520699  -0.356903  -0.425763  
 -0.567693  -0.282238   -0.44847  
 -0.567152  -0.279243  -0.406717  
 -0.478706  -0.278506   -0.43382  
 -0.478165  -0.275512  -0.392066  
 -0.577693  -0.364238   -0.50447  
 -0.577152  -0.361243  -0.462717  
 -0.488706  -0.360506   -0.48982  
 -0.488165  -0.357512  -0.448066  
 -0.522929  -0.278875  -0.420268  
 -0.532929  -0.360875  -0.476268  
 -0.501781  -0.198892   -0.39727  
 -0.500699  -0.192903  -0.313763  
 -0.547693  -0.118238   -0.33647  
 -0.547152  -0.115243  -0.294717  
 -0.458706  -0.114506   -0.32182  
 -0.458165  -0.111512  -0.280066  
 -0.557693  -0.200238   -0.39247  
 -0.557152  -0.197243  -0.350717  
 -0.468706  -0.196506   -0.37782  
 -0.468165  -0.193512  -0.336066  
 -0.502929  -0.114875  -0.308268  
 -0.512929  -0.196875  -0.364268  
 -0.481781 -0.0348923   -0.28527  
 -0.480699 -0.0289031  -0.201763  
 -0.527693  0.0457622   -0.22447  
 -0.527152  0.0487568  -0.182717  
 -0.438706  0.0494935   -0.20982  
 -0.438165  0.0524882  -0.168066  
 -0.537693 -0.0362378   -0.28047  
 -0.537152 -0.0332432  -0.238717  
 -0.448706 -0.0325065   -0.26582  
 -0.448165 -0.0295118  -0.224066  
 -0.482929  0.0491252  -0.196268  
 -0.492929 -0.0328748  -0.252268  
 -0.461781   0.129108   -0.17327  
 -0.460699   0.135097 -0.0897626  
 -0.507693   0.209762   -0.11247  
 -0.507152   0.212757 -0.0707167  
 -0.418706   0.213494 -0.0978195  
 -0.418165   0.216488  -0.056066  
 -0.517693   0.127762   -0.16847  
 -0.517152   0.130757  -0.126717  
 -0.428706   0.131494   -0.15382  
 -0.428165   0.134488  -0.112066  
 -0.462929   0.213125 -0.0842681  
 -0.472929   0.131125  -0.140268  
 -0.441781   0.293108 -0.0612696  
 -0.440699   0.299097  0.0222374  
 -0.497693   0.291762 -0.0564702  
 -0.497152   0.294757 -0.0147167  
 -0.408706   0.295494 -0.0418195  
 -0.408165   0.298488 -6.60357e-05  
 -0.452929   0.295125 -0.0282681  
  0.445058  -0.292897  0.0628318  
  0.441377  -0.299066 -0.0220894  
  0.509333  -0.209657   0.113249  
  0.507492  -0.212741  0.0707888  
  0.421764  -0.213316  0.0990179  
  0.419924    -0.2164  0.0565573  
  0.499333  -0.291657  0.0572494  
  0.497492  -0.294741  0.0147888  
  0.411764  -0.295316  0.0430179  
  0.409924    -0.2984 0.000557275  
  0.464628  -0.213029  0.0849034  
  0.454628  -0.295029  0.0289034  
  0.465058  -0.128897   0.174832  
  0.461377  -0.135066  0.0899106  
  0.529333 -0.0456571   0.225249  
  0.527492 -0.0487414   0.182789  
  0.441764 -0.0493157   0.211018  
  0.439924    -0.0524   0.168557  
  0.519333  -0.127657   0.169249  
  0.517492  -0.130741   0.126789  
  0.431764  -0.131316   0.155018  
  0.429924    -0.1344   0.112557  
  0.484628 -0.0490285   0.196903  
  0.474628  -0.131029   0.140903  
  0.485058  0.0351026   0.286832  
  0.481377  0.0289341   0.201911  
  0.549333   0.118343   0.337249  
  0.547492   0.115259   0.294789  
  0.461764   0.114684   0.323018  
  0.459924     0.1116   0.280557  
  0.539333  0.0363429   0.281249  
  0.537492  0.0332586   0.238789  
  0.451764  0.0326843   0.267018  
  0.449924     0.0296   0.224557  
  0.504628   0.114971   0.308903  
  0.494628  0.0329715   0.252903  
  0.505058   0.199103   0.398832  
  0.501377   0.192934   0.313911  
  0.569333   0.282343   0.449249  
  0.567492   0.279259   0.406789  
  0.481764   0.278684   0.435018  
  0.479924     0.2756   0.392557  
  0.559333   0.200343   0.393249  
  0.557492   0.197259   0.350789  
  0.471764   0.196684   0.379018  
  0.469924     0.1936   0.336557  
  0.524628   0.278971   0.420903  
  0.514628   0.196971   0.364903  
  0.525058   0.363103   0.510832  
  0.521377   0.356934   0.425911  
  0.579333   0.364343   0.505249  
  0.577492   0.361259   0.462789  
  0.491764   0.360684   0.491018  
  0.489924     0.3576   0.448557  
  0.534628   0.360971   0.476903  
  0.375881  -0.332482  -0.462847  
  0.363133  -0.253484  -0.439297  
  0.357638  -0.250161  -0.390395  
   0.28011  -0.252727  -0.393555  
  0.353133  -0.335484  -0.495297  
  0.347638  -0.332161  -0.446395  
   0.27011  -0.334727  -0.449555  
  0.321621  -0.253105  -0.416426  
  0.311621  -0.335105  -0.472426  
  0.395881  -0.168482  -0.350847  
  0.383133 -0.0894837  -0.327297  
  0.377638 -0.0861614  -0.278395  
   0.30011 -0.0887272  -0.281555  
  0.373133  -0.171484  -0.383297  
  0.367638  -0.168161  -0.334395  
   0.29011  -0.170727  -0.337555  
  0.341621 -0.0891055  -0.304426  
  0.331621  -0.171105  -0.360426  
  0.415881 -0.00448231  -0.238847  
  0.403133  0.0745163  -0.215297  
  0.397638  0.0778386  -0.166395  
   0.32011  0.0752728  -0.169555  
  0.393133 -0.00748374  -0.271297  
  0.387638 -0.0041614  -0.222395  
   0.31011 -0.00672721  -0.225555  
  0.361621  0.0748945  -0.192426  
  0.351621 -0.00710548  -0.248426  
  0.435881   0.159518  -0.126847  
  0.423133   0.238516  -0.103297  
  0.417638   0.241839 -0.0543951  
   0.34011   0.239273 -0.0575547  
  0.413133   0.156516  -0.159297  
  0.407638   0.159839  -0.110395  
   0.33011   0.157273  -0.113555  
  0.381621   0.238895 -0.0804261  
  0.371621   0.156895  -0.136426  
  0.455881   0.323518 -0.0148468  
  0.433133   0.320516 -0.0472974  
  0.427638   0.323839 0.00160495  
   0.35011   0.321273 -0.00155474  
  0.391621   0.320895 -0.0244261  
  0.354029  -0.305033 -0.0687738  
  0.395189  -0.224401 -0.0451454  
  0.484378  -0.217786 0.00985011  
  0.407703  -0.220049  0.0105684  
  0.385189  -0.306401  -0.101145  
  0.474378  -0.299786 -0.0461499  
  0.397703  -0.302049 -0.0454316  
  0.439784  -0.221094 -0.0176476  
  0.429784  -0.303094 -0.0736476  
  0.374029  -0.141033  0.0432262  
  0.415189 -0.0604012  0.0668546  
  0.504378 -0.0537859    0.12185  
  0.427703 -0.0560493   0.122568  
  0.405189  -0.142401  0.0108546  
  0.494378  -0.135786  0.0658501  
  0.417703  -0.138049  0.0665684  
  0.459784 -0.0570935  0.0943524  
  0.449784  -0.139094  0.0383524  
  0.394029  0.0229672   0.155226  
  0.435189   0.103599   0.178855  
  0.524378   0.110214    0.23385  
  0.447703   0.107951   0.234568  
  0.425189  0.0215988   0.122855  
  0.514378  0.0282141    0.17785  
  0.437703  0.0259507   0.178568  
  0.479784   0.106906   0.206352  
  0.469784  0.0249065   0.150352  
  0.414029   0.186967   0.267226  
  0.455189   0.267599   0.290855  
  0.544378   0.274214    0.34585  
  0.467703   0.271951   0.346568  
  0.445189   0.185599   0.234855  
  0.534378   0.192214    0.28985  
  0.457703   0.189951   0.290568  
  0.499784   0.270906   0.318352  
  0.489784   0.188906   0.262352  
  0.434029   0.350967   0.379226  
  0.465189   0.349599   0.346855  
  0.554378   0.356214    0.40185  
  0.477703   0.353951   0.402568  
  0.509784   0.352906   0.374352  
 -0.433682  -0.350957  -0.379229  
 -0.455003  -0.267594  -0.290868  
 -0.543979  -0.274197  -0.345775  
  -0.46719   -0.27193  -0.346496  
 -0.465003  -0.349594  -0.346868  
 -0.553979  -0.356197  -0.401775  
  -0.47719   -0.35393  -0.402496  
 -0.499491  -0.270895  -0.318321  
 -0.509491  -0.352895  -0.374321  
 -0.413682  -0.186957  -0.267229  
 -0.435003  -0.103594  -0.178868  
 -0.523979  -0.110197  -0.233775  
  -0.44719   -0.10793  -0.234496  
 -0.445003  -0.185594  -0.234868  
 -0.533979  -0.192197  -0.289775  
  -0.45719   -0.18993  -0.290496  
 -0.479491  -0.106895  -0.206321  
 -0.489491  -0.188895  -0.262321  
 -0.393682  -0.022957  -0.155229  
 -0.415003  0.0604058 -0.0668678  
 -0.503979  0.0538033  -0.121775  
  -0.42719    0.05607  -0.122496  
 -0.425003 -0.0215942  -0.122868  
 -0.513979 -0.0281967  -0.177775  
  -0.43719   -0.02593  -0.178496  
 -0.459491  0.0571046 -0.0943213  
 -0.469491 -0.0248954  -0.150321  
 -0.373682   0.141043 -0.0432294  
 -0.395003   0.224406  0.0451322  
 -0.483979   0.217803 -0.00977481  
  -0.40719    0.22007  -0.010496  
 -0.405003   0.142406 -0.0108678  
 -0.493979   0.135803 -0.0657748  
  -0.41719    0.13807  -0.066496  
 -0.439491   0.221105  0.0176787  
 -0.449491   0.139105 -0.0383213  
 -0.353682   0.305043  0.0687706  
 -0.385003   0.306406   0.101132  
 -0.473979   0.299803  0.0462252  
  -0.39719    0.30207   0.045504  
 -0.429491   0.303105  0.0736787  
 -0.248107  -0.319487 -0.0165831  
 -0.176819  -0.233964  0.0628672  
 -0.258507  -0.233305   0.106681  
  -0.27186  -0.236935  0.0614382  
 -0.186819  -0.315964 0.00686724  
 -0.268507  -0.315305  0.0506813  
  -0.28186  -0.318935 0.00543823  
 -0.217663  -0.233635  0.0847743  
 -0.227663  -0.315635  0.0287743  
 -0.228107  -0.155487  0.0954169  
 -0.156819 -0.0699644   0.174867  
 -0.238507 -0.0693052   0.218681  
  -0.25186 -0.0729354   0.173438  
 -0.166819  -0.151964   0.118867  
 -0.248507  -0.151305   0.162681  
  -0.26186  -0.154935   0.117438  
 -0.197663 -0.0696348   0.196774  
 -0.207663  -0.151635   0.140774  
 -0.208107 0.00851271   0.207417  
 -0.136819  0.0940356   0.286867  
 -0.218507  0.0946948   0.330681  
  -0.23186  0.0910646   0.285438  
 -0.146819  0.0120356   0.230867  
 -0.228507  0.0126948   0.274681  
  -0.24186 0.00906456   0.229438  
 -0.177663  0.0943652   0.308774  
 -0.187663  0.0123652   0.252774  
 -0.188107   0.172513   0.319417  
 -0.116819   0.258036   0.398867  
 -0.198507   0.258695   0.442681  
  -0.21186   0.255065   0.397438  
 -0.126819   0.176036   0.342867  
 -0.208507   0.176695   0.386681  
  -0.22186   0.173065   0.341438  
 -0.157663   0.258365   0.420774  
 -0.167663   0.176365   0.364774  
 -0.168107   0.336513   0.431417  
 -0.106819   0.340036   0.454867  
 -0.188507   0.340695   0.498681  
  -0.20186   0.337065   0.453438  
 -0.147663   0.340365   0.476774  
  -0.49335  -0.365702  -0.560696  
 -0.446675  -0.286101  -0.553848  
 -0.547813  -0.286337  -0.514354  
 -0.456675  -0.368101  -0.609848  
 -0.557813  -0.368337  -0.570354  
 -0.523281  -0.288981  -0.561802  
 -0.533281  -0.370981  -0.617802  
  -0.47335  -0.201702  -0.448696  
 -0.426675  -0.122101  -0.441848  
 -0.527813  -0.122337  -0.402354  
 -0.436675  -0.204101  -0.497848  
 -0.537813  -0.204337  -0.458354  
 -0.503281  -0.124981  -0.449802  
 -0.513281  -0.206981  -0.505802  
  -0.45335 -0.0377022  -0.336696  
 -0.406675  0.0418989  -0.329848  
 -0.507813  0.0416628  -0.290354  
 -0.416675 -0.0401011  -0.385848  
 -0.517813 -0.0403372  -0.346354  
 -0.483281  0.0390189  -0.337802  
 -0.493281 -0.0429811  -0.393802  
  -0.43335   0.126298  -0.224696  
 -0.386675   0.205899  -0.217848  
 -0.487813   0.205663  -0.178354  
 -0.396675   0.123899  -0.273848  
 -0.497813   0.123663  -0.234354  
 -0.463281   0.203019  -0.225802  
 -0.473281   0.121019  -0.281802  
  -0.41335   0.290298  -0.112696  
 -0.376675   0.287899  -0.161848  
 -0.477813   0.287663  -0.122354  
 -0.453281   0.285019  -0.169802  
  0.477187  -0.327797  -0.440033  
  0.577343  -0.240898  -0.353516  
  0.491334  -0.248188   -0.41931  
  0.567343  -0.322898  -0.409516  
  0.481334  -0.330188   -0.47531  
  0.577854  -0.243969   -0.39678  
  0.567854  -0.325969   -0.45278  
  0.497187  -0.163797  -0.328033  
  0.597343 -0.0768984  -0.241516  
  0.511334 -0.0841879   -0.30731  
  0.587343  -0.158898  -0.297516  
  0.501334  -0.166188   -0.36331  
  0.597854  -0.079969   -0.28478  
  0.587854  -0.161969   -0.34078  
  0.517187 0.000203244  -0.216033  
  0.617343  0.0871016  -0.129516  
  0.531334  0.0798121   -0.19531  
  0.607343 0.00510162  -0.185516  
  0.521334 -0.00218792   -0.25131  
  0.617854   0.084031   -0.17278  
  0.607854 0.00203104   -0.22878  
  0.537187   0.164203  -0.104033  
  0.637343   0.251102 -0.0175163  
  0.551334   0.243812 -0.0833103  
  0.627343   0.169102 -0.0735163  
  0.541334   0.161812   -0.13931  
  0.637854   0.248031 -0.0607802  
  0.627854   0.166031   -0.11678  
  0.557187   0.328203  0.0079674  
  0.647343   0.333102  0.0384837  
  0.561334   0.325812 -0.0273103  
  0.647854   0.330031 -0.00478015  
  -0.56007  -0.328272 -0.00771292  
 -0.638785  -0.251136  0.0176435  
 -0.554516  -0.243885  0.0836396  
 -0.648785  -0.333136 -0.0383565  
 -0.564516  -0.325885  0.0276396  
 -0.639446  -0.248067  0.0609448  
 -0.649446  -0.330067 0.00494478  
  -0.54007  -0.164272   0.104287  
 -0.618785 -0.0871361   0.129644  
 -0.534516 -0.0798847    0.19564  
 -0.628785  -0.169136  0.0736435  
 -0.544516  -0.161885    0.13964  
 -0.619446 -0.0840673   0.172945  
 -0.629446  -0.166067   0.116945  
  -0.52007 -0.000272116   0.216287  
 -0.598785  0.0768639   0.241644  
 -0.514516  0.0841153    0.30764  
 -0.608785 -0.00513606   0.185644  
 -0.524516 0.00211534    0.25164  
 -0.599446  0.0799327   0.284945  
 -0.609446 -0.00206733   0.228945  
  -0.50007   0.163728   0.328287  
 -0.578785   0.240864   0.353644  
 -0.494516   0.248115    0.41964  
 -0.588785   0.158864   0.297644  
 -0.504516   0.166115    0.36364  
 -0.579446   0.243933   0.396945  
 -0.589446   0.161933   0.340945  
  -0.48007   0.327728   0.440287  
 -0.568785   0.322864   0.409644  
 -0.484516   0.330115    0.47564  
 -0.569446   0.325933   0.452945  
  0.418715  -0.289883   0.116241  
  0.389358  -0.205691   0.219621  
  0.490978  -0.205419   0.180439  
  0.379358  -0.287691   0.163621  
  0.480978  -0.287419   0.124439  
  0.464864  -0.202897   0.226844  
  0.454864  -0.284897   0.170844  
  0.438715  -0.125883   0.228241  
  0.409358 -0.0416914   0.331621  
  0.510978 -0.0414186   0.292439  
  0.399358  -0.123691   0.275621  
  0.500978  -0.123419   0.236439  
  0.484864 -0.0388968   0.338844  
  0.474864  -0.120897   0.282844  
  0.458715  0.0381171   0.340241  
  0.429358   0.122309   0.443621  
  0.530978   0.122581   0.404439  
  0.419358  0.0403086   0.387621  
  0.520978  0.0405814   0.348439  
  0.504864   0.125103   0.450844  
  0.494864  0.0431032   0.394844  
  0.478715   0.202117   0.452241  
  0.449358   0.286309   0.555621  
  0.550978   0.286581   0.516439  
  0.439358   0.204309   0.499621  
  0.540978   0.204581   0.460439  
  0.524864   0.289103   0.562844  
  0.514864   0.207103   0.506844  
  0.498715   0.366117   0.564241  
  0.459358   0.368309   0.611621  
  0.560978   0.368581   0.572439  
  0.534864   0.371103   0.618844  
 -0.393258   -0.26963  -0.345547  
 -0.383686  -0.266641   -0.30769  
 -0.403258   -0.35163  -0.401547  
 -0.393686  -0.348641   -0.36369  
 -0.356254  -0.267339  -0.329088  
 -0.366254  -0.349339  -0.385088  
 -0.373258   -0.10563  -0.233547  
 -0.363686  -0.102641   -0.19569  
 -0.383258   -0.18763  -0.289547  
 -0.373686  -0.184641   -0.25169  
 -0.336254  -0.103339  -0.217088  
 -0.346254  -0.185339  -0.273088  
 -0.353258  0.0583695  -0.121547  
 -0.343686  0.0613588   -0.08369  
 -0.363258 -0.0236305  -0.177547  
 -0.353686 -0.0206412   -0.13969  
 -0.316254  0.0606606  -0.105088  
 -0.326254 -0.0213394  -0.161088  
 -0.333258    0.22237 -0.00954705  
 -0.323686   0.225359    0.02831  
 -0.343258    0.14037  -0.065547  
 -0.333686   0.143359   -0.02769  
 -0.296254   0.224661 0.00691151  
 -0.306254   0.142661 -0.0490885  
 -0.323258    0.30437   0.046453  
 -0.313686   0.307359    0.08431  
 -0.286254   0.306661  0.0629115  
  0.164901  -0.336157  -0.425069  
  0.218881  -0.251501  -0.350452  
  0.155788  -0.253449  -0.351052  
  0.208881  -0.333501  -0.406452  
  0.145788  -0.335449  -0.407052  
  0.197537  -0.250896  -0.332935  
  0.187537  -0.332896  -0.388935  
  0.184901  -0.172157  -0.313069  
  0.238881 -0.0875011  -0.238452  
  0.175788 -0.0894486  -0.239052  
  0.228881  -0.169501  -0.294452  
  0.165788  -0.171449  -0.295052  
  0.217537 -0.0868959  -0.220935  
  0.207537  -0.168896  -0.276935  
  0.204901 -0.00815672  -0.201069  
  0.258881  0.0764989  -0.126452  
  0.195788  0.0745514  -0.127052  
  0.248881 -0.00550108  -0.182452  
  0.185788 -0.00744855  -0.183052  
  0.237537  0.0771041  -0.108935  
  0.227537 -0.00489593  -0.164935  
  0.224901   0.155843 -0.0890695  
  0.278881   0.240499 -0.0144521  
  0.215788   0.238551 -0.0150523  
  0.268881   0.158499 -0.0704521  
  0.205788   0.156551 -0.0710523  
  0.257537   0.241104 0.00306473  
  0.247537   0.159104 -0.0529353  
  0.244901   0.319843  0.0229305  
  0.288881   0.322499  0.0415479  
  0.225788   0.320551  0.0409477  
  0.267537   0.323104  0.0590647  
 -0.281564  -0.240318  0.0181287  
 -0.217391  -0.238373  0.0182261  
 -0.291564  -0.322318 -0.0378713  
 -0.227391  -0.320373 -0.0377739  
 -0.258879  -0.241013 -0.00122645  
 -0.268879  -0.323013 -0.0572264  
 -0.261564 -0.0763177   0.130129  
 -0.197391 -0.0743735   0.130226  
 -0.271564  -0.158318  0.0741287  
 -0.207391  -0.156373  0.0742261  
 -0.238879 -0.0770134   0.110774  
 -0.248879  -0.159013  0.0547736  
 -0.241564  0.0876823   0.242129  
 -0.177391  0.0896265   0.242226  
 -0.251564 0.00568233   0.186129  
 -0.187391 0.00762655   0.186226  
 -0.218879  0.0869866   0.222774  
 -0.228879 0.00498656   0.166774  
 -0.221564   0.251682   0.354129  
 -0.157391   0.253627   0.354226  
 -0.231564   0.169682   0.298129  
 -0.167391   0.171627   0.298226  
 -0.198879   0.250987   0.334774  
 -0.208879   0.168987   0.278774  
 -0.211564   0.333682   0.410129  
 -0.147391   0.335627   0.410226  
 -0.188879   0.332987   0.390774  
  0.333819   -0.22236 0.00944424  
  0.323859  -0.225354 -0.0283116  
  0.323819   -0.30436 -0.0465558  
  0.313859  -0.307354 -0.0843116  
  0.296534  -0.224656 -0.00696292  
  0.286534  -0.306656 -0.0629629  
  0.353819 -0.0583599   0.121444  
  0.343859 -0.0613537  0.0836884  
  0.343819   -0.14036  0.0654442  
  0.333859  -0.143354  0.0276884  
  0.316534 -0.0606558   0.105037  
  0.306534  -0.142656  0.0490371  
  0.373819    0.10564   0.233444  
  0.363859   0.102646   0.195688  
  0.363819  0.0236401   0.177444  
  0.353859  0.0206463   0.139688  
  0.336534   0.103344   0.217037  
  0.326534  0.0213442   0.161037  
  0.393819    0.26964   0.345444  
  0.383859   0.266646   0.307688  
  0.383819    0.18764   0.289444  
  0.373859   0.184646   0.251688  
  0.356534   0.267344   0.329037  
  0.346534   0.185344   0.273037  
  0.403819    0.35164   0.401444  
  0.393859   0.348646   0.363688  
  0.366534   0.349344   0.385037  
 -0.238798  -0.229972   0.145062  
 -0.248798  -0.311972  0.0890623  
 -0.200041  -0.226877   0.172062  
 -0.210041  -0.308877   0.116062  
 -0.218798 -0.0659725   0.257062  
 -0.228798  -0.147972   0.201062  
 -0.180041 -0.0628766   0.284062  
 -0.190041  -0.144877   0.228062  
 -0.198798  0.0980275   0.369062  
 -0.208798  0.0160275   0.313062  
 -0.160041   0.101123   0.396062  
 -0.170041  0.0191234   0.340062  
 -0.178798   0.262028   0.481062  
 -0.188798   0.180028   0.425062  
 -0.140041   0.265123   0.508062  
 -0.150041   0.183123   0.452062  
 -0.168798   0.344028   0.537062  
 -0.130041   0.347123   0.564062  
  0.548102  -0.216258 0.00430817  
  0.538102  -0.298258 -0.0516918  
     0.589  -0.216346 -0.0142416  
     0.579  -0.298346 -0.0702416  
  0.568102 -0.0522575   0.116308  
  0.558102  -0.134258  0.0603082  
     0.609  -0.052346  0.0977584  
     0.599  -0.134346  0.0417584  
  0.588102   0.111742   0.228308  
  0.578102  0.0297425   0.172308  
     0.629   0.111654   0.209758  
     0.619   0.029654   0.153758  
  0.608102   0.275742   0.340308  
  0.598102   0.193742   0.284308  
     0.649   0.275654   0.321758  
     0.639   0.193654   0.265758  
  0.618102   0.357742   0.396308  
     0.659   0.357654   0.377758  
 -0.608045  -0.275742   -0.34032  
 -0.618045  -0.357742   -0.39632  
  -0.64897  -0.275654  -0.321767  
  -0.65897  -0.357654  -0.377767  
 -0.588045  -0.111742   -0.22832  
 -0.598045  -0.193742   -0.28432  
  -0.62897  -0.111654  -0.209767  
  -0.63897  -0.193654  -0.265767  
 -0.568045  0.0522584   -0.11632  
 -0.578045 -0.0297416   -0.17232  
  -0.60897  0.0523463 -0.0977674  
  -0.61897 -0.0296537  -0.153767  
 -0.548045   0.216258 -0.00431954  
 -0.558045   0.134258 -0.0603195  
  -0.58897   0.216346  0.0142326  
  -0.59897   0.134346 -0.0417674  
 -0.538045   0.298258  0.0516805  
  -0.57897   0.298346  0.0702326  
 0.0621642  -0.341291  -0.453566  
  0.202863  -0.254885  -0.391118  
  0.123533  -0.256724  -0.383318  
 0.0916153  -0.260378  -0.421036  
  0.192863  -0.336885  -0.447118  
  0.113533  -0.338724  -0.439318  
 0.0816153  -0.342378  -0.477036  
  0.147239  -0.257632  -0.406077  
  0.137239  -0.339632  -0.462077  
 0.0821642  -0.177291  -0.341566  
  0.222863 -0.0908853  -0.279118  
  0.143533 -0.0927238  -0.271318  
  0.111615 -0.0963777  -0.309036  
  0.212863  -0.172885  -0.335118  
  0.133533  -0.174724  -0.327318  
  0.101615  -0.178378  -0.365036  
  0.167239 -0.0936315  -0.294077  
  0.157239  -0.175632  -0.350077  
  0.102164 -0.0132908  -0.229566  
  0.242863  0.0731147  -0.167118  
  0.163533  0.0712762  -0.159318  
  0.131615  0.0676223  -0.197036  
  0.232863 -0.00888532  -0.223118  
  0.153533 -0.0107238  -0.215318  
  0.121615 -0.0143777  -0.253036  
  0.187239  0.0703685  -0.182077  
  0.177239 -0.0116315  -0.238077  
  0.122164   0.150709  -0.117566  
  0.262863   0.237115 -0.0551178  
  0.183533   0.235276 -0.0473178  
  0.151615   0.231622 -0.0850359  
  0.252863   0.155115  -0.111118  
  0.173533   0.153276  -0.103318  
  0.141615   0.149622  -0.141036  
  0.207239   0.234368 -0.0700768  
  0.197239   0.152368  -0.126077  
  0.142164   0.314709 -0.00556616  
  0.272863   0.319115 0.000882172  
  0.193533   0.317276 0.00868218  
  0.161615   0.313622 -0.0290359  
  0.217239   0.316368 -0.0140768  
 -0.501489  -0.243952  0.0602544  
 -0.487648  -0.238671   0.128433  
 -0.511489  -0.325952 0.00425441  
 -0.497648  -0.320671  0.0724332  
 -0.494568  -0.241311  0.0943438  
 -0.504568  -0.323311  0.0383438  
 -0.481489 -0.0799519   0.172254  
 -0.467648 -0.0746709   0.240433  
 -0.491489  -0.161952   0.116254  
 -0.477648  -0.156671   0.184433  
 -0.474568 -0.0773114   0.206344  
 -0.484568  -0.159311   0.150344  
 -0.461489  0.0840481   0.284254  
 -0.447648  0.0893291   0.352433  
 -0.471489 0.00204808   0.228254  
 -0.457648  0.0073291   0.296433  
 -0.454568  0.0866886   0.318344  
 -0.464568 0.00468859   0.262344  
 -0.441489   0.248048   0.396254  
 -0.427648   0.253329   0.464433  
 -0.451489   0.166048   0.340254  
 -0.437648   0.171329   0.408433  
 -0.434568   0.250689   0.430344  
 -0.444568   0.168689   0.374344  
 -0.431489   0.330048   0.452254  
 -0.417648   0.335329   0.520433  
 -0.424568   0.332689   0.486344  
 -0.497565  -0.282297  -0.478983  
 -0.617941  -0.286278  -0.483842  
 -0.507565  -0.364297  -0.534983  
 -0.627941  -0.368278  -0.539842  
 -0.557753  -0.284288  -0.481412  
 -0.567753  -0.366288  -0.537412  
 -0.477565  -0.118297  -0.366983  
 -0.597941  -0.122278  -0.371842  
 -0.487565  -0.200297  -0.422983  
 -0.607941  -0.204278  -0.427842  
 -0.537753  -0.120288  -0.369412  
 -0.547753  -0.202288  -0.425412  
 -0.457565  0.0457027  -0.254983  
 -0.577941  0.0417222  -0.259842  
 -0.467565 -0.0362973  -0.310983  
 -0.587941 -0.0402778  -0.315842  
 -0.517753  0.0437125  -0.257412  
 -0.527753 -0.0382875  -0.313412  
 -0.437565   0.209703  -0.142983  
 -0.557941   0.205722  -0.147842  
 -0.447565   0.127703  -0.198983  
 -0.567941   0.123722  -0.203842  
 -0.497753   0.207712  -0.145412  
 -0.507753   0.125712  -0.201412  
 -0.427565   0.291703 -0.0869826  
 -0.547941   0.287722 -0.0918416  
 -0.487753   0.289712 -0.0894121  
  0.441887   -0.20939   0.145537  
  0.558424  -0.205686   0.148152  
  0.431887   -0.29139  0.0895366  
  0.548424  -0.287686  0.0921516  
  0.500155  -0.207538   0.146844  
  0.490155  -0.289538  0.0908441  
  0.461887 -0.0453901   0.257537  
  0.578424 -0.0416855   0.260152  
  0.451887   -0.12739   0.201537  
  0.568424  -0.123686   0.204152  
  0.520155 -0.0435378   0.258844  
  0.510155  -0.125538   0.202844  
  0.481887    0.11861   0.369537  
  0.598424   0.122314   0.372152  
  0.471887  0.0366099   0.313537  
  0.588424  0.0403145   0.316152  
  0.540155   0.120462   0.370844  
  0.530155  0.0384622   0.314844  
  0.501887    0.28261   0.481537  
  0.618424   0.286314   0.484152  
  0.491887    0.20061   0.425537  
  0.608424   0.204314   0.428152  
  0.560155   0.284462   0.482844  
  0.550155   0.202462   0.426844  
  0.511887    0.36461   0.537537  
  0.628424   0.368314   0.540152  
  0.570155   0.366462   0.538844  
  0.436534   -0.24814   -0.39544  
  0.417933  -0.253532  -0.463168  
  0.426534   -0.33014   -0.45144  
  0.407933  -0.335532  -0.519168  
  0.427233  -0.250836  -0.429304  
  0.417233  -0.332836  -0.485304  
  0.456534 -0.0841395   -0.28344  
  0.437933 -0.0895321  -0.351168  
  0.446534   -0.16614   -0.33944  
  0.427933  -0.171532  -0.407168  
  0.447233 -0.0868358  -0.317304  
  0.437233  -0.168836  -0.373304  
  0.476534  0.0798605   -0.17144  
  0.457933  0.0744679  -0.239168  
  0.466534 -0.00213953   -0.22744  
  0.447933 -0.00753213  -0.295168  
  0.467233  0.0771642  -0.205304  
  0.457233 -0.00483583  -0.261304  
  0.496534    0.24386 -0.0594397  
  0.477933   0.238468  -0.127168  
  0.486534    0.16186   -0.11544  
  0.467933   0.156468  -0.183168  
  0.487233   0.241164 -0.0933039  
  0.477233   0.159164  -0.149304  
  0.506534    0.32586 -0.00343971  
  0.487933   0.320468  -0.071168  
  0.497233   0.323164 -0.0373039  
-0.0506017  -0.346106   -0.47335  
-0.0283097  -0.348935  -0.522442  
 0.0463783    -0.2642  -0.455474  
 0.0157812  -0.261698  -0.407458  
-0.0294557  -0.265521  -0.441896  
 0.0363783    -0.3462  -0.511474  
0.00578123  -0.343698  -0.463458  
-0.0394557  -0.347521  -0.497896  
 0.0310798  -0.262949  -0.431466  
 0.0210798  -0.344949  -0.487466  
-0.0306017  -0.182106   -0.36135  
-0.00830972  -0.184935  -0.410442  
 0.0663783    -0.1002  -0.343474  
 0.0357812 -0.0976985  -0.295458  
-0.00945572  -0.101521  -0.329896  
 0.0563783    -0.1822  -0.399474  
 0.0257812  -0.179698  -0.351458  
-0.0194557  -0.183521  -0.385896  
 0.0510798 -0.0989491  -0.319466  
 0.0410798  -0.180949  -0.375466  
-0.0106017 -0.0181062   -0.24935  
 0.0116903 -0.0209349  -0.298442  
 0.0863783  0.0638002  -0.231474  
 0.0557812  0.0663015  -0.183458  
 0.0105443  0.0624794  -0.217896  
 0.0763783 -0.0181998  -0.287474  
 0.0457812 -0.0156985  -0.239458  
0.000544283 -0.0195206  -0.273896  
 0.0710798  0.0650509  -0.207466  
 0.0610798 -0.0169491  -0.263466  
0.00939829   0.145894   -0.13735  
 0.0316903   0.143065  -0.186442  
  0.106378     0.2278  -0.119474  
 0.0757812   0.230302 -0.0714581  
 0.0305443   0.226479  -0.105896  
 0.0963783     0.1458  -0.175474  
 0.0657812   0.148302  -0.127458  
 0.0205443   0.144479  -0.161896  
 0.0910798   0.229051 -0.0954659  
 0.0810798   0.147051  -0.151466  
 0.0293983   0.309894   -0.02535  
 0.0516903   0.307065 -0.0744418  
  0.116378     0.3098 -0.0634737  
 0.0857812   0.312302 -0.0154581  
 0.0405443   0.308479 -0.0498959  
   0.10108   0.311051 -0.0394659  
 -0.477506  -0.342086  -0.236323  
 -0.476915  -0.263159  -0.219415  
 -0.426253  -0.259293  -0.186662  
 -0.431231  -0.264094  -0.251856  
 -0.486915  -0.345159  -0.275415  
 -0.436253  -0.341293  -0.242662  
 -0.441231  -0.346094  -0.307856  
 -0.430255  -0.261755  -0.219479  
 -0.440255  -0.343755  -0.275479  
 -0.457506  -0.178086  -0.124323  
 -0.456915 -0.0991589  -0.107415  
 -0.406253 -0.0952932 -0.0746616  
 -0.411231  -0.100094  -0.139856  
 -0.466915  -0.181159  -0.163415  
 -0.416253  -0.177293  -0.130662  
 -0.421231  -0.182094  -0.195856  
 -0.410255 -0.0977549  -0.107479  
 -0.420255  -0.179755  -0.163479  
 -0.437506 -0.0140865 -0.0123232  
 -0.436915  0.0648411 0.00458535  
 -0.386253  0.0687068  0.0373384  
 -0.391231  0.0639062 -0.0278561  
 -0.446915 -0.0171589 -0.0514146  
 -0.396253 -0.0132932 -0.0186616  
 -0.401231 -0.0180938 -0.0838561  
 -0.390255  0.0662451 0.00452068  
 -0.400255 -0.0157549 -0.0514793  
 -0.417506   0.149914  0.0996768  
 -0.416915   0.228841   0.116585  
 -0.366253   0.232707   0.149338  
 -0.371231   0.227906  0.0841439  
 -0.426915   0.146841  0.0605854  
 -0.376253   0.150707  0.0933384  
 -0.381231   0.145906  0.0281439  
 -0.370255   0.230245   0.116521  
 -0.380255   0.148245  0.0605207  
 -0.397506   0.313914   0.211677  
 -0.406915   0.310841   0.172585  
 -0.356253   0.314707   0.205338  
 -0.361231   0.309906   0.140144  
 -0.360255   0.312245   0.172521  
-0.0415509  -0.262553  -0.395175  
 0.0609854  -0.258272  -0.378555  
-0.0515509  -0.344553  -0.451175  
 0.0509854  -0.340272  -0.434555  
0.00986248  -0.260469  -0.387721  
-0.000137518  -0.342469  -0.443721  
-0.0215509 -0.0985531  -0.283175  
 0.0809854 -0.0942722  -0.266555  
-0.0315509  -0.180553  -0.339175  
 0.0709854  -0.176272  -0.322555  
 0.0298625 -0.0964693  -0.275721  
 0.0198625  -0.178469  -0.331721  
-0.00155086  0.0654469  -0.171175  
  0.100985  0.0697278  -0.154555  
-0.0115509 -0.0165531  -0.227175  
 0.0909854 -0.0122722  -0.210555  
 0.0498625  0.0675307  -0.163721  
 0.0398625 -0.0144693  -0.219721  
 0.0184491   0.229447  -0.059175  
  0.120985   0.233728 -0.0425552  
0.00844914   0.147447  -0.115175  
  0.110985   0.151728 -0.0985552  
 0.0698625   0.231531 -0.0517206  
 0.0598625   0.149531  -0.107721  
 0.0284491   0.311447 -0.00317499  
  0.130985   0.315728  0.0134448  
 0.0798625   0.313531 0.00427944  
 0.0076068  -0.308333  0.0315649  
-0.0489626  -0.228387  0.0869413  
5.33988e-05  -0.228667  0.0622825  
 -0.112669  -0.232594   0.054931  
-0.0589626  -0.310387  0.0309413  
-0.0099466  -0.310667 0.00628247  
 -0.122669  -0.314594 -0.00106905  
-0.0564532  -0.230574  0.0594622  
-0.0664532  -0.312574 0.00346215  
 0.0276068  -0.144333   0.143565  
-0.0289626 -0.0643875   0.198941  
 0.0200534 -0.0646667   0.174282  
-0.0926693  -0.068594   0.166931  
-0.0389626  -0.146387   0.142941  
 0.0100534  -0.146667   0.118282  
 -0.102669  -0.150594   0.110931  
-0.0364532 -0.0665737   0.171462  
-0.0464532  -0.148574   0.115462  
 0.0476068  0.0196666   0.255565  
-0.00896258  0.0996125   0.310941  
 0.0400534  0.0993333   0.286282  
-0.0726693   0.095406   0.278931  
-0.0189626  0.0176125   0.254941  
 0.0300534  0.0173333   0.230282  
-0.0826693   0.013406   0.222931  
-0.0164532  0.0974263   0.283462  
-0.0264532  0.0154263   0.227462  
 0.0676068   0.183667   0.367565  
 0.0110374   0.263613   0.422941  
 0.0600534   0.263333   0.398282  
-0.0526693   0.259406   0.390931  
0.00103742   0.181613   0.366941  
 0.0500534   0.181333   0.342282  
-0.0626693   0.177406   0.334931  
0.00354684   0.261426   0.395462  
-0.00645316   0.179426   0.339462  
 0.0876068   0.347667   0.479565  
 0.0210374   0.345613   0.478941  
 0.0700534   0.345333   0.454282  
-0.0426693   0.341406   0.446931  
 0.0135468   0.343426   0.451462  
  0.397487  -0.313915  -0.211685  
  0.416918  -0.228842  -0.116601  
  0.366243  -0.232707  -0.149343  
  0.371244  -0.227907 -0.0841555  
  0.406918  -0.310842  -0.172601  
  0.356243  -0.314707  -0.205343  
  0.361244  -0.309907  -0.140155  
  0.370256  -0.230246  -0.116529  
  0.360256  -0.312246  -0.172529  
  0.417487  -0.149915 -0.0996853  
  0.436918 -0.0648421 -0.00460114  
  0.386243 -0.0687074 -0.0373427  
  0.391244 -0.0639066  0.0278445  
  0.426918  -0.146842 -0.0606011  
  0.376243  -0.150707 -0.0933427  
  0.381244  -0.145907 -0.0281555  
  0.390256 -0.0662456 -0.00452857  
  0.380256  -0.148246 -0.0605286  
  0.437487  0.0140853  0.0123147  
  0.456918  0.0991579   0.107399  
  0.406243  0.0952926  0.0746573  
  0.411244   0.100093   0.139845  
  0.446918  0.0171579  0.0513989  
  0.396243  0.0132926  0.0186573  
  0.401244  0.0180934  0.0838445  
  0.410256  0.0977544   0.107471  
  0.400256  0.0157544  0.0514714  
  0.457487   0.178085   0.124315  
  0.476918   0.263158   0.219399  
  0.426243   0.259293   0.186657  
  0.431244   0.264093   0.251845  
  0.466918   0.181158   0.163399  
  0.416243   0.177293   0.130657  
  0.421244   0.182093   0.195845  
  0.430256   0.261754   0.219471  
  0.420256   0.179754   0.163471  
  0.477487   0.342085   0.236315  
  0.486918   0.345158   0.275399  
  0.436243   0.341293   0.242657  
  0.441244   0.346093   0.307845  
  0.440256   0.343754   0.275471  
  0.368531  -0.319593  -0.279031  
  0.393009  -0.234754  -0.189358  
    0.3441    -0.2377   -0.20997  
  0.383009  -0.316754  -0.245358  
    0.3341    -0.3197   -0.26597  
   0.35667  -0.235159  -0.179665  
   0.34667  -0.317159  -0.235665  
  0.388531  -0.155593  -0.167031  
  0.413009 -0.0707537  -0.077358  
    0.3641 -0.0737004 -0.0979703  
  0.403009  -0.152754  -0.133358  
    0.3541    -0.1557   -0.15397  
   0.37667 -0.0711592 -0.0676649  
   0.36667  -0.153159  -0.123665  
  0.408531 0.00840741 -0.0550308  
  0.433009  0.0932463   0.034642  
    0.3841  0.0902996  0.0140297  
  0.423009  0.0112463  -0.021358  
    0.3741  0.0082996 -0.0419703  
   0.39667  0.0928408  0.0443351  
   0.38667  0.0108408 -0.0116649  
  0.428531   0.172407  0.0569692  
  0.453009   0.257246   0.146642  
    0.4041     0.2543    0.12603  
  0.443009   0.175246   0.090642  
    0.3941     0.1723  0.0700297  
   0.41667   0.256841   0.156335  
   0.40667   0.174841   0.100335  
  0.448531   0.336407   0.168969  
  0.463009   0.339246   0.202642  
    0.4141     0.3363    0.18203  
   0.42667   0.338841   0.212335  
 -0.448613  -0.336411  -0.168984  
 -0.453059  -0.257249  -0.146653  
 -0.404141  -0.254301  -0.126037  
 -0.463059  -0.339249  -0.202653  
 -0.414141  -0.336301  -0.182037  
 -0.416695  -0.256842  -0.156341  
 -0.426695  -0.338842  -0.212341  
 -0.428613  -0.172411 -0.0569836  
 -0.433059 -0.0932487 -0.0346534  
 -0.384141 -0.0903013 -0.0140369  
 -0.443059  -0.175249 -0.0906534  
 -0.394141  -0.172301 -0.0700369  
 -0.396695 -0.0928419 -0.0443408  
 -0.406695  -0.174842  -0.100341  
 -0.408613 -0.0084109  0.0550164  
 -0.413059  0.0707513  0.0773466  
 -0.364141  0.0736987  0.0979631  
 -0.423059 -0.0112487  0.0213466  
 -0.374141 -0.00830134  0.0419631  
 -0.376695  0.0711581  0.0676592  
 -0.386695 -0.0108419  0.0116592  
 -0.388613   0.155589   0.167016  
 -0.393059   0.234751   0.189347  
 -0.344141   0.237699   0.209963  
 -0.403059   0.152751   0.133347  
 -0.354141   0.155699   0.153963  
 -0.356695   0.235158   0.179659  
 -0.366695   0.153158   0.123659  
 -0.368613   0.319589   0.279016  
 -0.383059   0.316751   0.245347  
 -0.334141   0.319699   0.265963  
 -0.346695   0.317158   0.235659  
  0.120299  -0.305387  0.0251852  
 0.0739528   -0.22486  0.0843751  
  0.102127  -0.225831  0.0588352  
 0.0639528   -0.30686  0.0283751  
 0.0921268  -0.307831 0.00283523  
 0.0513413  -0.227178  0.0614422  
 0.0413413  -0.309178 0.00544221  
  0.140299  -0.141387   0.137185  
 0.0939528   -0.06086   0.196375  
  0.122127 -0.0618312   0.170835  
 0.0839528   -0.14286   0.140375  
  0.112127  -0.143831   0.114835  
 0.0713413 -0.0631784   0.173442  
 0.0613413  -0.145178   0.117442  
  0.160299  0.0226135   0.249185  
  0.113953    0.10314   0.308375  
  0.142127   0.102169   0.282835  
  0.103953    0.02114   0.252375  
  0.132127  0.0201688   0.226835  
 0.0913413   0.100822   0.285442  
 0.0813413  0.0188216   0.229442  
  0.180299   0.186613   0.361185  
  0.133953    0.26714   0.420375  
  0.162127   0.266169   0.394835  
  0.123953    0.18514   0.364375  
  0.152127   0.184169   0.338835  
  0.111341   0.264822   0.397442  
  0.101341   0.182822   0.341442  
  0.200299   0.350613   0.473185  
  0.143953    0.34914   0.476375  
  0.172127   0.348169   0.450835  
  0.121341   0.346822   0.453442  
  0.108918  -0.255899  -0.365573  
 0.0989184  -0.337899  -0.421573  
  0.128918 -0.0918992  -0.253573  
  0.118918  -0.173899  -0.309573  
  0.148918  0.0721008  -0.141573  
  0.138918 -0.00989921  -0.197573  
  0.168918   0.236101  -0.029573  
  0.158918   0.154101  -0.085573  
  0.178918   0.318101   0.026427  
  0.348975  -0.226556 -0.0557992  
  0.338975  -0.308556  -0.111799  
  0.368975 -0.0625562  0.0562008  
  0.358975  -0.144556 0.000200844  
  0.388975   0.101444   0.168201  
  0.378975  0.0194438   0.112201  
  0.408975   0.265444   0.280201  
  0.398975   0.183444   0.224201  
  0.418975   0.347444   0.336201  
 -0.408882  -0.265441  -0.280207  
 -0.418882  -0.347441  -0.336207  
 -0.388882  -0.101441  -0.168207  
 -0.398882  -0.183441  -0.224207  
 -0.368882  0.0625585 -0.0562074  
 -0.378882 -0.0194415  -0.112207  
 -0.348882   0.226559  0.0557926  
 -0.358882   0.144559 -0.000207438  
 -0.338882   0.308559   0.111793  
 -0.165562  -0.235445  0.0373477  
 -0.175562  -0.317445 -0.0186523  
 -0.145562 -0.0714449   0.149348  
 -0.155562  -0.153445  0.0933477  
 -0.125562  0.0925551   0.261348  
 -0.135562  0.0105551   0.205348  
 -0.105562   0.256555   0.373348  
 -0.115562   0.174555   0.317348  
-0.0955617   0.338555   0.429348  
  0.249496  -0.252114  -0.372003  
  0.239496  -0.334114  -0.428003  
  0.269496 -0.0881141  -0.260003  
  0.259496  -0.170114  -0.316003  
  0.289496  0.0758859  -0.148003  
  0.279496 -0.00611415  -0.204003  
  0.309496   0.239886 -0.0360034  
  0.299496   0.157886 -0.0920034  
  0.319496   0.321886  0.0199966  
 -0.435711  -0.272571  -0.368807  
 -0.445711  -0.354571  -0.424807  
 -0.415711  -0.108571  -0.256807  
 -0.425711  -0.190571  -0.312807  
 -0.395711  0.0554288  -0.144807  
 -0.405711 -0.0265712  -0.200807  
 -0.375711   0.219429 -0.0328065  
 -0.385711   0.137429 -0.0888065  
 -0.365711   0.301429  0.0231935  
  0.376871   -0.21938  0.0330008  
  0.366871   -0.30138 -0.0229992  
  0.396871   -0.05538   0.145001  
  0.386871   -0.13738  0.0890008  
  0.416871    0.10862   0.257001  
  0.406871    0.02662   0.201001  
  0.436871    0.27262   0.369001  
  0.426871    0.19062   0.313001  
  0.446871    0.35462   0.425001  
 -0.315788  -0.239809  0.0397505  
 -0.325788  -0.321809 -0.0162495  
 -0.295788 -0.0758085    0.15175  
 -0.305788  -0.157809  0.0957505  
 -0.275788  0.0881915    0.26375  
 -0.285788 0.00619145    0.20775  
 -0.255788   0.252191    0.37575  
 -0.265788   0.170191    0.31975  
 -0.245788   0.334191    0.43175  
 -0.194819  -0.351748  -0.491415  
  -0.11271  -0.266927  -0.426382  
 -0.159387  -0.266736   -0.40395  
  -0.12271  -0.348927  -0.482382  
 -0.169387  -0.348736   -0.45995  
  -0.10072  -0.264715  -0.400446  
  -0.11072  -0.346715  -0.456446  
 -0.174819  -0.187748  -0.379415  
-0.0927102  -0.102927  -0.314382  
 -0.139387  -0.102736   -0.29195  
  -0.10271  -0.184927  -0.370382  
 -0.149387  -0.184736   -0.34795  
  -0.08072  -0.100715  -0.288446  
  -0.09072  -0.182715  -0.344446  
 -0.154819 -0.0237484  -0.267415  
-0.0727102  0.0610727  -0.202382  
 -0.119387  0.0612638   -0.17995  
-0.0827102 -0.0209273  -0.258382  
 -0.129387 -0.0207362   -0.23595  
  -0.06072  0.0632847  -0.176446  
  -0.07072 -0.0187153  -0.232446  
 -0.134819   0.140252  -0.155415  
-0.0527102   0.225073 -0.0903823  
-0.0993868   0.225264   -0.06795  
-0.0627102   0.143073  -0.146382  
 -0.109387   0.143264   -0.12395  
  -0.04072   0.227285 -0.0644458  
  -0.05072   0.145285  -0.120446  
 -0.114819   0.304252 -0.0434147  
-0.0427102   0.307073 -0.0343823  
-0.0893868   0.307264   -0.01195  
  -0.03072   0.309285 -0.00844584  
 -0.571451  -0.343916   -0.22221  
 -0.514479  -0.261001  -0.173266  
 -0.582997  -0.265021   -0.20063  
 -0.524479  -0.343001  -0.229266  
 -0.592997  -0.347021   -0.25663  
 -0.529956   -0.26409  -0.210022  
 -0.539956   -0.34609  -0.266022  
 -0.551451  -0.179916   -0.11021  
 -0.494479 -0.0970011 -0.0612664  
 -0.562997  -0.101021 -0.0886297  
 -0.504479  -0.179001  -0.117266  
 -0.572997  -0.183021   -0.14463  
 -0.509956   -0.10009 -0.0980222  
 -0.519956   -0.18209  -0.154022  
 -0.531451 -0.0159158 0.00179034  
 -0.474479  0.0669989  0.0507336  
 -0.542997  0.0629786  0.0233703  
 -0.484479 -0.0150011 -0.0052664  
 -0.552997 -0.0190214 -0.0326297  
 -0.489956  0.0639099  0.0139778  
 -0.499956 -0.0180901 -0.0420222  
 -0.511451   0.148084    0.11379  
 -0.454479   0.230999   0.162734  
 -0.522997   0.226979    0.13537  
 -0.464479   0.148999   0.106734  
 -0.532997   0.144979  0.0793703  
 -0.469956    0.22791   0.125978  
 -0.479956    0.14591  0.0699778  
 -0.491451   0.312084    0.22579  
 -0.444479   0.312999   0.218734  
 -0.512997   0.308979    0.19137  
 -0.459956    0.30991   0.181978  
 0.0470093  -0.303041  0.0890854  
  0.037308  -0.223687   0.116325  
0.000478331   -0.22223   0.152336  
  0.027308  -0.305687  0.0603252  
-0.00952167   -0.30423   0.096336  
-0.0242421  -0.225309   0.119639  
-0.0342421  -0.307309  0.0636386  
 0.0670093  -0.139041   0.201085  
  0.057308 -0.0596872   0.228325  
 0.0204783 -0.0582304   0.264336  
  0.047308  -0.141687   0.172325  
 0.0104783   -0.14023   0.208336  
-0.00424212 -0.0613089   0.231639  
-0.0142421  -0.143309   0.175639  
 0.0870093   0.024959   0.313085  
  0.077308   0.104313   0.340325  
 0.0404783    0.10577   0.376336  
  0.067308  0.0223128   0.284325  
 0.0304783  0.0237696   0.320336  
 0.0157579   0.102691   0.343639  
0.00575788  0.0206911   0.287639  
  0.107009   0.188959   0.425085  
  0.097308   0.268313   0.452325  
 0.0604783    0.26977   0.488336  
  0.087308   0.186313   0.396325  
 0.0504783    0.18777   0.432336  
 0.0357579   0.266691   0.455639  
 0.0257579   0.184691   0.399639  
  0.127009   0.352959   0.537085  
  0.107308   0.350313   0.508325  
 0.0704783    0.35177   0.544336  
 0.0457579   0.348691   0.511639  
  0.491427  -0.312086  -0.225798  
  0.454457     -0.231  -0.162742  
  0.522985   -0.22698  -0.135379  
  0.444457     -0.313  -0.218742  
  0.512985   -0.30898  -0.191379  
  0.469951  -0.227911   -0.12599  
  0.459951  -0.309911   -0.18199  
  0.511427  -0.148086  -0.113798  
  0.474457 -0.0670001 -0.0507416  
  0.542985 -0.0629797 -0.0233794  
  0.464457     -0.149  -0.106742  
  0.532985   -0.14498 -0.0793794  
  0.489951 -0.0639109 -0.0139903  
  0.479951  -0.145911 -0.0699903  
  0.531427  0.0159145 -0.00179785  
  0.494457  0.0969999  0.0612584  
  0.562985    0.10102  0.0886206  
  0.484457  0.0149999 0.00525842  
  0.552985  0.0190203  0.0326206  
  0.509951   0.100089  0.0980097  
  0.499951  0.0180891  0.0420097  
  0.551427   0.179914   0.110202  
  0.514457      0.261   0.173258  
  0.582985    0.26502   0.200621  
  0.504457      0.179   0.117258  
  0.572985    0.18302   0.144621  
  0.529951   0.264089    0.21001  
  0.519951   0.182089    0.15401  
  0.571427   0.343914   0.222202  
  0.524457      0.343   0.229258  
  0.592985    0.34702   0.256621  
  0.539951   0.346089    0.26601  
 -0.162963  -0.271146  -0.464254  
-0.0797088  -0.269739  -0.479768  
 -0.172963  -0.353146  -0.520254  
-0.0897088  -0.351739  -0.535768  
-0.0962095  -0.268333  -0.453075  
 -0.106209  -0.350333  -0.509075  
 -0.142963  -0.107146  -0.352254  
-0.0597088  -0.105739  -0.367768  
 -0.152963  -0.189146  -0.408254  
-0.0697088  -0.187739  -0.423768  
-0.0762095  -0.104333  -0.341075  
-0.0862095  -0.186333  -0.397075  
 -0.122963  0.0568543  -0.240254  
-0.0397088   0.058261  -0.255768  
 -0.132963 -0.0251457  -0.296254  
-0.0497088  -0.023739  -0.311768  
-0.0562095  0.0596669  -0.229075  
-0.0662095 -0.0223331  -0.285075  
 -0.102963   0.220854  -0.128254  
-0.0197088   0.222261  -0.143768  
 -0.112963   0.138854  -0.184254  
-0.0297088   0.140261  -0.199768  
-0.0362095   0.223667  -0.117075  
-0.0462095   0.141667  -0.173075  
-0.0929633   0.302854 -0.0722543  
-0.00970876   0.304261 -0.0877679  
-0.0262095   0.305667 -0.0610751  
 -0.686783  -0.288014  -0.479046  
 -0.696783  -0.370014  -0.535046  
 -0.666783  -0.124014  -0.367046  
 -0.676783  -0.206014  -0.423046  
 -0.646783  0.0399861  -0.255046  
 -0.656783 -0.0420139  -0.311046  
 -0.626783   0.203986  -0.143046  
 -0.636783   0.121986  -0.199046  
 -0.616783   0.285986 -0.0870458  
  0.403341  -0.256954  -0.504959  
  0.393341  -0.338954  -0.560959  
  0.423341 -0.0929536  -0.392959  
  0.413341  -0.174954  -0.448959  
  0.443341  0.0710464  -0.280959  
  0.433341 -0.0109536  -0.336959  
  0.463341   0.235046  -0.168959  
  0.453341   0.153046  -0.224959  
  0.473341   0.317046  -0.112959  
 -0.468199  -0.235148   0.169592  
 -0.478199  -0.317148   0.113592  
 -0.448199  -0.071148   0.281592  
 -0.458199  -0.153148   0.225592  
 -0.428199   0.092852   0.393592  
 -0.438199   0.010852   0.337592  
 -0.408199   0.256852   0.505592  
 -0.418199   0.174852   0.449592  
 -0.398199   0.338852   0.561592  
  0.627024  -0.203968   0.143201  
  0.617024  -0.285968  0.0872008  
  0.647024 -0.0399678   0.255201  
  0.637024  -0.121968   0.199201  
  0.667024   0.124032   0.367201  
  0.657024  0.0420322   0.311201  
  0.687024   0.288032   0.479201  
  0.677024   0.206032   0.423201  
  0.697024   0.370032   0.535201  
 -0.416105  -0.251595 -0.0830325  
 -0.426105  -0.333595  -0.139033  
 -0.384649  -0.251702 -0.0978397  
 -0.394649  -0.333702   -0.15384  
 -0.396105  -0.087595  0.0289675  
 -0.406105  -0.169595 -0.0270325  
 -0.364649 -0.0877016  0.0141603  
 -0.374649  -0.169702 -0.0418397  
 -0.376105   0.076405   0.140967  
 -0.386105 -0.00559502  0.0849675  
 -0.344649  0.0762984    0.12616  
 -0.354649 -0.00570163  0.0701603  
 -0.356105   0.240405   0.252967  
 -0.366105   0.158405   0.196967  
 -0.324649   0.240298    0.23816  
 -0.334649   0.158298    0.18216  
 -0.346105   0.322405   0.308967  
 -0.314649   0.322298    0.29416  
  -0.23739  -0.270232  -0.419948  
  -0.24739  -0.352232  -0.475948  
 -0.207396  -0.267437  -0.393455  
 -0.217396  -0.349437  -0.449455  
  -0.21739  -0.106232  -0.307948  
  -0.22739  -0.188232  -0.363948  
 -0.187396  -0.103437  -0.281455  
 -0.197396  -0.185437  -0.337455  
  -0.19739  0.0577679  -0.195948  
  -0.20739 -0.0242321  -0.251948  
 -0.167396  0.0605631  -0.169455  
 -0.177396 -0.0214369  -0.225455  
  -0.17739   0.221768 -0.0839479  
  -0.18739   0.139768  -0.139948  
 -0.147396   0.224563 -0.0574552  
 -0.157396   0.142563  -0.113455  
  -0.16739   0.303768 -0.0279479  
 -0.137396   0.306563 -0.00145517  
    0.1789  -0.222527  0.0726651  
    0.1689  -0.304527  0.0166651  
  0.148151  -0.224943  0.0518138  
  0.138151  -0.306943 -0.00418623  
    0.1989 -0.0585271   0.184665  
    0.1889  -0.140527   0.128665  
  0.168151 -0.0609427   0.163814  
  0.158151  -0.142943   0.107814  
    0.2189   0.105473   0.296665  
    0.2089  0.0234729   0.240665  
  0.188151   0.103057   0.275814  
  0.178151  0.0210573   0.219814  
    0.2389   0.269473   0.408665  
    0.2289   0.187473   0.352665  
  0.208151   0.267057   0.387814  
  0.198151   0.185057   0.331814  
    0.2489   0.351473   0.464665  
  0.218151   0.349057   0.443814  
  0.355733  -0.240412  -0.252908  
  0.345733  -0.322412  -0.308908  
  0.324463  -0.240302  -0.238131  
  0.314463  -0.322302  -0.294131  
  0.375733  -0.076412  -0.140908  
  0.365733  -0.158412  -0.196908  
  0.344463 -0.0763019  -0.126131  
  0.334463  -0.158302  -0.182131  
  0.395733   0.087588 -0.0289084  
  0.385733 0.00558799 -0.0849084  
  0.364463  0.0876981 -0.0141307  
  0.354463 0.00569812 -0.0701307  
  0.415733   0.251588  0.0830916  
  0.405733   0.169588  0.0270916  
  0.384463   0.251698  0.0978693  
  0.374463   0.169698  0.0418693  
  0.425733   0.333588   0.139092  
  0.394463   0.333698   0.153869  
 -0.536698   -0.33792  -0.152864  
 -0.482655  -0.255166  -0.104924  
 -0.544075  -0.258918  -0.131537  
 -0.492655  -0.337166  -0.160924  
 -0.554075  -0.340918  -0.187537  
 -0.498567  -0.258083  -0.139095  
 -0.508567  -0.340083  -0.195095  
 -0.516698   -0.17392 -0.0408639  
 -0.462655 -0.0911655 0.00707624  
 -0.524075  -0.094918 -0.0195368  
 -0.472655  -0.173166 -0.0489238  
 -0.534075  -0.176918 -0.0755368  
 -0.478567 -0.0940833 -0.0270951  
 -0.488567  -0.176083 -0.0830951  
 -0.496698 -0.0099202  0.0711361  
 -0.442655  0.0728345   0.119076  
 -0.504075   0.069082  0.0924632  
 -0.452655 -0.00916555  0.0630762  
 -0.514075  -0.012918  0.0364632  
 -0.458567  0.0699167  0.0849049  
 -0.468567 -0.0120833  0.0289049  
 -0.476698    0.15408   0.183136  
 -0.422655   0.236834   0.231076  
 -0.484075   0.233082   0.204463  
 -0.432655   0.154834   0.175076  
 -0.494075   0.151082   0.148463  
 -0.438567   0.233917   0.196905  
 -0.448567   0.151917   0.140905  
 -0.456698    0.31808   0.295136  
 -0.412655   0.318834   0.287076  
 -0.474075   0.315082   0.260463  
 -0.428567   0.315917   0.252905  
  0.162272   -0.30024  0.0795748  
  0.151285  -0.220813    0.10838  
  0.114641   -0.21964    0.14033  
  0.141285  -0.302813    0.05238  
  0.104641   -0.30164  0.0843301  
 0.0942967   -0.22225   0.112353  
 0.0842967   -0.30425  0.0563526  
  0.182272   -0.13624   0.191575  
  0.171285 -0.0568132    0.22038  
  0.134641 -0.0556404    0.25233  
  0.161285  -0.138813    0.16438  
  0.124641   -0.13764    0.19633  
  0.114297 -0.0582502   0.224353  
  0.104297   -0.14025   0.168353  
  0.202272  0.0277602   0.303575  
  0.191285   0.107187    0.33238  
  0.154641    0.10836    0.36433  
  0.181285  0.0251868    0.27638  
  0.144641  0.0263596    0.30833  
  0.134297    0.10575   0.336353  
  0.124297  0.0237498   0.280353  
  0.222272    0.19176   0.415575  
  0.211285   0.271187    0.44438  
  0.174641    0.27236    0.47633  
  0.201285   0.189187    0.38838  
  0.164641    0.19036    0.42033  
  0.154297    0.26975   0.448353  
  0.144297    0.18775   0.392353  
  0.242272    0.35576   0.527575  
  0.221285   0.353187    0.50038  
  0.184641    0.35436    0.53233  
  0.164297    0.35175   0.504353  
  0.456605  -0.318083  -0.295135  
  0.422568  -0.236838  -0.231083  
  0.484016  -0.233084  -0.204466  
  0.412568  -0.318838  -0.287083  
  0.474016  -0.315084  -0.260466  
  0.438512  -0.233919  -0.196912  
  0.428512  -0.315919  -0.252912  
  0.476605  -0.154083  -0.183135  
  0.442568 -0.0728376  -0.119083  
  0.504016  -0.069084 -0.0924665  
  0.432568  -0.154838  -0.175083  
  0.494016  -0.151084  -0.148466  
  0.458512 -0.0699188 -0.0849123  
  0.448512  -0.151919  -0.140912  
  0.496605 0.00991745 -0.0711351  
  0.462568  0.0911624 -0.00708294  
  0.524016   0.094916  0.0195335  
  0.452568 0.00916243 -0.0630829  
  0.514016   0.012916 -0.0364665  
  0.478512  0.0940812  0.0270877  
  0.468512  0.0120812 -0.0289123  
  0.516605   0.173917  0.0408649  
  0.482568   0.255162   0.104917  
  0.544016   0.258916   0.131534  
  0.472568   0.173162  0.0489171  
  0.534016   0.176916  0.0755335  
  0.498512   0.258081   0.139088  
  0.488512   0.176081  0.0830877  
  0.536605   0.337917   0.152865  
  0.492568   0.337162   0.160917  
  0.554016   0.340916   0.187534  
  0.508512   0.340081   0.195088  
0.00813188  -0.351472  -0.573432  
 0.0778264  -0.267079  -0.509145  
-8.8923e-05  -0.268203  -0.491937  
 0.0678264  -0.349079  -0.565145  
-0.0100889  -0.350203  -0.547937  
 0.0621023  -0.265639  -0.482309  
 0.0521023  -0.347639  -0.538309  
 0.0281319  -0.187472  -0.461432  
 0.0978264  -0.103079  -0.397145  
 0.0199111  -0.104203  -0.379937  
 0.0878264  -0.185079  -0.453145  
0.00991108  -0.186203  -0.435937  
 0.0821023  -0.101639  -0.370309  
 0.0721023  -0.183639  -0.426309  
 0.0481319  -0.023472  -0.349432  
  0.117826  0.0609212  -0.285145  
 0.0399111  0.0597965  -0.267937  
  0.107826 -0.0210788  -0.341145  
 0.0299111 -0.0222035  -0.323937  
  0.102102  0.0623607  -0.258309  
 0.0921023 -0.0196393  -0.314309  
 0.0681319   0.140528  -0.237432  
  0.137826   0.224921  -0.173145  
 0.0599111   0.223797  -0.155937  
  0.127826   0.142921  -0.229145  
 0.0499111   0.141797  -0.211937  
  0.122102   0.226361  -0.146309  
  0.112102   0.144361  -0.202309  
 0.0881319   0.304528  -0.125432  
  0.147826   0.306921  -0.117145  
 0.0699111   0.305797 -0.0999369  
  0.132102   0.308361 -0.0903093  
 -0.508435  -0.252008 -0.0497482  
 -0.518435  -0.334008  -0.105748  
  -0.46227  -0.251802 -0.0663903  
  -0.47227  -0.333802   -0.12239  
 -0.488435 -0.0880081  0.0622518  
 -0.498435  -0.170008 0.00625184  
  -0.44227 -0.0878016  0.0456097  
  -0.45227  -0.169802 -0.0103903  
 -0.468435  0.0759919   0.174252  
 -0.478435 -0.0060081   0.118252  
  -0.42227  0.0761984    0.15761  
  -0.43227 -0.00580156    0.10161  
 -0.448435   0.239992   0.286252  
 -0.458435   0.157992   0.230252  
  -0.40227   0.240198    0.26961  
  -0.41227   0.158198    0.21361  
 -0.438435   0.321992   0.342252  
  -0.39227   0.322198    0.32561  
 -0.338087  -0.277597  -0.480586  
 -0.242185  -0.273855  -0.468704  
 -0.348087  -0.359597  -0.536586  
 -0.252185  -0.355855  -0.524704  
 -0.287739  -0.273915  -0.450267  
 -0.297739  -0.355915  -0.506267  
 -0.318087  -0.113597  -0.368586  
 -0.222185  -0.109855  -0.356704  
 -0.328087  -0.195597  -0.424586  
 -0.232185  -0.191855  -0.412704  
 -0.267739  -0.109915  -0.338267  
 -0.277739  -0.191915  -0.394267  
 -0.298087  0.0504027  -0.256586  
 -0.202185  0.0541454  -0.244704  
 -0.308087 -0.0315973  -0.312586  
 -0.212185 -0.0278546  -0.300704  
 -0.247739  0.0540853  -0.226267  
 -0.257739 -0.0279147  -0.282267  
 -0.278087   0.214403  -0.144586  
 -0.182185   0.218145  -0.132704  
 -0.288087   0.132403  -0.200586  
 -0.192185   0.136145  -0.188704  
 -0.227739   0.218085  -0.114267  
 -0.237739   0.136085  -0.170267  
 -0.268087   0.296403 -0.0885856  
 -0.172185   0.300145 -0.0767037  
 -0.217739   0.300085 -0.0582668  
  0.251433  -0.216086   0.132262  
  0.241433  -0.298086  0.0762621  
  0.215167  -0.219307   0.102464  
  0.205167  -0.301307  0.0464636  
  0.271433 -0.0520864   0.244262  
  0.261433  -0.134086   0.188262  
  0.235167 -0.0553067   0.214464  
  0.225167  -0.137307   0.158464  
  0.291433   0.111914   0.356262  
  0.281433  0.0299136   0.300262  
  0.255167   0.108693   0.326464  
  0.245167  0.0266933   0.270464  
  0.311433   0.275914   0.468262  
  0.301433   0.193914   0.412262  
  0.275167   0.272693   0.438464  
  0.265167   0.190693   0.382464  
  0.321433   0.357914   0.524262  
  0.285167   0.354693   0.494464  
  0.448283  -0.239994   -0.28622  
  0.438283  -0.321994   -0.34222  
  0.402008  -0.240203  -0.269564  
  0.392008  -0.322203  -0.325564  
  0.468283 -0.0759942   -0.17422  
  0.458283  -0.157994   -0.23022  
  0.422008 -0.0762031  -0.157564  
  0.412008  -0.158203  -0.213564  
  0.488283  0.0880058 -0.0622203  
  0.478283 0.00600578   -0.11822  
  0.442008  0.0877969 -0.0455643  
  0.432008 0.00579689  -0.101564  
  0.508283   0.252006  0.0497797  
  0.498283   0.170006 -0.00622026  
  0.462008   0.251797  0.0664357  
  0.452008   0.169797  0.0104357  
  0.518283   0.334006    0.10578  
  0.472008   0.333797   0.122436  
-0.0184341  -0.272736  -0.547716  
-0.0284341  -0.354736  -0.603716  
 0.0557882  -0.269977  -0.540447  
 0.0457882  -0.351977  -0.596447  
0.00156594  -0.108736  -0.435716  
-0.00843406  -0.190736  -0.491716  
 0.0757882  -0.105977  -0.428447  
 0.0657882  -0.187977  -0.484447  
 0.0215659   0.055264  -0.323716  
 0.0115659  -0.026736  -0.379716  
 0.0957882  0.0580231  -0.316447  
 0.0857882 -0.0239769  -0.372447  
 0.0415659   0.219264  -0.211716  
 0.0315659   0.137264  -0.267716  
  0.115788   0.222023  -0.204447  
  0.105788   0.140023  -0.260447  
 0.0515659   0.301264  -0.155716  
  0.125788   0.304023  -0.148447  
 -0.213947   -0.27445  -0.489006  
 -0.223947   -0.35645  -0.545006  
 -0.193947   -0.11045  -0.377006  
 -0.203947   -0.19245  -0.433006  
 -0.173947  0.0535497  -0.265006  
 -0.183947 -0.0284503  -0.321006  
 -0.153947    0.21755  -0.153006  
 -0.163947    0.13555  -0.209006  
 -0.143947    0.29955 -0.0970057  
  0.516865  -0.234408  -0.236928  
  0.490007  -0.240661  -0.313232  
  0.506865  -0.316408  -0.292928  
  0.480007  -0.322661  -0.369232  
  0.503436  -0.237535   -0.27508  
  0.493436  -0.319535   -0.33108  
  0.536865 -0.0704079  -0.124928  
  0.510007 -0.0766614  -0.201232  
  0.526865  -0.152408  -0.180928  
  0.500007  -0.158661  -0.257232  
  0.523436 -0.0735346   -0.16308  
  0.513436  -0.155535   -0.21908  
  0.556865  0.0935921 -0.0129282  
  0.530007  0.0873386 -0.0892319  
  0.546865  0.0115921 -0.0689282  
  0.520007 0.00533858  -0.145232  
  0.543436  0.0904654   -0.05108  
  0.533436 0.00846536   -0.10708  
  0.576865   0.257592  0.0990718  
  0.550007   0.251339  0.0227681  
  0.566865   0.175592  0.0430718  
  0.540007   0.169339 -0.0332319  
  0.563436   0.254465    0.06092  
  0.553436   0.172465 0.00491997  
  0.586865   0.339592   0.155072  
  0.560007   0.333339  0.0787681  
  0.573436   0.336465    0.11692  
 -0.576952  -0.257595 -0.0990695  
 -0.550271  -0.251344 -0.0227279  
 -0.586952  -0.339595  -0.155069  
 -0.560271  -0.333344 -0.0787279  
 -0.563611  -0.254469 -0.0608987  
 -0.573611  -0.336469  -0.116899  
 -0.556952 -0.0935946  0.0129305  
 -0.530271 -0.0873437  0.0892721  
 -0.566952  -0.175595 -0.0430695  
 -0.540271  -0.169344  0.0332721  
 -0.543611 -0.0904691  0.0511013  
 -0.553611  -0.172469 -0.00489869  
 -0.536952  0.0704054   0.124931  
 -0.510271  0.0766563   0.201272  
 -0.546952 -0.0115946  0.0689305  
 -0.520271 -0.00534369   0.145272  
 -0.523611  0.0735309   0.163101  
 -0.533611 -0.00846914   0.107101  
 -0.516952   0.234405   0.236931  
 -0.490271   0.240656   0.313272  
 -0.526952   0.152405   0.180931  
 -0.500271   0.158656   0.257272  
 -0.503611   0.237531   0.275101  
 -0.513611   0.155531   0.219101  
 -0.506952   0.316405   0.292931  
 -0.480271   0.322656   0.369272  
 -0.493611   0.319531   0.331101  
  0.176363  -0.216031   0.164805  
  0.305087  -0.212406   0.161151  
  0.166363  -0.298031   0.108805  
  0.295087  -0.294406   0.105151  
  0.240725  -0.214219   0.162978  
  0.230725  -0.296219   0.106978  
  0.196363 -0.0520313   0.276805  
  0.325087 -0.0484061   0.273151  
  0.186363  -0.134031   0.220805  
  0.315087  -0.130406   0.217151  
  0.260725 -0.0502187   0.274978  
  0.250725  -0.132219   0.218978  
  0.216363   0.111969   0.388805  
  0.345087   0.115594   0.385151  
  0.206363  0.0299687   0.332805  
  0.335087  0.0335939   0.329151  
  0.280725   0.113781   0.386978  
  0.270725  0.0317813   0.330978  
  0.236363   0.275969   0.500805  
  0.365087   0.279594   0.497151  
  0.226363   0.193969   0.444805  
  0.355087   0.197594   0.441151  
  0.300725   0.277781   0.498978  
  0.290725   0.195781   0.442978  
  0.246363   0.357969   0.556805  
  0.375087   0.361594   0.553151  
  0.310725   0.359781   0.554978  
  0.565069  -0.310563  -0.235626  
  0.627534  -0.224782  -0.148813  
  0.538248  -0.229325  -0.174712  
  0.617534  -0.306782  -0.204813  
  0.528248  -0.311325  -0.230712  
  0.575259  -0.225881  -0.142096  
  0.565259  -0.307881  -0.198096  
  0.585069  -0.146563  -0.123626  
  0.647534 -0.0607817 -0.0368132  
  0.558248 -0.0653245 -0.0627121  
  0.637534  -0.142782 -0.0928132  
  0.548248  -0.147325  -0.118712  
  0.595259 -0.0618807 -0.0300963  
  0.585259  -0.143881 -0.0860963  
  0.605069  0.0174365 -0.0116264  
  0.667534   0.103218  0.0751868  
  0.578248  0.0986755  0.0492879  
  0.657534  0.0212183  0.0191868  
  0.568248  0.0166755 -0.00671211  
  0.615259   0.102119  0.0819037  
  0.605259  0.0201193  0.0259037  
  0.625069   0.181437   0.100374  
  0.687534   0.267218   0.187187  
  0.598248   0.262675   0.161288  
  0.677534   0.185218   0.131187  
  0.588248   0.180675   0.105288  
  0.635259   0.266119   0.193904  
  0.625259   0.184119   0.137904  
  0.645069   0.345437   0.212374  
  0.697534   0.349218   0.243187  
  0.608248   0.344675   0.217288  
  0.645259   0.348119   0.249904  
 0.0757487  -0.298971   0.133979  
 0.0403744  -0.216486    0.21599  
  0.071379  -0.219006   0.167532  
 0.0303744  -0.298486    0.15999  
  0.061379  -0.301006   0.111532  
 0.0204264  -0.219358   0.184163  
 0.0104264  -0.301358   0.128163  
 0.0957487  -0.134971   0.245979  
 0.0603744 -0.0524856    0.32799  
  0.091379  -0.055006   0.279532  
 0.0503744  -0.134486    0.27199  
  0.081379  -0.137006   0.223532  
 0.0404264  -0.055358   0.296163  
 0.0304264  -0.137358   0.240163  
  0.115749  0.0290289   0.357979  
 0.0803744   0.111514    0.43999  
  0.111379   0.108994   0.391532  
 0.0703744  0.0295144    0.38399  
  0.101379   0.026994   0.335532  
 0.0604264   0.108642   0.408163  
 0.0504264   0.026642   0.352163  
  0.135749   0.193029   0.469979  
  0.100374   0.275514    0.55199  
  0.131379   0.272994   0.503532  
 0.0903744   0.193514    0.49599  
  0.121379   0.190994   0.447532  
 0.0804264   0.272642   0.520163  
 0.0704264   0.190642   0.464163  
  0.155749   0.357029   0.581979  
  0.110374   0.357514    0.60799  
  0.141379   0.354994   0.559532  
 0.0904264   0.354642   0.576163  
  -0.64509  -0.345437  -0.212378  
 -0.687545  -0.267219  -0.187189  
 -0.598271  -0.262677  -0.161294  
 -0.697545  -0.349219  -0.243189  
 -0.608271  -0.344677  -0.217294  
 -0.635271   -0.26612  -0.193909  
 -0.645271   -0.34812  -0.249909  
  -0.62509  -0.181437  -0.100378  
 -0.667545  -0.103219  -0.075189  
 -0.578271 -0.0986766 -0.0492938  
 -0.677545  -0.185219  -0.131189  
 -0.588271  -0.180677  -0.105294  
 -0.615271   -0.10212 -0.0819093  
 -0.625271   -0.18412  -0.137909  
  -0.60509 -0.0174375   0.011622  
 -0.647545  0.0607813   0.036811  
 -0.558271  0.0653234  0.0627062  
 -0.657545 -0.0212187  -0.019189  
 -0.568271 -0.0166766 0.00670616  
 -0.595271  0.0618799  0.0300907  
 -0.605271 -0.0201201 -0.0259093  
  -0.58509   0.146563   0.123622  
 -0.627545   0.224781   0.148811  
 -0.538271   0.229323   0.174706  
 -0.637545   0.142781   0.092811  
 -0.548271   0.147323   0.118706  
 -0.575271    0.22588   0.142091  
 -0.585271    0.14388  0.0860907  
  -0.56509   0.310563   0.235622  
 -0.617545   0.306781   0.204811  
 -0.528271   0.311323   0.230706  
 -0.565271    0.30788   0.198091  
  0.527797  -0.214499  0.0375485  
  0.517797  -0.296499 -0.0184515  
  0.547797 -0.0504994   0.149549  
  0.537797  -0.132499  0.0935485  
  0.567797   0.113501   0.261549  
  0.557797  0.0315006   0.205549  
  0.587797   0.277501   0.373549  
  0.577797   0.195501   0.317549  
  0.597797   0.359501   0.429549  
 -0.587599  -0.277492  -0.373518  
 -0.597599  -0.359492  -0.429518  
 -0.567599  -0.113492  -0.261518  
 -0.577599  -0.195492  -0.317518  
 -0.547599  0.0505076  -0.149518  
 -0.557599 -0.0314924  -0.205518  
 -0.527599   0.214508 -0.0375181  
 -0.537599   0.132508 -0.0935181  
 -0.517599   0.296508  0.0184819  
 -0.299885  -0.233043   0.127865  
 -0.309885  -0.315043  0.0718647  
 -0.279885 -0.0690433   0.239865  
 -0.289885  -0.151043   0.183865  
 -0.259885  0.0949567   0.351865  
 -0.269885  0.0129567   0.295865  
 -0.239885   0.258957   0.463865  
 -0.249885   0.176957   0.407865  
 -0.229885   0.340957   0.519865  
  0.458574  -0.244851  -0.358669  
  0.448574  -0.326851  -0.414669  
  0.533675   -0.24078  -0.333374  
  0.523675   -0.32278  -0.389374  
  0.478574 -0.0808513  -0.246669  
  0.468574  -0.162851  -0.302669  
  0.553675 -0.0767799  -0.221374  
  0.543675   -0.15878  -0.277374  
  0.498574  0.0831487  -0.134669  
  0.488574 0.00114867  -0.190669  
  0.573675  0.0872201  -0.109374  
  0.563675  0.0052201  -0.165374  
  0.518574   0.247149  -0.022669  
  0.508574   0.165149  -0.078669  
  0.593675    0.25122 0.00262589  
  0.583675    0.16922 -0.0533741  
  0.528574   0.329149   0.033331  
  0.603675    0.33322  0.0586259  
  0.379655  -0.210908   0.150595  
  0.369655  -0.292908  0.0945954  
  0.347222  -0.209049   0.190386  
  0.337222  -0.291049   0.134386  
  0.399655 -0.0469079   0.262595  
  0.389655  -0.128908   0.206595  
  0.367222 -0.0450487   0.302386  
  0.357222  -0.127049   0.246386  
  0.419655   0.117092   0.374595  
  0.409655  0.0350921   0.318595  
  0.387222   0.118951   0.414386  
  0.377222  0.0369513   0.358386  
  0.439655   0.281092   0.486595  
  0.429655   0.199092   0.430595  
  0.407222   0.282951   0.526386  
  0.397222   0.200951   0.470386  
  0.449655   0.363092   0.542595  
  0.417222   0.364951   0.582386  
 -0.429987  -0.280468  -0.481937  
 -0.439987  -0.362468  -0.537937  
 -0.392381  -0.281849  -0.517217  
 -0.402381  -0.363849  -0.573217  
 -0.409987  -0.116468  -0.369937  
 -0.419987  -0.198468  -0.425937  
 -0.372381  -0.117849  -0.405217  
 -0.382381  -0.199849  -0.461217  
 -0.389987  0.0475321  -0.257937  
 -0.399987 -0.0344679  -0.313937  
 -0.352381  0.0461508  -0.293217  
 -0.362381 -0.0358492  -0.349217  
 -0.369987   0.211532  -0.145937  
 -0.379987   0.129532  -0.201937  
 -0.332381   0.210151  -0.181217  
 -0.342381   0.128151  -0.237217  
 -0.359987   0.293532  -0.089937  
 -0.322381   0.292151  -0.125217  
  -0.52012  -0.247184  0.0228273  
  -0.53012  -0.329184 -0.0331727  
 -0.594528   -0.25124 -0.00254217  
 -0.604528   -0.33324 -0.0585422  
  -0.50012 -0.0831841   0.134827  
  -0.51012  -0.165184  0.0788273  
 -0.574528 -0.0872399   0.109458  
 -0.584528   -0.16924  0.0534578  
  -0.48012  0.0808159   0.246827  
  -0.49012 -0.00118406   0.190827  
 -0.554528  0.0767601   0.221458  
 -0.564528 -0.00523987   0.165458  
  -0.46012   0.244816   0.358827  
  -0.47012   0.162816   0.302827  
 -0.534528    0.24076   0.333458  
 -0.544528    0.15876   0.277458  
  -0.45012   0.326816   0.414827  
 -0.524528    0.32276   0.389458  
-0.0494333  -0.271859  -0.522298  
-0.0594333  -0.353859  -0.578298  
 -0.064571  -0.270799  -0.501033  
 -0.074571  -0.352799  -0.557033  
-0.0294333  -0.107859  -0.410298  
-0.0394333  -0.189859  -0.466298  
 -0.044571  -0.106799  -0.389033  
 -0.054571  -0.188799  -0.445033  
-0.00943333  0.0561413  -0.298298  
-0.0194333 -0.0258587  -0.354298  
 -0.024571  0.0572011  -0.277033  
 -0.034571 -0.0247989  -0.333033  
 0.0105667   0.220141  -0.186298  
0.000566667   0.138141  -0.242298  
-0.00457104   0.221201  -0.165033  
 -0.014571   0.139201  -0.221033  
 0.0205667   0.302141  -0.130298  
0.00542896   0.303201  -0.109033  
-0.0965917  -0.275492  -0.553274  
 -0.106592  -0.357492  -0.609274  
-0.0765917  -0.111492  -0.441274  
-0.0865917  -0.193492  -0.497274  
-0.0565917  0.0525081  -0.329274  
-0.0665917 -0.0294919  -0.385274  
-0.0365917   0.216508  -0.217274  
-0.0465917   0.134508  -0.273274  
-0.0265917   0.298508  -0.161274  
  0.408106  -0.247506  -0.374532  
  0.398106  -0.329506  -0.430532  
  0.428106 -0.0835064  -0.262532  
  0.418106  -0.165506  -0.318532  
  0.448106  0.0804936  -0.150532  
  0.438106 -0.00150636  -0.206532  
  0.468106   0.244494  -0.038532  
  0.458106   0.162494  -0.094532  
  0.478106   0.326494   0.017468  
 -0.454346  -0.279487  -0.457878  
 -0.464346  -0.361487  -0.513878  
 -0.434346  -0.115487  -0.345878  
 -0.444346  -0.197487  -0.401878  
 -0.414346  0.0485128  -0.233878  
 -0.424346 -0.0334872  -0.289878  
 -0.394346   0.212513  -0.121878  
 -0.404346   0.130513  -0.177878  
 -0.384346   0.294513 -0.0658783  
  0.400709  -0.212112   0.124807  
  0.390709  -0.294112  0.0688067  
  0.420709 -0.0481118   0.236807  
  0.410709  -0.130112   0.180807  
  0.440709   0.115888   0.348807  
  0.430709  0.0338882   0.292807  
  0.460709   0.279888   0.460807  
  0.450709   0.197888   0.404807  
  0.470709   0.361888   0.516807  
  -0.47189  -0.244554  0.0392904  
  -0.48189  -0.326554 -0.0167096  
  -0.45189 -0.0805538    0.15129  
  -0.46189  -0.162554  0.0952904  
  -0.43189  0.0834462    0.26329  
  -0.44189 0.00144622    0.20729  
  -0.41189   0.247446    0.37529  
  -0.42189   0.165446    0.31929  
  -0.40189   0.329446    0.43129  
  0.571097  -0.230648  -0.207174  
  0.561097  -0.312648  -0.263174  
  0.527556  -0.231866   -0.20582  
  0.517556  -0.313866   -0.26182  
  0.591097 -0.0666483 -0.0951738  
  0.581097  -0.148648  -0.151174  
  0.547556 -0.0678662 -0.0938201  
  0.537556  -0.149866   -0.14982  
  0.611097  0.0973517  0.0168262  
  0.601097  0.0153517 -0.0391738  
  0.567556  0.0961338  0.0181799  
  0.557556  0.0141338 -0.0378201  
  0.631097   0.261352   0.128826  
  0.621097   0.179352  0.0728262  
  0.587556   0.260134    0.13018  
  0.577556   0.178134  0.0741799  
  0.641097   0.343352   0.184826  
  0.597556   0.342134    0.18618  
  0.133102  -0.215397   0.192007  
  0.123102  -0.297397   0.136007  
  0.123871  -0.217519   0.166169  
  0.113871  -0.299519   0.110169  
  0.153102  -0.051397   0.304007  
  0.143102  -0.133397   0.248007  
  0.143871 -0.0535187   0.278169  
  0.133871  -0.135519   0.222169  
  0.173102   0.112603   0.416007  
  0.163102   0.030603   0.360007  
  0.163871   0.110481   0.390169  
  0.153871  0.0284813   0.334169  
  0.193102   0.276603   0.528007  
  0.183102   0.194603   0.472007  
  0.183871   0.274481   0.502169  
  0.173871   0.192481   0.446169  
  0.203102   0.358603   0.584007  
  0.193871   0.356481   0.558169  
 -0.631148  -0.261353  -0.128827  
 -0.641148  -0.343353  -0.184827  
 -0.587611  -0.260136  -0.130182  
 -0.597611  -0.342136  -0.186182  
 -0.611148 -0.0973532 -0.0168266  
 -0.621148  -0.179353 -0.0728266  
 -0.567611 -0.0961356 -0.0181817  
 -0.577611  -0.178136 -0.0741817  
 -0.591148  0.0666468  0.0951734  
 -0.601148 -0.0153532  0.0391734  
 -0.547611  0.0678644  0.0938183  
 -0.557611 -0.0141356  0.0378183  
 -0.571148   0.230647   0.207173  
 -0.581148   0.148647   0.151173  
 -0.527611   0.231864   0.205818  
 -0.537611   0.149864   0.149818  
 -0.561148   0.312647   0.263173  
 -0.517611   0.313864   0.261818  
  0.623986  -0.227699  -0.188212  
  0.613986  -0.309699  -0.244212  
  0.643986 -0.0636992 -0.0762119  
  0.633986  -0.145699  -0.132212  
  0.663986   0.100301  0.0357881  
  0.653986  0.0183008 -0.0202119  
  0.683986   0.264301   0.147788  
  0.673986   0.182301  0.0917881  
  0.693986   0.346301   0.203788  
  0.108426  -0.214136   0.220129  
 0.0984258  -0.296136   0.164129  
  0.128426  -0.050136   0.332129  
  0.118426  -0.132136   0.276129  
  0.148426   0.113864   0.444129  
  0.138426   0.031864   0.388129  
  0.168426   0.277864   0.556129  
  0.158426   0.195864   0.500129  
  0.178426   0.359864   0.612129  
 -0.684011  -0.264302  -0.147788  
 -0.694011  -0.346302  -0.203788  
 -0.664011  -0.100302 -0.0357883  
 -0.674011  -0.182302 -0.0917883  
 -0.644011  0.0636984  0.0762117  
 -0.654011 -0.0183016  0.0202117  
 -0.624011   0.227698   0.188212  
 -0.634011   0.145698   0.132212  
 -0.614011   0.309698   0.244212  
  0.200805  -0.243131  -0.225462  
  0.220805 -0.0791312  -0.113462  
  0.240805  0.0848688 -0.00146184  
  0.260805   0.248869   0.110538  
 -0.267322  -0.248496  -0.102553  
 -0.247322  -0.084496 0.00944682  
 -0.227322   0.079504   0.121447  
 -0.207322   0.243504   0.233447  
    0.1069  -0.231608 -0.0241699  
    0.1269 -0.0676079  0.0878301  
    0.1469  0.0963921    0.19983  
    0.1669   0.260392    0.31183  
 -0.175376  -0.261769   -0.32755  
 -0.155376 -0.0977693   -0.21555  
 -0.135376  0.0662307   -0.10355  
 -0.115376   0.230231 0.00845015  
 -0.113722  -0.238848 -0.0322957  
-0.0937221 -0.0748476  0.0797043  
-0.0737221  0.0891524   0.191704  
-0.0537221   0.253152   0.303704  
 0.0574855  -0.253294  -0.307285  
 0.0774855 -0.0892942  -0.195285  
 0.0974855  0.0747058 -0.0832852  
  0.117486   0.238706  0.0287148  
 -0.287373  -0.259043  -0.241926  
 -0.267373 -0.0950427  -0.129926  
 -0.247373  0.0689573 -0.0179257  
 -0.227373   0.232957  0.0940743  
  0.230613  -0.232607 -0.0905357  
  0.250613 -0.0686071  0.0214643  
  0.270613  0.0953929   0.133464  
  0.290613   0.259393   0.245464  
 -0.281383  -0.261277  -0.275784  
 -0.261383  -0.097277  -0.163784  
 -0.241383   0.066723 -0.0517836  
 -0.221383   0.230723  0.0602164  
 -0.203269  -0.256423  -0.240799  
 -0.183269 -0.0924234  -0.128799  
 -0.163269  0.0715766 -0.0167985  
 -0.143269   0.235577  0.0952015  
 -0.200567   -0.25244  -0.186104  
 -0.180567 -0.0884404 -0.0741038  
 -0.160567  0.0755596  0.0378962  
 -0.140567    0.23956   0.149896  
 -0.130945  -0.251187  -0.197999  
 -0.110945 -0.0871871 -0.0859987  
 -0.090945  0.0768129  0.0260013  
 -0.070945   0.240813   0.138001  
   -0.1397  -0.247501  -0.142614  
   -0.1197 -0.0835009 -0.0306142  
   -0.0997  0.0804991  0.0813858  
   -0.0797   0.244499   0.193386  
-0.0858505  -0.247716  -0.168421  
-0.0658505 -0.0837161 -0.0564211  
-0.0458505  0.0802839  0.0555789  
-0.0258505   0.244284   0.167579  
-0.0245105  -0.248599  -0.206755  
-0.00451048 -0.0845987 -0.0947549  
 0.0154895  0.0794013  0.0172451  
 0.0354895   0.243401   0.129245  
 0.0350482  -0.242987  -0.153284  
 0.0550482 -0.0789866 -0.0412836  
 0.0750482  0.0850134  0.0707164  
 0.0950482   0.249013   0.182716  
-0.0288278  -0.242252  -0.115946  
-0.00882783 -0.0782516 -0.00394646  
 0.0111722  0.0857484   0.108054  
 0.0311722   0.249748   0.220054  
 0.0505115  -0.246609  -0.210615  
 0.0705115 -0.0826092 -0.0986147  
 0.0905115  0.0813908  0.0133853  
  0.110511   0.245391   0.125385  
 0.0902902  -0.243212  -0.179822  
   0.11029 -0.0792119 -0.0678219  
   0.13029  0.0847881  0.0441781  
   0.15029   0.248788   0.156178  
 -0.021869   -0.25277  -0.266354  
-0.00186904 -0.0887701  -0.154354  
  0.018131  0.0752299 -0.0423542  
  0.038131    0.23923  0.0696458  
 -0.119644  -0.253258  -0.231816  
-0.0996443 -0.0892582  -0.119816  
-0.0796443  0.0747418 -0.00781587  
-0.0596443   0.238742   0.104184  
-0.0985441  -0.244149  -0.113045  
-0.0785441 -0.0801493 -0.00104494  
-0.0585441  0.0838507   0.110955  
-0.0385441   0.247851   0.222955  
-0.0367115   -0.23864 -0.0619745  
-0.0167115 -0.0746398  0.0500255  
0.00328848  0.0893602   0.162025  
 0.0232885    0.25336   0.274025  
 0.0657912  -0.236697  -0.078115  
 0.0857912 -0.0726968   0.033885  
  0.105791  0.0913032   0.145885  
  0.125791   0.255303   0.257885  
 0.0801214   -0.23949  -0.123346  
  0.100121 -0.0754905 -0.0113462  
  0.120121  0.0885095   0.100654  
  0.140121    0.25251   0.212654  
 -0.190786  -0.246593  -0.108272  
 -0.170786 -0.0825935 0.00372766  
 -0.150786  0.0814065   0.115728  
 -0.130786   0.245407   0.227728  
  0.153377  -0.234487 -0.0841992  
  0.173377 -0.0704867  0.0278008  
  0.193377  0.0935133   0.139801  
  0.213377   0.257513   0.251801  
  0.142044   -0.24337  -0.203945  
  0.162044 -0.0793703 -0.0919445  
  0.182044  0.0846297  0.0200555  
  0.202044    0.24863   0.132055  
 0.0766806  -0.248547  -0.248857  
 0.0966806 -0.0845471  -0.136857  
  0.116681  0.0794529  -0.024857  
  0.136681   0.243453   0.087143  
-0.0280087   -0.25662  -0.317733  
-0.00800874 -0.0926204  -0.205733  
 0.0119913  0.0713796 -0.0937332  
 0.0319913    0.23538  0.0182668  
  0.153811  -0.247598  -0.268189  
  0.173811 -0.0835976  -0.156189  
  0.193811  0.0804024 -0.0441886  
  0.213811   0.244402  0.0678114  
 -0.293769  -0.255818  -0.194006  
 -0.273769 -0.0918177 -0.0820058  
 -0.253769  0.0721823  0.0299942  
 -0.233769   0.236182   0.141994  
  0.152395  -0.238197  -0.135805  
  0.172395 -0.0741974 -0.0238054  
  0.192395  0.0898026  0.0881946  
  0.212395   0.253803   0.200195  
  0.237277  -0.235729  -0.137126  
  0.257277 -0.0717292 -0.0251258  
  0.277277  0.0922708  0.0868742  
  0.297277   0.256271   0.198874  
  0.172325  -0.230866 -0.0414536  
  0.192325 -0.0668657  0.0705464  
  0.212325  0.0971343   0.182546  
  0.232325   0.261134   0.294546  
  -0.21016  -0.260282  -0.291971  
  -0.19016 -0.0962815  -0.179971  
  -0.17016  0.0677185 -0.0679707  
  -0.15016   0.231718  0.0440293  
 -0.107641  -0.242064 -0.0799569  
-0.0876407 -0.0780637  0.0320431  
-0.0676407  0.0859363   0.144043  
-0.0476407   0.249936   0.256043  
 -0.033043  -0.235301 -0.0167154  
 -0.013043 -0.0713007  0.0952846  
0.00695698  0.0926993   0.207285  
  0.026957   0.256699   0.319285  
 -0.188636  -0.242561 -0.0526486  
 -0.168636 -0.0785609  0.0593514  
 -0.148636  0.0854391   0.171351  
 -0.128636   0.249439   0.283351  
 -0.230955  -0.250673  -0.148464  
 -0.210955 -0.0866729 -0.0364635  
 -0.190955  0.0773271  0.0755365  
 -0.170955   0.241327   0.187536  
  0.176696  -0.240322  -0.175876  
  0.196696 -0.0763221 -0.0638762  
  0.216696  0.0876779  0.0481238  
  0.236696   0.251678   0.160124  
  0.228543  -0.230383 -0.0584786  
  0.248543 -0.0663829  0.0535214  
  0.268543  0.0976171   0.165521  
  0.288543   0.261617   0.277521  
 -0.111327  -0.256313  -0.278168  
-0.0913275 -0.0923134  -0.166168  
-0.0713275  0.0716866 -0.0541684  
-0.0513275   0.235687  0.0578316  
 -0.287139  -0.252203  -0.146142  
 -0.267139 -0.0882034 -0.0341421  
 -0.247139  0.0757966  0.0778579  
 -0.227139   0.239797   0.189858  
  0.229225  -0.239256  -0.183162  
  0.249225  -0.075256 -0.0711619  
  0.269225   0.088744  0.0408381  
  0.289225   0.252744   0.152838  
  0.019273  -0.236125 -0.0504168  
  0.039273 -0.0721253  0.0615832  
  0.059273  0.0918747   0.173583  
  0.079273   0.255875   0.285583  
 0.0412221  -0.232947 -0.0151444  
 0.0612221 -0.0689468  0.0968556  
 0.0812221  0.0950532   0.208856  
  0.101222   0.259053   0.320856  
 -0.242533  -0.245165 -0.0663435  
 -0.222533 -0.0811648  0.0456565  
 -0.202533  0.0828352   0.157656  
 -0.182533   0.246835   0.269656  
  0.115877  -0.251137  -0.301748  
  0.135877 -0.0871365  -0.189748  
  0.155877  0.0768635 -0.0777481  
  0.175877   0.240863  0.0342519  
 -0.114368  -0.259687  -0.324173  
-0.0943682 -0.0956867  -0.212173  
-0.0743682  0.0683133  -0.100173  
-0.0543682   0.232313   0.011827  
-0.0380087   -0.33862  -0.373733  
 0.0474855  -0.335294  -0.363285  
 0.0666806  -0.330547  -0.304857  
 -0.031869   -0.33477  -0.322354  
 0.0147384  -0.254957  -0.312509  
-0.0249389  -0.254695  -0.292044  
  0.067083  -0.250921  -0.278071  
 0.0274058  -0.250659  -0.257606  
0.00473838  -0.336957  -0.368509  
-0.0349389  -0.336695  -0.348044  
  0.057083  -0.332921  -0.334071  
 0.0174058  -0.332659  -0.313606  
 0.0210721  -0.252808  -0.285057  
 0.0110721  -0.334808  -0.341057  
-0.0180087   -0.17462  -0.261733  
 0.0674855  -0.171294  -0.251285  
 0.0866806  -0.166547  -0.192857  
 -0.011869   -0.17077  -0.210354  
 0.0347384 -0.0909573  -0.200509  
-0.00493889 -0.0906953  -0.180044  
  0.087083 -0.0869206  -0.166071  
 0.0474058 -0.0866586  -0.145606  
 0.0247384  -0.172957  -0.256509  
-0.0149389  -0.172695  -0.236044  
  0.077083  -0.168921  -0.222071  
 0.0374058  -0.168659  -0.201606  
 0.0410721 -0.0888079  -0.173057  
 0.0310721  -0.170808  -0.229057  
0.00199126 -0.0106204  -0.149733  
 0.0874855 -0.0072942  -0.139285  
  0.106681 -0.00254706  -0.080857  
0.00813096 -0.00677014 -0.0983542  
 0.0547384  0.0730427 -0.0885092  
 0.0150611  0.0733047 -0.0680437  
  0.107083  0.0770794 -0.0540711  
 0.0674058  0.0773414 -0.0336056  
 0.0447384 -0.00895728  -0.144509  
0.00506111 -0.00869525  -0.124044  
  0.097083 -0.00492063  -0.110071  
 0.0574058 -0.0046586 -0.0896056  
 0.0610721  0.0751921 -0.0610574  
 0.0510721 -0.00680794  -0.117057  
 0.0219913    0.15338 -0.0377332  
  0.107486   0.156706 -0.0272852  
  0.126681   0.161453   0.031143  
  0.028131    0.15723  0.0136458  
 0.0747384   0.237043  0.0234908  
 0.0350611   0.237305  0.0439563  
  0.127083   0.241079  0.0579289  
 0.0874058   0.241341  0.0783944  
 0.0647384   0.155043 -0.0325092  
 0.0250611   0.155305 -0.0120437  
  0.117083   0.159079 0.00192886  
 0.0774058   0.159341  0.0223944  
 0.0810721   0.239192  0.0509426  
 0.0710721   0.157192 -0.00505741  
 0.0419913    0.31738  0.0742668  
  0.127486   0.320706  0.0847148  
  0.146681   0.325453   0.143143  
  0.048131    0.32123   0.125646  
 0.0847384   0.319043  0.0794908  
 0.0450611   0.319305  0.0999563  
  0.137083   0.323079   0.113929  
 0.0974058   0.323341   0.134394  
 0.0910721   0.321192   0.106943  
-0.0352544   -0.25881  -0.345367  
 0.0536461  -0.255274  -0.333415  
-0.0452544   -0.34081  -0.401367  
 0.0436461  -0.337274  -0.389415  
0.00934106  -0.257099  -0.340246  
-0.000658939  -0.339099  -0.396246  
-0.0152544 -0.0948102  -0.233367  
 0.0736461 -0.0912739  -0.221415  
-0.0252544   -0.17681  -0.289367  
 0.0636461  -0.173274  -0.277415  
 0.0293411 -0.0930987  -0.228246  
 0.0193411  -0.175099  -0.284246  
0.00474563  0.0691898  -0.121367  
 0.0936461  0.0727261  -0.109415  
-0.00525437 -0.0128102  -0.177367  
 0.0836461 -0.00927393  -0.165415  
 0.0493411  0.0709013  -0.116246  
 0.0393411 -0.0110987  -0.172246  
 0.0247456    0.23319 -0.0093666  
  0.113646   0.236726 0.00258522  
 0.0147456    0.15119 -0.0653666  
  0.103646   0.154726 -0.0534148  
 0.0693411   0.234901 -0.00424613  
 0.0593411   0.152901 -0.0602461  
 0.0347456    0.31519  0.0466334  
  0.123646   0.318726  0.0585852  
 0.0793411   0.316901  0.0517539  
 -0.043043  -0.317301 -0.0727154  
 -0.123722  -0.320848 -0.0882957  
 -0.117641  -0.324064  -0.135957  
-0.0467115   -0.32064  -0.117975  
-0.0733826  -0.237074 -0.0245055  
-0.0348773   -0.23697 -0.0393449  
 -0.110681  -0.240456 -0.0561263  
-0.0721761  -0.240352 -0.0709657  
-0.0833826  -0.319074 -0.0805055  
-0.0448773   -0.31897 -0.0953449  
 -0.120681  -0.322456  -0.112126  
-0.0821761  -0.322352  -0.126966  
-0.0727793  -0.238713 -0.0477356  
-0.0827793  -0.320713  -0.103736  
 -0.023043  -0.153301  0.0392846  
 -0.103722  -0.156848  0.0237043  
-0.0976407  -0.160064 -0.0239569  
-0.0267115   -0.15664 -0.00597453  
-0.0533826 -0.0730742  0.0874945  
-0.0148773 -0.0729703  0.0726551  
-0.0906814 -0.0764557  0.0558737  
-0.0521761 -0.0763518  0.0410343  
-0.0633826  -0.155074  0.0314945  
-0.0248773   -0.15497  0.0166551  
 -0.100681  -0.158456 -0.00012631  
-0.0621761  -0.158352 -0.0149657  
-0.0527793  -0.074713  0.0642644  
-0.0627793  -0.156713 0.00826437  
-0.00304302  0.0106993   0.151285  
-0.0837221 0.00715238   0.135704  
-0.0776407 0.00393629  0.0880431  
-0.00671152 0.00736019   0.106025  
-0.0333826  0.0909258   0.199494  
0.00512273  0.0910297   0.184655  
-0.0706814  0.0875443   0.167874  
-0.0321761  0.0876482   0.153034  
-0.0433826 0.00892583   0.143494  
-0.00487727 0.00902973   0.128655  
-0.0806814 0.00554434   0.111874  
-0.0421761 0.00564824  0.0970343  
-0.0327793   0.089287   0.176264  
-0.0427793 0.00728703   0.120264  
  0.016957   0.174699   0.263285  
-0.0637221   0.171152   0.247704  
-0.0576407   0.167936   0.200043  
 0.0132885    0.17136   0.218025  
-0.0133826   0.254926   0.311494  
 0.0251227    0.25503   0.296655  
-0.0506814   0.251544   0.279874  
-0.0121761   0.251648   0.265034  
-0.0233826   0.172926   0.255494  
 0.0151227    0.17303   0.240655  
-0.0606814   0.169544   0.223874  
-0.0221761   0.169648   0.209034  
-0.0127793   0.253287   0.288264  
-0.0227793   0.171287   0.232264  
  0.036957   0.338699   0.375285  
-0.0437221   0.335152   0.359704  
-0.0376407   0.331936   0.312043  
 0.0332885    0.33536   0.330025  
-0.00338258   0.336926   0.367494  
 0.0351227    0.33703   0.352655  
-0.0406814   0.333544   0.335874  
-0.00217611   0.333648   0.321034  
-0.00277934   0.335287   0.344264  
 0.0969001  -0.313608 -0.0801699  
 0.0557912  -0.318697  -0.134115  
  0.143377  -0.316487  -0.140199  
  0.162325  -0.312866 -0.0974536  
 0.0863457  -0.234152 -0.0511425  
  0.139613  -0.231237 -0.0328118  
  0.109584  -0.235592 -0.0811571  
  0.162851  -0.232676 -0.0628264  
 0.0763457  -0.316152  -0.107142  
  0.129613  -0.313237 -0.0888118  
 0.0995841  -0.317592  -0.137157  
  0.152851  -0.314676  -0.118826  
  0.124598  -0.233414 -0.0569845  
  0.114598  -0.315414  -0.112984  
    0.1169  -0.149608  0.0318301  
 0.0757912  -0.154697  -0.022115  
  0.163377  -0.152487 -0.0281992  
  0.182325  -0.148866  0.0145464  
  0.106346 -0.0701523  0.0608575  
  0.159613 -0.0672368  0.0791882  
  0.129584 -0.0715917  0.0308429  
  0.182851 -0.0686762  0.0491736  
 0.0963457  -0.152152  0.0048575  
  0.149613  -0.149237  0.0231882  
  0.119584  -0.153592 -0.0251571  
  0.172851  -0.150676 -0.00682643  
  0.144598 -0.0694142  0.0550155  
  0.134598  -0.151414 -0.000984463  
    0.1369  0.0143921    0.14383  
 0.0957912 0.00930324   0.089885  
  0.183377  0.0115133  0.0838008  
  0.202325  0.0151343   0.126546  
  0.126346  0.0938477   0.172858  
  0.179613  0.0967632   0.191188  
  0.149584  0.0924083   0.142843  
  0.202851  0.0953238   0.161174  
  0.116346  0.0118477   0.116858  
  0.169613  0.0147632   0.135188  
  0.139584  0.0104083  0.0868429  
  0.192851  0.0133238   0.105174  
  0.164598  0.0945858   0.167016  
  0.154598  0.0125858   0.111016  
    0.1569   0.178392    0.25583  
  0.115791   0.173303   0.201885  
  0.203377   0.175513   0.195801  
  0.222325   0.179134   0.238546  
  0.146346   0.257848   0.284858  
  0.199613   0.260763   0.303188  
  0.169584   0.256408   0.254843  
  0.222851   0.259324   0.273174  
  0.136346   0.175848   0.228858  
  0.189613   0.178763   0.247188  
  0.159584   0.174408   0.198843  
  0.212851   0.177324   0.217174  
  0.184598   0.258586   0.279016  
  0.174598   0.176586   0.223016  
    0.1769   0.342392    0.36783  
  0.135791   0.337303   0.313885  
  0.223377   0.339513   0.307801  
  0.242325   0.343134   0.350546  
  0.156346   0.339848   0.340858  
  0.209613   0.342763   0.359188  
  0.179584   0.338408   0.310843  
  0.232851   0.341324   0.329174  
  0.194598   0.340586   0.335016  
 -0.185376  -0.343769   -0.38355  
  -0.22016  -0.342282  -0.347971  
 -0.250011  -0.262863  -0.311303  
  -0.19685  -0.263505  -0.342793  
 -0.192768  -0.261025   -0.30976  
 -0.260011  -0.344863  -0.367303  
  -0.20685  -0.345505  -0.398793  
 -0.202768  -0.343025   -0.36576  
 -0.224398  -0.263268  -0.327808  
 -0.234398  -0.345268  -0.383808  
 -0.165376  -0.179769   -0.27155  
  -0.20016  -0.178282  -0.235971  
 -0.230011 -0.0988635  -0.199303  
  -0.17685 -0.0995048  -0.230793  
 -0.172768 -0.0970254   -0.19776  
 -0.240011  -0.180863  -0.255303  
  -0.18685  -0.181505  -0.286793  
 -0.182768  -0.179025   -0.25376  
 -0.204398 -0.0992676  -0.215808  
 -0.214398  -0.181268  -0.271808  
 -0.145376 -0.0157693   -0.15955  
  -0.18016 -0.0142815  -0.123971  
 -0.210011  0.0651365 -0.0873026  
  -0.15685  0.0644952  -0.118793  
 -0.152768  0.0669746 -0.0857603  
 -0.220011 -0.0168635  -0.143303  
  -0.16685 -0.0175048  -0.174793  
 -0.162768 -0.0150254   -0.14176  
 -0.184398  0.0647324  -0.103808  
 -0.194398 -0.0172676  -0.159808  
 -0.125376   0.148231 -0.0475499  
  -0.16016   0.149718 -0.0119707  
 -0.190011   0.229137  0.0246974  
  -0.13685   0.228495 -0.00679253  
 -0.132768   0.230975  0.0262397  
 -0.200011   0.147137 -0.0313026  
  -0.14685   0.146495 -0.0627925  
 -0.142768   0.148975 -0.0297603  
 -0.164398   0.228732 0.00819162  
 -0.174398   0.146732 -0.0478084  
 -0.105376   0.312231  0.0644501  
  -0.14016   0.313718   0.100029  
 -0.180011   0.311137  0.0806974  
  -0.12685   0.310495  0.0492075  
 -0.122768   0.312975  0.0822397  
 -0.154398   0.310732  0.0641916  
  0.190805  -0.325131  -0.281462  
  0.143811  -0.329598  -0.324189  
  0.177308  -0.245364  -0.246825  
  0.235997  -0.242903  -0.237156  
  0.182998  -0.247683  -0.281734  
  0.167308  -0.327364  -0.302825  
  0.225997  -0.324903  -0.293156  
  0.172998  -0.329683  -0.337734  
   0.21067  -0.245289  -0.259894  
   0.20067  -0.327289  -0.315894  
  0.210805  -0.161131  -0.169462  
  0.163811  -0.165598  -0.212189  
  0.197308 -0.0813644  -0.134825  
  0.255997 -0.0789029  -0.125156  
  0.202998 -0.0836827  -0.169734  
  0.187308  -0.163364  -0.190825  
  0.245997  -0.160903  -0.181156  
  0.192998  -0.165683  -0.225734  
   0.23067 -0.0812894  -0.147894  
   0.22067  -0.163289  -0.203894  
  0.230805  0.0028688 -0.0574618  
  0.183811 -0.00159756  -0.100189  
  0.217308  0.0826356 -0.0228252  
  0.275997  0.0850971 -0.0131556  
  0.222998  0.0803173 -0.0577339  
  0.207308 0.000635621 -0.0788252  
  0.265997 0.00309706 -0.0691556  
  0.212998 -0.00168266  -0.113734  
   0.25067  0.0827106 -0.0358937  
   0.24067 0.000710558 -0.0918937  
  0.250805   0.166869  0.0545382  
  0.203811   0.162402  0.0118114  
  0.237308   0.246636  0.0891748  
  0.295997   0.249097  0.0988444  
  0.242998   0.244317  0.0542661  
  0.227308   0.164636  0.0331748  
  0.285997   0.167097  0.0428444  
  0.232998   0.162317 -0.00173389  
   0.27067   0.246711  0.0761063  
   0.26067   0.164711  0.0201063  
  0.270805   0.330869   0.166538  
  0.223811   0.326402   0.123811  
  0.247308   0.328636   0.145175  
  0.305997   0.331097   0.154844  
  0.252998   0.326317   0.110266  
   0.28067   0.328711   0.132106  
-0.0252715   -0.23315  0.0101423  
 -0.111764  -0.236797 -0.00437568  
-0.0352715   -0.31515 -0.0458577  
 -0.121764  -0.318797 -0.0603757  
-0.0686632  -0.234917 0.00373876  
-0.0786632  -0.316917 -0.0522612  
-0.00527151 -0.0691504   0.122142  
-0.0917644  -0.072797   0.107624  
-0.0152715   -0.15115  0.0661423  
 -0.101764  -0.154797  0.0516243  
-0.0486632  -0.070917   0.115739  
-0.0586632  -0.152917  0.0597388  
 0.0147285  0.0948496   0.234142  
-0.0717644   0.091203   0.219624  
0.00472849  0.0128496   0.178142  
-0.0817644 0.00920302   0.163624  
-0.0286632   0.093083   0.227739  
-0.0386632   0.011083   0.171739  
 0.0347285    0.25885   0.346142  
-0.0517644   0.255203   0.331624  
 0.0247285    0.17685   0.290142  
-0.0617644   0.173203   0.275624  
-0.00866316   0.257083   0.339739  
-0.0186632   0.175083   0.283739  
 0.0447285    0.34085   0.402142  
-0.0417644   0.337203   0.387624  
0.00133684   0.339083   0.395739  
  0.220613  -0.314607  -0.146536  
  0.227277  -0.317729  -0.193126  
  0.281139  -0.234615  -0.140063  
  0.273376  -0.231325 -0.0906648  
  0.233945  -0.234168  -0.113831  
  0.271139  -0.316615  -0.196063  
  0.263376  -0.313325  -0.146665  
  0.223945  -0.316168  -0.169831  
   0.27877  -0.232909  -0.115143  
   0.26877  -0.314909  -0.171143  
  0.240613  -0.150607 -0.0345357  
  0.247277  -0.153729 -0.0811258  
  0.301139 -0.0706146 -0.0280629  
  0.293376 -0.0673254  0.0213352  
  0.253945 -0.0701681 -0.00183075  
  0.291139  -0.152615 -0.0840629  
  0.283376  -0.149325 -0.0346648  
  0.243945  -0.152168 -0.0578307  
   0.29877 -0.0689086 -0.00314338  
   0.28877  -0.150909 -0.0591434  
  0.260613  0.0133929  0.0774643  
  0.267277  0.0102708  0.0308742  
  0.321139  0.0933854  0.0839371  
  0.313376  0.0966746   0.133335  
  0.273945  0.0938319   0.110169  
  0.311139  0.0113854  0.0279371  
  0.303376  0.0146746  0.0773352  
  0.263945  0.0118319  0.0541693  
   0.31877  0.0950914   0.108857  
   0.30877  0.0130914  0.0528566  
  0.280613   0.177393   0.189464  
  0.287277   0.174271   0.142874  
  0.341139   0.257385   0.195937  
  0.333376   0.260675   0.245335  
  0.293945   0.257832   0.222169  
  0.331139   0.175385   0.139937  
  0.323376   0.178675   0.189335  
  0.283945   0.175832   0.166169  
   0.33877   0.259091   0.220857  
   0.32877   0.177091   0.164857  
  0.300613   0.341393   0.301464  
  0.307277   0.338271   0.254874  
  0.351139   0.339385   0.251937  
  0.343376   0.342675   0.301335  
  0.303945   0.339832   0.278169  
   0.34877   0.341091   0.276857  
 0.0250482  -0.324987  -0.209284  
 0.0701214   -0.32149  -0.179346  
-0.0388278  -0.324252  -0.171946  
 0.0575848  -0.241239  -0.138315  
0.00311018  -0.242619  -0.134615  
 0.0729563  -0.238094  -0.100731  
 0.0184817  -0.239474 -0.0970308  
 0.0475848  -0.323239  -0.194315  
-0.00688982  -0.324619  -0.190615  
 0.0629563  -0.320094  -0.156731  
0.00848166  -0.321474  -0.153031  
 0.0380332  -0.240356  -0.117673  
 0.0280332  -0.322356  -0.173673  
 0.0450482  -0.160987 -0.0972836  
 0.0901214   -0.15749 -0.0673462  
-0.0188278  -0.160252 -0.0599465  
 0.0775848 -0.0772385 -0.0263149  
 0.0231102 -0.0786191  -0.022615  
 0.0929563 -0.0740936  0.0112694  
 0.0384817 -0.0754742  0.0149692  
 0.0675848  -0.159239 -0.0823149  
 0.0131102  -0.160619  -0.078615  
 0.0829563  -0.156094 -0.0447306  
 0.0284817  -0.157474 -0.0410308  
 0.0580332 -0.0763564 -0.00567281  
 0.0480332  -0.158356 -0.0616728  
 0.0650482  0.0030134  0.0147164  
  0.110121 0.00650951  0.0446538  
0.00117217 0.00374836  0.0520535  
 0.0975848  0.0867615  0.0856851  
 0.0431102  0.0853809   0.089385  
  0.112956  0.0899064   0.123269  
 0.0584817  0.0885258   0.126969  
 0.0875848 0.00476145  0.0296851  
 0.0331102 0.00338088   0.033385  
  0.102956 0.00790637  0.0672694  
 0.0484817  0.0065258  0.0709692  
 0.0780332  0.0876436   0.106327  
 0.0680332 0.00564363  0.0503272  
 0.0850482   0.167013   0.126716  
  0.130121    0.17051   0.156654  
 0.0211722   0.167748   0.164054  
  0.117585   0.250761   0.197685  
 0.0631102   0.249381   0.201385  
  0.132956   0.253906   0.235269  
 0.0784817   0.252526   0.238969  
  0.107585   0.168761   0.141685  
 0.0531102   0.167381   0.145385  
  0.122956   0.171906   0.179269  
 0.0684817   0.170526   0.182969  
 0.0980332   0.251644   0.218327  
 0.0880332   0.169644   0.162327  
  0.105048   0.331013   0.238716  
  0.150121    0.33451   0.268654  
 0.0411722   0.331748   0.276054  
  0.127585   0.332761   0.253685  
 0.0731102   0.331381   0.257385  
  0.142956   0.335906   0.291269  
 0.0884817   0.334526   0.294969  
  0.108033   0.333644   0.274327  
 -0.198636  -0.324561  -0.108649  
 -0.151179  -0.240704 -0.0424721  
 -0.192655   -0.24091 -0.0278067  
 -0.161179  -0.322704 -0.0984721  
 -0.202655   -0.32291 -0.0838067  
 -0.152741  -0.238815  -0.015322  
 -0.162741  -0.320815  -0.071322  
 -0.178636  -0.160561  0.0033514  
 -0.131179 -0.0767042  0.0695279  
 -0.172655 -0.0769102  0.0841933  
 -0.141179  -0.158704  0.0135279  
 -0.182655   -0.15891  0.0281933  
 -0.132741 -0.0748148   0.096678  
 -0.142741  -0.156815   0.040678  
 -0.158636 0.00343912   0.115351  
 -0.111179  0.0872958   0.181528  
 -0.152655  0.0870898   0.196193  
 -0.121179 0.00529575   0.125528  
 -0.162655 0.00508975   0.140193  
 -0.112741  0.0891852   0.208678  
 -0.122741  0.0071852   0.152678  
 -0.138636   0.167439   0.227351  
-0.0911789   0.251296   0.293528  
 -0.132655    0.25109   0.308193  
 -0.101179   0.169296   0.237528  
 -0.142655    0.16909   0.252193  
-0.0927415   0.253185   0.320678  
 -0.102741   0.171185   0.264678  
 -0.118636   0.331439   0.339351  
-0.0811789   0.333296   0.349528  
 -0.122655    0.33309   0.364193  
-0.0827415   0.335185   0.376678  
 0.0802902  -0.325212  -0.235822  
-0.0345105  -0.330599  -0.262755  
 0.0405115  -0.328609  -0.266615  
 0.0626692  -0.243099  -0.166553  
 0.0704008  -0.244911  -0.195218  
0.00526886  -0.245793  -0.180019  
 0.0130005  -0.247604  -0.208685  
 0.0526692  -0.325099  -0.222553  
 0.0604008  -0.326911  -0.251218  
-0.00473114  -0.327793  -0.236019  
0.00300049  -0.329604  -0.264685  
 0.0378348  -0.245352  -0.187619  
 0.0278348  -0.327352  -0.243619  
   0.10029  -0.161212  -0.123822  
-0.0145105  -0.166599  -0.150755  
 0.0605115  -0.164609  -0.154615  
 0.0826692 -0.0790993 -0.0545527  
 0.0904008 -0.0809106 -0.0832183  
 0.0252689 -0.0817926 -0.0680192  
 0.0330005 -0.0836039 -0.0966848  
 0.0726692  -0.161099  -0.110553  
 0.0804008  -0.162911  -0.139218  
 0.0152689  -0.163793  -0.124019  
 0.0230005  -0.165604  -0.152685  
 0.0578348 -0.0813516 -0.0756188  
 0.0478348  -0.163352  -0.131619  
   0.12029 0.00278807 -0.0118219  
0.00548952 -0.00259867 -0.0387549  
 0.0805115 -0.000609227 -0.0426147  
  0.102669  0.0849007  0.0574473  
  0.110401  0.0830894  0.0287817  
 0.0452689  0.0822074  0.0439808  
 0.0530005  0.0803961  0.0153152  
 0.0926692 0.00290073 0.00144725  
  0.100401 0.00108942 -0.0272183  
 0.0352689 0.000207367 -0.0120192  
 0.0430005 -0.00160395 -0.0406848  
 0.0778348  0.0826484  0.0363812  
 0.0678348 0.000648393 -0.0196188  
   0.14029   0.166788   0.100178  
 0.0254895   0.161401  0.0732451  
  0.100511   0.163391  0.0693853  
  0.122669   0.248901   0.169447  
  0.130401   0.247089   0.140782  
 0.0652689   0.246207   0.155981  
 0.0730005   0.244396   0.127315  
  0.112669   0.166901   0.113447  
  0.120401   0.165089  0.0847817  
 0.0552689   0.164207  0.0999808  
 0.0630005   0.162396  0.0713152  
 0.0978348   0.246648   0.148381  
 0.0878348   0.164648  0.0923812  
   0.16029   0.330788   0.212178  
 0.0454895   0.325401   0.185245  
  0.120511   0.327391   0.181385  
  0.132669   0.330901   0.225447  
  0.140401   0.329089   0.196782  
 0.0752689   0.328207   0.211981  
 0.0830005   0.326396   0.183315  
  0.107835   0.328648   0.204381  
-0.0958505  -0.329716  -0.224421  
-0.0573392  -0.244984  -0.142184  
-0.0551805  -0.248157  -0.187588  
-0.0673392  -0.326984  -0.198184  
-0.0651805  -0.330157  -0.243588  
-0.0260352  -0.245388  -0.161101  
-0.0360352  -0.327388  -0.217101  
-0.0758505  -0.165716  -0.112421  
-0.0373392 -0.0809838 -0.0301838  
-0.0351805 -0.0841574  -0.075588  
-0.0473392  -0.162984 -0.0861838  
-0.0451805  -0.166157  -0.131588  
-0.00603516 -0.0813882 -0.0491015  
-0.0160352  -0.163388  -0.105101  
-0.0558505 -0.00171605 -0.000421098  
-0.0173392  0.0830162  0.0818162  
-0.0151805  0.0798426   0.036412  
-0.0273392 0.00101616  0.0258162  
-0.0251805 -0.00215736  -0.019588  
 0.0139648  0.0826118  0.0628985  
0.00396484 0.000611761  0.0068985  
-0.0358505   0.162284   0.111579  
0.00266083   0.247016   0.193816  
 0.0048195   0.243843   0.148412  
-0.00733917   0.165016   0.137816  
-0.0051805   0.161843   0.092412  
 0.0339648   0.246612   0.174899  
 0.0239648   0.164612   0.118899  
-0.0158505   0.326284   0.223579  
 0.0126608   0.329016   0.249816  
 0.0148195   0.325843   0.204412  
 0.0439648   0.328612   0.230899  
 -0.108544  -0.326149  -0.169045  
   -0.1497  -0.329501  -0.198614  
 -0.063686    -0.2432  -0.114496  
 -0.119122  -0.245825   -0.12783  
 -0.112775  -0.247608  -0.155518  
 -0.073686    -0.3252  -0.170496  
 -0.129122  -0.327825   -0.18383  
 -0.122775  -0.329608  -0.211518  
-0.0882306  -0.245404  -0.135007  
-0.0982306  -0.327404  -0.191007  
-0.0885441  -0.162149 -0.0570449  
   -0.1297  -0.165501 -0.0866142  
 -0.043686 -0.0792005 -0.0024957  
 -0.099122 -0.0818251 -0.0158296  
-0.0927753 -0.0836085 -0.0435177  
 -0.053686    -0.1612 -0.0584957  
 -0.109122  -0.163825 -0.0718296  
 -0.102775  -0.165608 -0.0995177  
-0.0682306 -0.0814045 -0.0230067  
-0.0782306  -0.163404 -0.0790067  
-0.0685441 0.00185073  0.0549551  
   -0.1097 -0.00150086  0.0253858  
 -0.023686  0.0847995   0.109504  
 -0.079122  0.0821749  0.0961704  
-0.0727753  0.0803915  0.0684823  
 -0.033686 0.00279955  0.0535043  
 -0.089122 0.000174937  0.0401704  
-0.0827753 -0.00160846  0.0124823  
-0.0482306  0.0825955  0.0889933  
-0.0582306 0.000595546  0.0329933  
-0.0485441   0.165851   0.166955  
   -0.0897   0.162499   0.137386  
-0.00368596     0.2488   0.221504  
 -0.059122   0.246175    0.20817  
-0.0527753   0.244392   0.180482  
 -0.013686     0.1668   0.165504  
 -0.069122   0.164175    0.15217  
-0.0627753   0.162392   0.124482  
-0.0282306   0.246596   0.200993  
-0.0382306   0.164596   0.144993  
-0.0285441   0.329851   0.278955  
   -0.0697   0.326499   0.249386  
0.00631404     0.3308   0.277504  
 -0.049122   0.328175    0.26417  
-0.0427753   0.326392   0.236482  
-0.0182306   0.328596   0.256993  
 -0.129644  -0.335258  -0.287816  
 -0.140945  -0.333187  -0.253999  
-0.0720774  -0.250928  -0.219285  
 -0.125295  -0.252223  -0.214907  
 -0.108398  -0.249452   -0.18321  
-0.0820774  -0.332928  -0.275285  
 -0.135295  -0.334223  -0.270907  
 -0.118398  -0.331452   -0.23921  
-0.0902376   -0.25019  -0.201248  
 -0.100238   -0.33219  -0.257248  
 -0.109644  -0.171258  -0.175816  
 -0.120945  -0.169187  -0.141999  
-0.0520774 -0.0869284  -0.107285  
 -0.105295 -0.0882227  -0.102907  
-0.0883978 -0.0854516 -0.0712099  
-0.0620774  -0.168928  -0.163285  
 -0.115295  -0.170223  -0.158907  
-0.0983978  -0.167452   -0.12721  
-0.0702376   -0.08619 -0.0892476  
-0.0802376   -0.16819  -0.145248  
-0.0896443 -0.00725817 -0.0638159  
 -0.100945 -0.00518714 -0.0299987  
-0.0320774  0.0770716 0.00471462  
-0.0852947  0.0757773 0.00909272  
-0.0683978  0.0785484  0.0407901  
-0.0420774 -0.00492842 -0.0512854  
-0.0952947 -0.00622265 -0.0469073  
-0.0783978 -0.0034516 -0.0152099  
-0.0502376    0.07781  0.0227524  
-0.0602376 -0.00419001 -0.0332476  
-0.0696443   0.156742  0.0481841  
 -0.080945   0.158813  0.0820013  
-0.0120774   0.241072   0.116715  
-0.0652947   0.239777   0.121093  
-0.0483978   0.242548    0.15279  
-0.0220774   0.159072  0.0607146  
-0.0752947   0.157777  0.0650927  
-0.0583978   0.160548  0.0967901  
-0.0302376    0.24181   0.134752  
-0.0402376    0.15981  0.0787524  
-0.0496443   0.320742   0.160184  
 -0.060945   0.322813   0.194001  
-0.00207738   0.323072   0.172715  
-0.0552947   0.321777   0.177093  
-0.0383978   0.324548    0.20879  
-0.0202376    0.32381   0.190752  
 -0.210567   -0.33444  -0.242104  
 -0.170133  -0.249971  -0.164359  
 -0.165756  -0.251814  -0.192051  
 -0.180133  -0.331971  -0.220359  
 -0.175756  -0.333814  -0.248051  
 -0.139266  -0.249711  -0.173784  
 -0.149266  -0.331711  -0.229784  
 -0.190567   -0.17044  -0.130104  
 -0.150133 -0.0859706  -0.052359  
 -0.145756 -0.0878138 -0.0800512  
 -0.160133  -0.167971  -0.108359  
 -0.155756  -0.169814  -0.136051  
 -0.119266 -0.0857111 -0.0617844  
 -0.129266  -0.167711  -0.117784  
 -0.170567 -0.00644042 -0.0181038  
 -0.130133  0.0780294   0.059641  
 -0.125756  0.0761862  0.0319488  
 -0.140133 -0.00397064   0.003641  
 -0.135756 -0.00581378 -0.0240512  
-0.0992656  0.0782889  0.0502156  
 -0.109266 -0.00371112 -0.00578445  
 -0.150567    0.15756  0.0938962  
 -0.110133   0.242029   0.171641  
 -0.105756   0.240186   0.143949  
 -0.120133   0.160029   0.115641  
 -0.115756   0.158186  0.0879488  
-0.0792656   0.242289   0.162216  
-0.0892656   0.160289   0.106216  
 -0.130567    0.32156   0.205896  
 -0.100133   0.324029   0.227641  
 -0.095756   0.322186   0.199949  
-0.0692656   0.324289   0.218216  
 -0.213269  -0.338423  -0.296799  
 -0.161457  -0.254841  -0.236307  
 -0.201918  -0.254432  -0.213451  
 -0.171457  -0.336841  -0.292307  
 -0.211918  -0.336432  -0.269451  
 -0.163606  -0.253327  -0.214179  
 -0.173606  -0.335327  -0.270179  
 -0.193269  -0.174423  -0.184799  
 -0.141457 -0.0908408  -0.124307  
 -0.181918 -0.0904319  -0.101451  
 -0.151457  -0.172841  -0.180307  
 -0.191918  -0.172432  -0.157451  
 -0.143606 -0.0893273  -0.102179  
 -0.153606  -0.171327  -0.158179  
 -0.173269 -0.0104234 -0.0727985  
 -0.121457  0.0731592 -0.0123072  
 -0.161918  0.0735681  0.0105488  
 -0.131457 -0.00884077 -0.0683072  
 -0.171918 -0.00843189 -0.0454512  
 -0.123606  0.0746727 0.00982079  
 -0.133606 -0.00732727 -0.0461792  
 -0.153269   0.153577  0.0392015  
 -0.101457   0.237159  0.0996928  
 -0.141918   0.237568   0.122549  
 -0.111457   0.155159  0.0436928  
 -0.151918   0.155568  0.0665488  
 -0.103606   0.238673   0.121821  
 -0.113606   0.156673  0.0658208  
 -0.133269   0.317577   0.151201  
-0.0914566   0.319159   0.155693  
 -0.131918   0.319568   0.178549  
-0.0936063   0.320673   0.177821  
 -0.121327  -0.338313  -0.334168  
 -0.115486  -0.254786  -0.254992  
 -0.160744  -0.258297   -0.28507  
 -0.206714  -0.258352  -0.266385  
 -0.125486  -0.336786  -0.310992  
 -0.170744  -0.340297   -0.34107  
 -0.216714  -0.340352  -0.322385  
   -0.1611  -0.256569  -0.260688  
   -0.1711  -0.338569  -0.316688  
 -0.101327  -0.174313  -0.222168  
-0.0954859 -0.0907858  -0.142992  
 -0.140744 -0.0942975   -0.17307  
 -0.186714 -0.0943524  -0.154385  
 -0.105486  -0.172786  -0.198992  
 -0.150744  -0.176297   -0.22907  
 -0.196714  -0.176352  -0.210385  
   -0.1411 -0.0925691  -0.148688  
   -0.1511  -0.174569  -0.204688  
-0.0813275 -0.0103134  -0.110168  
-0.0754859  0.0732142 -0.0309922  
 -0.120744  0.0697025 -0.0610696  
 -0.166714  0.0696476 -0.0423846  
-0.0854859 -0.0087858 -0.0869922  
 -0.130744 -0.0122975   -0.11707  
 -0.176714 -0.0123524 -0.0983846  
   -0.1211  0.0714309 -0.0366884  
   -0.1311 -0.0105691 -0.0926884  
-0.0613275   0.153687 0.00183156  
-0.0554859   0.237214  0.0810078  
 -0.100744   0.233703  0.0509304  
 -0.146714   0.233648  0.0696154  
-0.0654859   0.155214  0.0250078  
 -0.110744   0.151703 -0.00506959  
 -0.156714   0.151648  0.0136154  
   -0.1011   0.235431  0.0753116  
   -0.1111   0.153431  0.0193116  
-0.0413275   0.317687   0.113832  
-0.0454859   0.319214   0.137008  
-0.0907438   0.315703    0.10693  
 -0.136714   0.315648   0.125615  
-0.0911002   0.317431   0.131312  
 -0.297373  -0.341043  -0.297926  
 -0.303769  -0.337818  -0.250006  
 -0.339385  -0.257159  -0.193503  
 -0.331756    -0.2605  -0.243566  
 -0.290571   -0.25743  -0.217966  
 -0.349385  -0.339159  -0.249503  
 -0.341756    -0.3425  -0.299566  
 -0.300571   -0.33943  -0.273966  
 -0.337083  -0.258891  -0.218755  
 -0.347083  -0.340891  -0.274755  
 -0.277373  -0.177043  -0.185926  
 -0.283769  -0.173818  -0.138006  
 -0.319385 -0.0931588 -0.0815029  
 -0.311756 -0.0964995  -0.131566  
 -0.270571 -0.0934302  -0.105966  
 -0.329385  -0.175159  -0.137503  
 -0.321756    -0.1785  -0.187566  
 -0.280571   -0.17543  -0.161966  
 -0.317083 -0.0948906  -0.106755  
 -0.327083  -0.176891  -0.162755  
 -0.257373 -0.0130427 -0.0739257  
 -0.263769 -0.00981767 -0.0260058  
 -0.299385  0.0708412  0.0304971  
 -0.291756  0.0675005 -0.0195659  
 -0.250571  0.0705698 0.00603426  
 -0.309385 -0.0111588 -0.0255029  
 -0.301756 -0.0144995 -0.0755659  
 -0.260571 -0.0114302 -0.0499657  
 -0.297083  0.0691094 0.00524513  
 -0.307083 -0.0128906 -0.0507549  
 -0.237373   0.150957  0.0380743  
 -0.243769   0.154182  0.0859942  
 -0.279385   0.234841   0.142497  
 -0.271756     0.2315  0.0924341  
 -0.230571    0.23457   0.118034  
 -0.289385   0.152841  0.0864971  
 -0.281756     0.1495  0.0364341  
 -0.240571    0.15257  0.0620343  
 -0.277083   0.233109   0.117245  
 -0.287083   0.151109  0.0612451  
 -0.217373   0.314957   0.150074  
 -0.223769   0.318182   0.197994  
 -0.269385   0.316841   0.198497  
 -0.261756     0.3135   0.148434  
 -0.220571    0.31657   0.174034  
 -0.267083   0.315109   0.173245  
-0.0231898  -0.250684  -0.236555  
  0.063596  -0.247578  -0.229736  
-0.0331898  -0.332684  -0.292555  
  0.053596  -0.329578  -0.285736  
 0.0202031  -0.249131  -0.233145  
 0.0102031  -0.331131  -0.289145  
-0.00318976 -0.0866844  -0.124555  
  0.083596 -0.0835781  -0.117736  
-0.0131898  -0.168684  -0.180555  
  0.073596  -0.165578  -0.173736  
 0.0402031 -0.0851313  -0.121145  
 0.0302031  -0.167131  -0.177145  
 0.0168102  0.0773156 -0.0125545  
  0.103596  0.0804219 -0.00573589  
0.00681024 -0.00468441 -0.0685545  
  0.093596 -0.00157814 -0.0617359  
 0.0602031  0.0788687 -0.0091452  
 0.0502031 -0.00313127 -0.0651452  
 0.0368102   0.241316  0.0994455  
  0.123596   0.244422   0.106264  
 0.0268102   0.159316  0.0434455  
  0.113596   0.162422  0.0502641  
 0.0802031   0.242869   0.102855  
 0.0702031   0.160869  0.0468548  
 0.0468102   0.323316   0.155445  
  0.133596   0.326422   0.162264  
 0.0902031   0.324869   0.158855  
-0.0327697  -0.240446 -0.0889605  
 -0.103092  -0.243106 -0.0965009  
-0.0427697  -0.322446   -0.14496  
 -0.113092  -0.325106  -0.152501  
 -0.067931  -0.241776 -0.0927307  
 -0.077931  -0.323776  -0.148731  
-0.0127697 -0.0764457  0.0230395  
-0.0830924 -0.0791065  0.0154991  
-0.0227697  -0.158446 -0.0329605  
-0.0930924  -0.161106 -0.0405009  
 -0.047931 -0.0777761  0.0192693  
 -0.057931  -0.159776 -0.0367307  
0.00723032  0.0875543    0.13504  
-0.0630924  0.0848935   0.127499  
-0.00276968 0.00555428  0.0790395  
-0.0730924 0.00289351  0.0714991  
 -0.027931  0.0862239   0.131269  
 -0.037931 0.00422389  0.0752693  
 0.0272303   0.251554    0.24704  
-0.0430924   0.248894   0.239499  
 0.0172303   0.169554    0.19104  
-0.0530924   0.166894   0.183499  
-0.00793103   0.250224   0.243269  
 -0.017931   0.168224   0.187269  
 0.0372303   0.333554    0.30304  
-0.0330924   0.330894   0.295499  
0.00206897   0.332224   0.299269  
  0.142395  -0.320197  -0.191805  
  0.116258  -0.238844  -0.129576  
  0.152886  -0.236342  -0.110002  
  0.106258  -0.320844  -0.185576  
  0.142886  -0.318342  -0.166002  
  0.112921  -0.237218  -0.105366  
  0.102921  -0.319218  -0.161366  
  0.162395  -0.156197 -0.0798054  
  0.136258 -0.0748439 -0.0175758  
  0.172886 -0.0723421 0.00199771  
  0.126258  -0.156844 -0.0735758  
  0.162886  -0.154342 -0.0540023  
  0.132921 -0.0732178 0.00663354  
  0.122921  -0.155218 -0.0493665  
  0.182395  0.0078026  0.0321946  
  0.156258  0.0891561  0.0944242  
  0.192886  0.0916579   0.113998  
  0.146258 0.00715605  0.0384242  
  0.182886 0.00965795  0.0579977  
  0.152921  0.0907822   0.118634  
  0.142921 0.00878216  0.0626335  
  0.202395   0.171803   0.144195  
  0.176258   0.253156   0.206424  
  0.212886   0.255658   0.225998  
  0.166258   0.171156   0.150424  
  0.202886   0.173658   0.169998  
  0.172921   0.254782   0.230634  
  0.162921   0.172782   0.174634  
  0.222395   0.335803   0.256195  
  0.186258   0.335156   0.262424  
  0.222886   0.337658   0.281998  
  0.182921   0.336782   0.286634  
  0.201093   -0.22871 -0.0234095  
  0.132613  -0.229184 -0.00106737  
  0.191093   -0.31071 -0.0794095  
  0.122613  -0.311184 -0.0570674  
   0.16782  -0.228863 -0.0114777  
   0.15782  -0.310863 -0.0674777  
  0.221093 -0.0647101  0.0885905  
  0.152613 -0.0651837   0.110933  
  0.211093   -0.14671  0.0325905  
  0.142613  -0.147184  0.0549326  
   0.18782 -0.0648635   0.100522  
   0.17782  -0.146863  0.0445223  
  0.241093  0.0992899    0.20059  
  0.172613  0.0988163   0.222933  
  0.231093  0.0172899    0.14459  
  0.162613  0.0168163   0.166933  
   0.20782  0.0991365   0.212522  
   0.19782  0.0171365   0.156522  
  0.261093    0.26329    0.31259  
  0.192613   0.262816   0.334933  
  0.251093    0.18129    0.25659  
  0.182613   0.180816   0.278933  
   0.22782   0.263137   0.324522  
   0.21782   0.181137   0.268522  
  0.271093    0.34529    0.36859  
  0.202613   0.344816   0.390933  
   0.23782   0.345137   0.380522  
  0.132044   -0.32537  -0.259945  
  0.171424  -0.243251  -0.214703  
  0.109362  -0.245959  -0.226401  
  0.115246  -0.248072  -0.258523  
  0.161424  -0.325251  -0.270703  
  0.099362  -0.327959  -0.282401  
  0.105246  -0.330072  -0.314523  
  0.143335  -0.245662  -0.236613  
  0.133335  -0.327662  -0.292613  
  0.152044   -0.16137  -0.147945  
  0.191424 -0.0792507  -0.102703  
  0.129362 -0.0819587  -0.114401  
  0.135246 -0.0840723  -0.146523  
  0.181424  -0.161251  -0.158703  
  0.119362  -0.163959  -0.170401  
  0.125246  -0.166072  -0.202523  
  0.163335 -0.0816615  -0.124613  
  0.153335  -0.163662  -0.180613  
  0.172044 0.00262973 -0.0359445  
  0.211424  0.0847493 0.00929682  
  0.149362  0.0820413 -0.00240078  
  0.155246  0.0799277 -0.0345228  
  0.201424 0.00274927 -0.0467032  
  0.139362 4.1338e-05 -0.0584008  
  0.145246 -0.00207231 -0.0905228  
  0.183335  0.0823385  -0.012613  
  0.173335 0.00033848  -0.068613  
  0.192044    0.16663  0.0760555  
  0.231424   0.248749   0.121297  
  0.169362   0.246041   0.109599  
  0.175246   0.243928  0.0774772  
  0.221424   0.166749  0.0652968  
  0.159362   0.164041  0.0535992  
  0.165246   0.161928  0.0214772  
  0.203335   0.246338   0.099387  
  0.193335   0.164338   0.043387  
  0.212044    0.33063   0.188055  
  0.241424   0.330749   0.177297  
  0.179362   0.328041   0.165599  
  0.185246   0.325928   0.133477  
  0.213335   0.328338   0.155387  
 -0.245321  -0.257733  -0.241362  
 -0.247168  -0.254129  -0.190055  
 -0.255321  -0.339733  -0.297362  
 -0.257168  -0.336129  -0.246055  
 -0.246244  -0.255931  -0.215708  
 -0.256244  -0.337931  -0.271708  
 -0.225321  -0.093733  -0.129362  
 -0.227168  -0.090129 -0.0780548  
 -0.235321  -0.175733  -0.185362  
 -0.237168  -0.172129  -0.134055  
 -0.226244  -0.091931  -0.103708  
 -0.236244  -0.173931  -0.159708  
 -0.205321   0.070267 -0.0173621  
 -0.207168   0.073871  0.0339452  
 -0.215321  -0.011733 -0.0733621  
 -0.217168 -0.00812905 -0.0220548  
 -0.206244   0.072069 0.00829155  
 -0.216244 -0.00993104 -0.0477084  
 -0.185321   0.234267  0.0946379  
 -0.187168   0.237871   0.145945  
 -0.195321   0.152267  0.0386379  
 -0.197168   0.155871  0.0899452  
 -0.186244   0.236069   0.120292  
 -0.196244   0.154069  0.0642916  
 -0.175321   0.316267   0.150638  
 -0.177168   0.319871   0.201945  
 -0.176244   0.318069   0.176292  
  0.121343  -0.240705  -0.157814  
  0.111343  -0.322705  -0.213814  
 0.0894638  -0.240972  -0.148064  
 0.0794638  -0.322972  -0.204064  
  0.141343 -0.0767047 -0.0458137  
  0.131343  -0.158705  -0.101814  
  0.109464 -0.0769716 -0.0360643  
 0.0994638  -0.158972 -0.0920643  
  0.161343  0.0872953  0.0661863  
  0.151343 0.00529533  0.0101863  
  0.129464  0.0870284  0.0759357  
  0.119464 0.00502839  0.0199357  
  0.181343   0.251295   0.178186  
  0.171343   0.169295   0.122186  
  0.149464   0.251028   0.187936  
  0.139464   0.169028   0.131936  
  0.191343   0.333295   0.234186  
  0.159464   0.333028   0.243936  
  0.116167  -0.243291  -0.191883  
  0.106167  -0.325291  -0.247883  
 0.0898814  -0.245435   -0.21081  
 0.0798814  -0.327435   -0.26681  
  0.136167 -0.0792911 -0.0798832  
  0.126167  -0.161291  -0.135883  
  0.109881 -0.0814346 -0.0988096  
 0.0998814  -0.163435   -0.15481  
  0.156167  0.0847089  0.0321168  
  0.146167  0.0027089 -0.0238832  
  0.129881  0.0825654  0.0131904  
  0.119881 0.000565379 -0.0428096  
  0.176167   0.248709   0.144117  
  0.166167   0.166709  0.0881168  
  0.149881   0.246565    0.12519  
  0.139881   0.164565  0.0691904  
  0.186167   0.330709   0.200117  
  0.159881   0.328565    0.18119  
  0.105877  -0.333137  -0.357748  
  0.134844  -0.249367  -0.284968  
  0.086681  -0.252215  -0.304517  
  0.124844  -0.331367  -0.340968  
  0.076681  -0.334215  -0.360517  
  0.100963  -0.250144   -0.28152  
 0.0909634  -0.332144   -0.33752  
  0.125877  -0.169137  -0.245748  
  0.154844  -0.085367  -0.172968  
  0.106681 -0.0882154  -0.192517  
  0.144844  -0.167367  -0.228968  
  0.096681  -0.170215  -0.248517  
  0.120963 -0.0861438   -0.16952  
  0.110963  -0.168144   -0.22552  
  0.145877 -0.00513653  -0.133748  
  0.174844   0.078633 -0.0609683  
  0.126681  0.0757846 -0.0805167  
  0.164844 -0.00336704  -0.116968  
  0.116681 -0.00621536  -0.136517  
  0.140963  0.0778562 -0.0575197  
  0.130963 -0.00414384   -0.11352  
  0.165877   0.158863 -0.0217481  
  0.194844   0.242633  0.0510317  
  0.146681   0.239785  0.0314833  
  0.184844   0.160633 -0.00496834  
  0.136681   0.157785 -0.0245167  
  0.160963   0.241856  0.0544803  
  0.150963   0.159856 -0.00151974  
  0.185877   0.322863  0.0902519  
  0.204844   0.324633   0.107032  
  0.156681   0.321785  0.0874833  
  0.170963   0.323856    0.11048  
  0.191995  -0.233547 -0.0873675  
  0.194836  -0.236963  -0.136466  
  0.181995  -0.315547  -0.143367  
  0.184836  -0.318963  -0.192466  
  0.193416  -0.235255  -0.111917  
  0.183416  -0.317255  -0.167917  
  0.211995 -0.0695469  0.0246325  
  0.214836 -0.0729633 -0.0244656  
  0.201995  -0.151547 -0.0313675  
  0.204836  -0.154963 -0.0804656  
  0.213416 -0.0712551 8.34802e-05  
  0.203416  -0.153255 -0.0559165  
  0.231995  0.0944531   0.136633  
  0.234836  0.0910367  0.0875344  
  0.221995  0.0124531  0.0806325  
  0.224836 0.00903671  0.0315344  
  0.233416  0.0927449   0.112083  
  0.223416  0.0107449  0.0560835  
  0.251995   0.258453   0.248633  
  0.254836   0.255037   0.199534  
  0.241995   0.176453   0.192633  
  0.244836   0.173037   0.143534  
  0.253416   0.256745   0.224083  
  0.243416   0.174745   0.168083  
  0.261995   0.340453   0.304633  
  0.264836   0.337037   0.255534  
  0.263416   0.338745   0.280083  
 -0.240955  -0.332673  -0.204464  
 -0.297139  -0.334203  -0.202142  
 -0.215761  -0.251557  -0.167284  
 -0.259047  -0.251438  -0.147303  
 -0.290454  -0.254011  -0.170074  
 -0.225761  -0.333557  -0.223284  
 -0.269047  -0.333438  -0.203303  
 -0.300454  -0.336011  -0.226074  
 -0.253107  -0.252784  -0.168679  
 -0.263107  -0.334784  -0.224679  
 -0.220955  -0.168673 -0.0924635  
 -0.277139  -0.170203 -0.0901421  
 -0.195761 -0.0875567 -0.0552837  
 -0.239047 -0.0874381 -0.0353028  
 -0.270454 -0.0900105 -0.0580739  
 -0.205761  -0.169557  -0.111284  
 -0.249047  -0.169438 -0.0913028  
 -0.280454  -0.172011  -0.114074  
 -0.233107 -0.0887836 -0.0566788  
 -0.243107  -0.170784  -0.112679  
 -0.200955 -0.00467289  0.0195365  
 -0.257139 -0.00620339  0.0218579  
 -0.175761  0.0764433  0.0567163  
 -0.219047  0.0765619  0.0766972  
 -0.250454  0.0739895  0.0539261  
 -0.185761 -0.00555665 0.000716348  
 -0.229047 -0.00543814  0.0206972  
 -0.260454 -0.00801053 -0.00207393  
 -0.213107  0.0752164  0.0553212  
 -0.223107 -0.00678359 -0.000678792  
 -0.180955   0.159327   0.131536  
 -0.237139   0.157797   0.133858  
 -0.155761   0.240443   0.168716  
 -0.199047   0.240562   0.188697  
 -0.230454   0.237989   0.165926  
 -0.165761   0.158443   0.112716  
 -0.209047   0.158562   0.132697  
 -0.240454   0.155989   0.109926  
 -0.193107   0.239216   0.167321  
 -0.203107   0.157216   0.111321  
 -0.160955   0.323327   0.243536  
 -0.217139   0.321797   0.245858  
 -0.145761   0.322443   0.224716  
 -0.189047   0.322562   0.244697  
 -0.220454   0.319989   0.221926  
 -0.183107   0.321216   0.223321  
-0.0665983  -0.254542  -0.272261  
-0.0765983  -0.336542  -0.328261  
-0.0693378  -0.252735  -0.245773  
-0.0793378  -0.334735  -0.301773  
-0.0465983 -0.0905418  -0.160261  
-0.0565983  -0.172542  -0.216261  
-0.0493378 -0.0887351  -0.133773  
-0.0593378  -0.170735  -0.189773  
-0.0265983  0.0734582 -0.0482613  
-0.0365983 -0.00854179  -0.104261  
-0.0293378  0.0752649 -0.0217733  
-0.0393378 -0.0067351 -0.0777733  
-0.00659827   0.237458  0.0637387  
-0.0165983   0.155458  0.0077387  
-0.00933782   0.239265  0.0902267  
-0.0193378   0.157265  0.0342267  
0.00340173   0.319458   0.119739  
0.000662178   0.321265   0.146227  
 -0.291383  -0.343277  -0.331784  
 -0.245771  -0.260779  -0.283877  
 -0.312536  -0.262801  -0.283967  
 -0.255771  -0.342779  -0.339877  
 -0.322536  -0.344801  -0.339967  
 -0.282511  -0.262914  -0.298254  
 -0.292511  -0.344914  -0.354254  
 -0.271383  -0.179277  -0.219784  
 -0.225771 -0.0967792  -0.171877  
 -0.292536 -0.0988011  -0.171967  
 -0.235771  -0.178779  -0.227877  
 -0.302536  -0.180801  -0.227967  
 -0.262511 -0.0989138  -0.186254  
 -0.272511  -0.180914  -0.242254  
 -0.251383  -0.015277  -0.107784  
 -0.205771  0.0672208 -0.0598772  
 -0.272536  0.0651989 -0.0599671  
 -0.215771 -0.0147792  -0.115877  
 -0.282536 -0.0168011  -0.115967  
 -0.242511  0.0650862 -0.0742536  
 -0.252511 -0.0169138  -0.130254  
 -0.231383   0.148723 0.00421636  
 -0.185771   0.231221  0.0521228  
 -0.252536   0.229199  0.0520329  
 -0.195771   0.149221 -0.00387719  
 -0.262536   0.147199 -0.00396714  
 -0.222511   0.229086  0.0377464  
 -0.232511   0.147086 -0.0182536  
 -0.211383   0.312723   0.116216  
 -0.175771   0.313221   0.108123  
 -0.242536   0.311199   0.108033  
 -0.212511   0.311086  0.0937464  
 -0.284378   -0.26016  -0.258855  
 -0.294378   -0.34216  -0.314855  
 -0.323569  -0.261724  -0.264201  
 -0.333569  -0.343724  -0.320201  
 -0.264378 -0.0961598  -0.146855  
 -0.274378   -0.17816  -0.202855  
 -0.303569 -0.0977243  -0.152201  
 -0.313569  -0.179724  -0.208201  
 -0.244378  0.0678402 -0.0348547  
 -0.254378 -0.0141598 -0.0908547  
 -0.283569  0.0662757 -0.0402009  
 -0.293569 -0.0157243 -0.0962009  
 -0.224378    0.23184  0.0771453  
 -0.234378    0.14984  0.0211453  
 -0.263569   0.230276  0.0717991  
 -0.273569   0.148276  0.0157991  
 -0.214378    0.31384   0.133145  
 -0.253569   0.312276   0.127799  
 -0.200786  -0.328593  -0.164272  
 -0.210871  -0.248633  -0.128368  
 -0.165243  -0.247047  -0.125443  
 -0.220871  -0.330633  -0.184368  
 -0.175243  -0.329047  -0.181443  
 -0.190502  -0.249302  -0.146363  
 -0.200502  -0.331302  -0.202363  
 -0.180786  -0.164593 -0.0522723  
 -0.190871 -0.0846332 -0.0163679  
 -0.145243 -0.0830472 -0.0134433  
 -0.200871  -0.166633 -0.0723679  
 -0.155243  -0.165047 -0.0694433  
 -0.170502 -0.0853019 -0.0343635  
 -0.180502  -0.167302 -0.0903635  
 -0.160786 -0.000593452  0.0597277  
 -0.170871  0.0793668  0.0956321  
 -0.125243  0.0809528  0.0985567  
 -0.180871 -0.00263317  0.0396321  
 -0.135243 -0.00104716  0.0425567  
 -0.150502  0.0786981  0.0776365  
 -0.160502 -0.00330191  0.0216365  
 -0.140786   0.163407   0.171728  
 -0.150871   0.243367   0.207632  
 -0.105243   0.244953   0.210557  
 -0.160871   0.161367   0.151632  
 -0.115243   0.162953   0.154557  
 -0.130502   0.242698   0.189637  
 -0.140502   0.160698   0.133637  
 -0.120786   0.327407   0.283728  
 -0.140871   0.325367   0.263632  
-0.0952432   0.326953   0.266557  
 -0.120502   0.324698   0.245637  
 -0.149214  -0.244329 -0.0941146  
 -0.159214  -0.326329  -0.150115  
 -0.134168  -0.245077  -0.110972  
 -0.144168  -0.327077  -0.166972  
 -0.129214 -0.0803286  0.0178854  
 -0.139214  -0.162329 -0.0381146  
 -0.114168 -0.0810768 0.00102789  
 -0.124168  -0.163077 -0.0549721  
 -0.109214  0.0836714   0.129885  
 -0.119214 0.00167142  0.0738854  
-0.0941678  0.0829232   0.113028  
 -0.104168 0.000923179  0.0570279  
-0.0892136   0.247671   0.241885  
-0.0992136   0.165671   0.185885  
-0.0741678   0.246923   0.225028  
-0.0841678   0.164923   0.169028  
-0.0792136   0.329671   0.297885  
-0.0641678   0.328923   0.281028  
 -0.277322  -0.330496  -0.158553  
 -0.252533  -0.327165  -0.122344  
 -0.229054  -0.247545  -0.105413  
 -0.254928   -0.24683 -0.0844484  
 -0.189711  -0.244577 -0.0804605  
 -0.215584  -0.243863 -0.0594961  
 -0.239054  -0.329545  -0.161413  
 -0.264928   -0.32883  -0.140448  
 -0.199711  -0.326577   -0.13646  
 -0.225584  -0.325863  -0.115496  
 -0.222319  -0.245704 -0.0824544  
 -0.232319  -0.327704  -0.138454  
 -0.257322  -0.166496 -0.0465532  
 -0.232533  -0.163165 -0.0103435  
 -0.209054 -0.0835447 0.00658724  
 -0.234928 -0.0828304  0.0275516  
 -0.169711 -0.0805772  0.0315395  
 -0.195584 -0.0798628  0.0525039  
 -0.219054  -0.165545 -0.0494128  
 -0.244928   -0.16483 -0.0284484  
 -0.179711  -0.162577 -0.0244605  
 -0.205584  -0.161863 -0.00349607  
 -0.202319 -0.0817038  0.0295456  
 -0.212319  -0.163704 -0.0264544  
 -0.237322 -0.00249597  0.0654468  
 -0.212533 0.000835205   0.101656  
 -0.189054  0.0804553   0.118587  
 -0.214928  0.0811696   0.139552  
 -0.149711  0.0834228    0.14354  
 -0.175584  0.0841372   0.164504  
 -0.199054 -0.00154471  0.0625872  
 -0.224928 -0.000830384  0.0835516  
 -0.159711 0.00142283  0.0875395  
 -0.185584 0.00213716   0.108504  
 -0.182319  0.0822962   0.141546  
 -0.192319 0.000296225  0.0855456  
 -0.217322   0.161504   0.177447  
 -0.192533   0.164835   0.213656  
 -0.169054   0.244455   0.230587  
 -0.194928    0.24517   0.251552  
 -0.129711   0.247423    0.25554  
 -0.155584   0.248137   0.276504  
 -0.179054   0.162455   0.174587  
 -0.204928    0.16317   0.195552  
 -0.139711   0.165423    0.19954  
 -0.165584   0.166137   0.220504  
 -0.162319   0.246296   0.253546  
 -0.172319   0.164296   0.197546  
 -0.197322   0.325504   0.289447  
 -0.172533   0.328835   0.325656  
 -0.159054   0.326455   0.286587  
 -0.184928    0.32717   0.307552  
 -0.119711   0.329423    0.31154  
 -0.145584   0.330137   0.332504  
 -0.152319   0.328296   0.309546  
 -0.124368  -0.341687  -0.380173  
-0.0711885  -0.258154  -0.320953  
 -0.124162  -0.261705  -0.348329  
-0.0811885  -0.340154  -0.376953  
 -0.134162  -0.343705  -0.404329  
-0.0799592  -0.260328  -0.347731  
-0.0899592  -0.342328  -0.403731  
 -0.104368  -0.177687  -0.268173  
-0.0511885 -0.0941535  -0.208953  
 -0.104162 -0.0977054  -0.236329  
-0.0611885  -0.176154  -0.264953  
 -0.114162  -0.179705  -0.292329  
-0.0599592 -0.0963284  -0.235731  
-0.0699592  -0.178328  -0.291731  
-0.0843682 -0.0136867  -0.156173  
-0.0311885  0.0698465 -0.0969531  
-0.0841615  0.0662946  -0.124329  
-0.0411885 -0.0121535  -0.152953  
-0.0941615 -0.0157054  -0.180329  
-0.0399592  0.0676716  -0.123731  
-0.0499592 -0.0143284  -0.179731  
-0.0643682   0.150313  -0.044173  
-0.0111885   0.233846  0.0150469  
-0.0641615   0.230295 -0.0123291  
-0.0211885   0.151846 -0.0409531  
-0.0741615   0.148295 -0.0683291  
-0.0199592   0.231672 -0.0117312  
-0.0299592   0.149672 -0.0677312  
-0.0443682   0.314313   0.067827  
-0.00118849   0.315846  0.0710469  
-0.0541615   0.312295  0.0436709  
-0.00995917   0.313672  0.0442688  
  0.009273  -0.318125  -0.106417  
 0.0425321  -0.236411 -0.0642659  
-0.00871926  -0.237383 -0.0561957  
 0.0325321  -0.318411  -0.120266  
-0.0187193  -0.319383  -0.112196  
 0.0048812  -0.238428 -0.0766132  
-0.0051188  -0.320428  -0.132613  
  0.029273  -0.154125 0.00558321  
 0.0625321  -0.072411  0.0477341  
 0.0112807 -0.0733826  0.0558043  
 0.0525321  -0.154411 -0.00826592  
0.00128074  -0.155383 -0.00019566  
 0.0248812 -0.0744284  0.0353868  
 0.0148812  -0.156428 -0.0206132  
  0.049273 0.00987466   0.117583  
 0.0825321   0.091589   0.159734  
 0.0312807  0.0906174   0.167804  
 0.0725321 0.00958895   0.103734  
 0.0212807 0.00861743   0.111804  
 0.0448812  0.0895716   0.147387  
 0.0348812 0.00757161  0.0913868  
  0.069273   0.173875   0.229583  
  0.102532   0.255589   0.271734  
 0.0512807   0.254617   0.279804  
 0.0925321   0.173589   0.215734  
 0.0412807   0.172617   0.223804  
 0.0648812   0.253572   0.259387  
 0.0548812   0.171572   0.203387  
  0.089273   0.337875   0.341583  
  0.112532   0.337589   0.327734  
 0.0612807   0.336617   0.335804  
 0.0748812   0.335572   0.315387  
  0.218543  -0.312383  -0.114479  
  0.256116  -0.229029  -0.051164  
  0.229578  -0.231495 -0.0745072  
  0.246116  -0.311029  -0.107164  
  0.219578  -0.313495  -0.130507  
  0.266169  -0.230103   -0.07048  
  0.256169  -0.312103   -0.12648  
  0.238543  -0.148383 -0.00247861  
  0.276116 -0.0650288   0.060836  
  0.249578  -0.067495  0.0374928  
  0.266116  -0.147029 0.00483601  
  0.239578  -0.149495 -0.0185072  
  0.286169 -0.0661031    0.04152  
  0.276169  -0.148103   -0.01448  
  0.258543  0.0156171   0.109521  
  0.296116  0.0989712   0.172836  
  0.269578   0.096505   0.149493  
  0.286116  0.0169712   0.116836  
  0.259578   0.014505  0.0934928  
  0.306169  0.0978969    0.15352  
  0.296169  0.0158969    0.09752  
  0.278543   0.179617   0.221521  
  0.316116   0.262971   0.284836  
  0.289578   0.260505   0.261493  
  0.306116   0.180971   0.228836  
  0.279578   0.178505   0.205493  
  0.326169   0.261897    0.26552  
  0.316169   0.179897    0.20952  
  0.298543   0.343617   0.333521  
  0.326116   0.344971   0.340836  
  0.299578   0.342505   0.317493  
  0.336169   0.343897    0.32152  
 -0.245546  -0.259256   -0.26262  
 -0.255546  -0.341256   -0.31862  
 -0.225546 -0.0952561   -0.15062  
 -0.235546  -0.177256   -0.20662  
 -0.205546  0.0687439 -0.0386196  
 -0.215546 -0.0132561 -0.0946196  
 -0.185546   0.232744  0.0733804  
 -0.195546   0.150744  0.0173804  
 -0.175546   0.314744    0.12938  
 -0.299256  -0.248911 -0.0948519  
 -0.328404  -0.253198  -0.142616  
 -0.277231   -0.25035  -0.124348  
 -0.309256  -0.330911  -0.150852  
 -0.338404  -0.335198  -0.198616  
 -0.287231   -0.33235  -0.180348  
 -0.315212  -0.251079  -0.118497  
 -0.325212  -0.333079  -0.174497  
 -0.279256 -0.0849106  0.0171481  
 -0.308404 -0.0891976 -0.0306162  
 -0.257231 -0.0863497 -0.0123476  
 -0.289256  -0.166911 -0.0388519  
 -0.318404  -0.171198 -0.0866162  
 -0.267231   -0.16835 -0.0683476  
 -0.295212  -0.087079 -0.00649726  
 -0.305212  -0.169079 -0.0624973  
 -0.259256  0.0790894   0.129148  
 -0.288404  0.0748024  0.0813838  
 -0.237231  0.0776503  0.0996524  
 -0.269256 -0.00291065  0.0731481  
 -0.298404 -0.00719759  0.0253838  
 -0.247231 -0.00434968  0.0436524  
 -0.275212   0.076921   0.105503  
 -0.285212 -0.00507896  0.0495027  
 -0.239256   0.243089   0.241148  
 -0.268404   0.238802   0.193384  
 -0.217231    0.24165   0.211652  
 -0.249256   0.161089   0.185148  
 -0.278404   0.156802   0.137384  
 -0.227231    0.15965   0.155652  
 -0.255212   0.240921   0.217503  
 -0.265212   0.158921   0.161503  
 -0.229256   0.325089   0.297148  
 -0.258404   0.320802   0.249384  
 -0.207231    0.32365   0.267652  
 -0.245212   0.322921   0.273503  
 -0.150196  -0.242516 -0.0682934  
 -0.160196  -0.324516  -0.124293  
 -0.130196 -0.0785164  0.0437066  
 -0.140196  -0.160516 -0.0122934  
 -0.110196  0.0854836   0.155707  
 -0.120196 0.00348359  0.0997066  
-0.0901962   0.249484   0.267707  
 -0.100196   0.167484   0.211707  
-0.0801962   0.331484   0.323707  
  0.219225  -0.321256  -0.239162  
  0.269447  -0.238532  -0.190036  
  0.215015  -0.241194  -0.204312  
  0.259447  -0.320532  -0.246036  
  0.205015  -0.323194  -0.260312  
  0.254104  -0.240693  -0.213833  
  0.244104  -0.322693  -0.269833  
  0.239225  -0.157256  -0.127162  
  0.289447 -0.0745321 -0.0780358  
  0.235015 -0.0771936 -0.0923119  
  0.279447  -0.156532  -0.134036  
  0.225015  -0.159194  -0.148312  
  0.274104 -0.0766927  -0.101833  
  0.264104  -0.158693  -0.157833  
  0.259225 0.00674399 -0.0151619  
  0.309447  0.0894679  0.0339642  
  0.255015  0.0868064  0.0196881  
  0.299447 0.00746789 -0.0220358  
  0.245015  0.0048064 -0.0363119  
  0.294104  0.0873073  0.0101675  
  0.284104 0.00530732 -0.0458325  
  0.279225   0.170744  0.0968381  
  0.329447   0.253468   0.145964  
  0.275015   0.250806   0.131688  
  0.319447   0.171468  0.0899642  
  0.265015   0.168806  0.0756881  
  0.314104   0.251307   0.122167  
  0.304104   0.169307  0.0661675  
  0.299225   0.334744   0.208838  
  0.339447   0.335468   0.201964  
  0.285015   0.332806   0.187688  
  0.324104   0.333307   0.178167  
 0.0312221  -0.314947 -0.0711444  
 0.0575885  -0.230611  0.0106704  
0.00408954  -0.234124 -0.0159299  
 0.0475885  -0.312611 -0.0453296  
-0.00591046  -0.316124 -0.0719299  
 0.0164097   -0.23181  0.0112897  
 0.0064097   -0.31381 -0.0447103  
 0.0512221  -0.150947  0.0408556  
 0.0775885 -0.0666113    0.12267  
 0.0240895 -0.0701237  0.0960701  
 0.0675885  -0.148611  0.0666704  
 0.0140895  -0.152124  0.0400701  
 0.0364097 -0.0678102    0.12329  
 0.0264097   -0.14981  0.0672897  
 0.0712221  0.0130532   0.152856  
 0.0975885  0.0973887    0.23467  
 0.0440895  0.0938763    0.20807  
 0.0875885  0.0153887    0.17867  
 0.0340895  0.0118763    0.15207  
 0.0564097  0.0961898    0.23529  
 0.0464097  0.0141898    0.17929  
 0.0912221   0.177053   0.264856  
  0.117588   0.261389    0.34667  
 0.0640895   0.257876    0.32007  
  0.107588   0.179389    0.29067  
 0.0540895   0.175876    0.26407  
 0.0764097    0.26019    0.34729  
 0.0664097    0.17819    0.29129  
  0.111222   0.341053   0.376856  
  0.127588   0.343389    0.40267  
 0.0740895   0.339876    0.37607  
 0.0864097    0.34219    0.40329  
 0.0740611  -0.232277 -0.0196572  
 0.0640611  -0.314277 -0.0756572  
 0.0957311  -0.229818 0.00565261  
 0.0857311  -0.311818 -0.0503474  
 0.0940611 -0.0682773  0.0923428  
 0.0840611  -0.150277  0.0363428  
  0.115731 -0.0658178   0.117653  
  0.105731  -0.147818  0.0616526  
  0.114061  0.0957227   0.204343  
  0.104061  0.0137227   0.148343  
  0.135731  0.0981822   0.229653  
  0.125731  0.0161822   0.173653  
  0.134061   0.259723   0.316343  
  0.124061   0.177723   0.260343  
  0.155731   0.262182   0.341653  
  0.145731   0.180182   0.285653  
  0.144061   0.341723   0.372343  
  0.165731   0.344182   0.397653  
 -0.257359  -0.244699 -0.0535322  
 -0.267359  -0.326699  -0.109532  
 -0.279479  -0.246808  -0.073743  
 -0.289479  -0.328808  -0.129743  
 -0.237359 -0.0806985  0.0584678  
 -0.247359  -0.162699 0.00246784  
 -0.259479 -0.0828079   0.038257  
 -0.269479  -0.164808  -0.017743  
 -0.217359  0.0833015   0.170468  
 -0.227359 0.00130149   0.114468  
 -0.239479  0.0811921   0.150257  
 -0.249479 -0.00080794   0.094257  
 -0.197359   0.247301   0.282468  
 -0.207359   0.165301   0.226468  
 -0.219479   0.245192   0.262257  
 -0.229479   0.163192   0.206257  
 -0.187359   0.329301   0.338468  
 -0.209479   0.327192   0.318257  
  0.126276  -0.251938  -0.317392  
  0.116276  -0.333938  -0.373392  
 0.0904926  -0.253645  -0.326172  
 0.0804926  -0.335645  -0.382172  
  0.146276 -0.0879385  -0.205392  
  0.136276  -0.169938  -0.261392  
  0.110493  -0.089645  -0.214172  
  0.100493  -0.171645  -0.270172  
  0.166276  0.0760615 -0.0933917  
  0.156276 -0.00593845  -0.149392  
  0.130493   0.074355  -0.102172  
  0.120493 -0.00764501  -0.158172  
  0.186276   0.240062  0.0186083  
  0.176276   0.158062 -0.0373917  
  0.150493   0.238355 0.00982755  
  0.140493   0.156355 -0.0461724  
  0.196276   0.322062  0.0746083  
  0.160493   0.320355  0.0658276  
 -0.144872  -0.260728  -0.325861  
 -0.154872  -0.342728  -0.381861  
 -0.161136  -0.262685  -0.346412  
 -0.171136  -0.344685  -0.402412  
 -0.124872  -0.096728  -0.213861  
 -0.134872  -0.178728  -0.269861  
 -0.141136 -0.0986849  -0.234412  
 -0.151136  -0.180685  -0.290412  
 -0.104872   0.067272  -0.101861  
 -0.114872  -0.014728  -0.157861  
 -0.121136  0.0653151  -0.122412  
 -0.131136 -0.0166849  -0.178412  
-0.0848719   0.231272  0.0101386  
-0.0948719   0.149272 -0.0458614  
 -0.101136   0.229315 -0.0104119  
 -0.111136   0.147315 -0.0664119  
-0.0748719   0.313272  0.0661386  
-0.0911365   0.311315  0.0455881  
  0.155519  -0.249829  -0.300193  
  0.145519  -0.331829  -0.356193  
  0.175519 -0.0858289  -0.188193  
  0.165519  -0.167829  -0.244193  
  0.195519  0.0781711 -0.0761934  
  0.185519 -0.00382891  -0.132193  
  0.215519   0.242171  0.0358066  
  0.205519   0.160171 -0.0201934  
  0.225519   0.324171  0.0918066  
  0.166696  -0.322322  -0.231876  
  0.164545   -0.23926  -0.155841  
   0.20296  -0.239789  -0.179519  
  0.233251  -0.237493  -0.160144  
  0.154545   -0.32126  -0.211841  
   0.19296  -0.321789  -0.235519  
  0.223251  -0.319493  -0.216144  
  0.198898  -0.238376  -0.157992  
  0.188898  -0.320376  -0.213992  
  0.186696  -0.158322  -0.119876  
  0.184545 -0.0752597 -0.0438408  
   0.22296  -0.075789 -0.0675191  
  0.253251 -0.0734926 -0.0481439  
  0.174545   -0.15726 -0.0998408  
   0.21296  -0.157789  -0.123519  
  0.243251  -0.155493  -0.104144  
  0.218898 -0.0743762 -0.0459923  
  0.208898  -0.156376  -0.101992  
  0.206696 0.00567792 -0.00787618  
  0.204545  0.0887403  0.0681592  
   0.24296   0.088211  0.0444809  
  0.273251  0.0905074  0.0638561  
  0.194545 0.00674026  0.0121592  
   0.23296 0.00621096 -0.0115191  
  0.263251 0.00850741 0.00785614  
  0.238898  0.0896238  0.0660077  
  0.228898 0.00762383  0.0100077  
  0.226696   0.169678   0.104124  
  0.224545    0.25274   0.180159  
   0.26296   0.252211   0.156481  
  0.293251   0.254507   0.175856  
  0.214545    0.17074   0.124159  
   0.25296   0.170211   0.100481  
  0.283251   0.172507   0.119856  
  0.258898   0.253624   0.178008  
  0.248898   0.171624   0.122008  
  0.246696   0.333678   0.216124  
  0.234545    0.33474   0.236159  
   0.27296   0.334211   0.212481  
  0.303251   0.336507   0.231856  
  0.268898   0.335624   0.234008  
  0.276791  -0.236529  -0.165058  
  0.266791  -0.318529  -0.221058  
  0.296791 -0.0725287 -0.0530578  
  0.286791  -0.154529  -0.109058  
  0.316791  0.0914713  0.0589422  
  0.306791 0.00947129  0.0029422  
  0.336791   0.255471   0.170942  
  0.326791   0.173471   0.114942  
  0.346791   0.337471   0.226942  
   0.15937  -0.241846   -0.18991  
   0.14937  -0.323846   -0.24591  
  0.140356  -0.241275  -0.173862  
  0.130356  -0.323275  -0.229862  
   0.17937 -0.0778462 -0.0779103  
   0.16937  -0.159846   -0.13391  
  0.160356 -0.0772754  -0.061862  
  0.150356  -0.159275  -0.117862  
   0.19937  0.0861538  0.0340897  
   0.18937 0.00415383 -0.0219103  
  0.180356  0.0867246   0.050138  
  0.170356 0.00472458  -0.005862  
   0.21937   0.250154    0.14609  
   0.20937   0.168154  0.0900897  
  0.200356   0.250725   0.162138  
  0.190356   0.168725   0.106138  
   0.22937   0.332154    0.20209  
  0.210356   0.332725   0.218138  
 -0.335393  -0.255223  -0.168051  
 -0.345393  -0.337223  -0.224051  
 -0.315393 -0.0912228 -0.0560511  
 -0.325393  -0.173223  -0.112051  
 -0.295393  0.0727772  0.0559489  
 -0.305393 -0.00922285 -5.10926e-05  
 -0.275393   0.236777   0.167949  
 -0.285393   0.154777   0.111949  
 -0.265393   0.318777   0.223949  
 -0.225889  -0.242786 -0.0400388  
 -0.235889  -0.324786 -0.0960388  
 -0.205889  -0.078786  0.0719612  
 -0.215889  -0.160786  0.0159612  
 -0.185889   0.085214   0.183961  
 -0.195889 0.00321397   0.127961  
 -0.165889   0.249214   0.295961  
 -0.175889   0.167214   0.239961  
 -0.155889   0.331214   0.351961  
  0.200434  -0.230624 -0.0499661  
  0.190434  -0.312624  -0.105966  
  0.229842  -0.228788 -0.0366681  
  0.219842  -0.310788 -0.0926681  
  0.220434 -0.0666243  0.0620339  
  0.210434  -0.148624 0.00603388  
  0.249842  -0.064788  0.0753319  
  0.239842  -0.146788  0.0193319  
  0.240434  0.0973757   0.174034  
  0.230434  0.0153757   0.118034  
  0.269842   0.099212   0.187332  
  0.259842   0.017212   0.131332  
  0.260434   0.261376   0.286034  
  0.250434   0.179376   0.230034  
  0.289842   0.263212   0.299332  
  0.279842   0.181212   0.243332  
  0.270434   0.343376   0.342034  
  0.299842   0.345212   0.355332  
 -0.244051  -0.249491  -0.126358  
 -0.254051  -0.331491  -0.182358  
 -0.224051 -0.0854914 -0.0143578  
 -0.234051  -0.167491 -0.0703578  
 -0.204051  0.0785086  0.0976422  
 -0.214051 -0.00349142  0.0416422  
 -0.184051   0.242509   0.209642  
 -0.194051   0.160509   0.153642  
 -0.174051   0.324509   0.265642  
  0.196214  -0.232086 -0.0686668  
  0.186214  -0.314086  -0.124667  
  0.216214 -0.0680856  0.0433332  
  0.206214  -0.150086 -0.0126668  
  0.236214  0.0959144   0.155333  
  0.226214  0.0139144  0.0993332  
  0.256214   0.259914   0.267333  
  0.246214   0.177914   0.211333  
  0.266214   0.341914   0.323333  
 -0.112848     -0.258  -0.301171  
 -0.122848      -0.34  -0.357171  
 -0.152808  -0.259513  -0.305466  
 -0.162808  -0.341513  -0.361466  
-0.0928479 -0.0940001  -0.189171  
 -0.102848     -0.176  -0.245171  
 -0.132808 -0.0955127  -0.193466  
 -0.142808  -0.177513  -0.249466  
-0.0728479  0.0699999 -0.0771707  
-0.0828479 -0.0120001  -0.133171  
 -0.112808  0.0684873 -0.0814655  
 -0.122808 -0.0135127  -0.137466  
-0.0528479      0.234  0.0348293  
-0.0628479      0.152 -0.0211707  
-0.0928078   0.232487  0.0305345  
 -0.102808   0.150487 -0.0254655  
-0.0428479      0.316  0.0908293  
-0.0828078   0.314487  0.0865345  
-0.0688934  -0.256348  -0.296607  
-0.0788934  -0.338348  -0.352607  
-0.0488934 -0.0923477  -0.184607  
-0.0588934  -0.174348  -0.240607  
-0.0288934  0.0716523 -0.0726072  
-0.0388934 -0.0103477  -0.128607  
-0.00889338   0.235652  0.0393928  
-0.0188934   0.153652 -0.0166072  
0.00110662   0.317652  0.0953928  
  0.187192   -0.24152  -0.197111  
  0.177192   -0.32352  -0.253111  
  0.207192 -0.0775199 -0.0851111  
  0.197192   -0.15952  -0.141111  
  0.227192  0.0864801  0.0268889  
  0.217192 0.00448011 -0.0291111  
  0.247192    0.25048   0.138889  
  0.237192    0.16848  0.0828889  
  0.257192    0.33248   0.194889  
 0.0302476  -0.234536 -0.0327806  
 0.0202476  -0.316536 -0.0887806  
 0.0582966  -0.234344 -0.0419615  
 0.0482966  -0.316344 -0.0979615  
 0.0502476  -0.070536  0.0792194  
 0.0402476  -0.152536  0.0232194  
 0.0782966 -0.0703442  0.0700385  
 0.0682966  -0.152344  0.0140385  
 0.0702476   0.093464   0.191219  
 0.0602476   0.011464   0.135219  
 0.0982966  0.0936558   0.182038  
 0.0882966  0.0116558   0.126038  
 0.0902476   0.257464   0.303219  
 0.0802476   0.175464   0.247219  
  0.118297   0.257656   0.294038  
  0.108297   0.175656   0.238038  
  0.100248   0.339464   0.359219  
  0.128297   0.339656   0.350038  
-0.00231486  -0.235753 -0.0360628  
-0.0123149  -0.317753 -0.0920628  
 0.0176851 -0.0717532  0.0759372  
0.00768514  -0.153753  0.0199372  
 0.0376851  0.0922468   0.187937  
 0.0276851  0.0102468   0.131937  
 0.0576851   0.256247   0.299937  
 0.0476851   0.174247   0.243937  
 0.0676851   0.338247   0.355937  
Displacement_Fluct 3 8107 float
  0.355663  0.0121651   0.046199  
  0.355663  0.0121651   0.046199  
  0.355663  0.0121651   0.046199  
  0.355663  0.0121651   0.046199  
5.89789e-05 0.000148935 0.000107395  
  0.711269  0.0241898  0.0922907  
  0.344003 -0.0551224  -0.331762  
   0.36733  0.0794624   0.424159  
  0.355663  0.0121651   0.046199  
  0.355663  0.0121651   0.046199  
  0.355663  0.0121651   0.046199  
  0.355663  0.0121651   0.046199  
5.89789e-05 0.000148935 0.000107395  
   0.36733  0.0794624   0.424159  
  0.711269  0.0241898  0.0922907  
  0.344003 -0.0551224  -0.331762  
   0.35567  0.0121691  0.0462122  
  0.355759  0.0121894  0.0463342  
  0.355602     0.0122  0.0462767  
  0.355715  0.0121637  0.0462229  
  0.355688  0.0121944    0.04626  
  0.355649  0.0121332  0.0461825  
  0.355658   0.012177  0.0461932  
  0.355665  0.0121643  0.0462005  
  0.355685  0.0121586  0.0462183  
  0.355642  0.0121989  0.0462238  
  0.355724  0.0121138  0.0461918  
  0.355643  0.0122234  0.0462006  
  0.355618  0.0121827   0.046148  
  0.355666  0.0121532  0.0461865  
  0.355661   0.012168  0.0461956  
  0.355671  0.0121978  0.0462563  
  0.355647  0.0122159   0.046263  
  0.355664  0.0121704   0.046205  
  0.355665  0.0121693  0.0461993  
  0.355664  0.0121687  0.0461984  
  0.355663  0.0121674  0.0461921  
  0.355664  0.0121738  0.0462051  
  0.355673  0.0121738  0.0462192  
  0.355668  0.0122142  0.0462721  
  0.355658  0.0121695  0.0462025  
  0.355665  0.0121699  0.0461996  
  0.355665  0.0121692  0.0461988  
  0.355664  0.0121668  0.0461959  
  0.355665  0.0121706  0.0461958  
  0.355662  0.0121682  0.0462011  
   0.35567  0.0121691  0.0462122  
  0.355759  0.0121894  0.0463342  
  0.355602     0.0122  0.0462767  
  0.355715  0.0121637  0.0462229  
  0.355688  0.0121944    0.04626  
  0.355649  0.0121332  0.0461825  
  0.355658   0.012177  0.0461932  
  0.355665  0.0121643  0.0462005  
  0.355685  0.0121586  0.0462183  
  0.355642  0.0121989  0.0462238  
  0.355724  0.0121138  0.0461918  
  0.355643  0.0122234  0.0462006  
  0.355618  0.0121827   0.046148  
  0.355666  0.0121532  0.0461865  
  0.355661   0.012168  0.0461956  
  0.355671  0.0121978  0.0462563  
  0.355647  0.0122159   0.046263  
  0.355664  0.0121704   0.046205  
  0.355665  0.0121693  0.0461993  
  0.355664  0.0121687  0.0461984  
  0.355663  0.0121674  0.0461921  
  0.355664  0.0121738  0.0462051  
  0.355673  0.0121738  0.0462192  
  0.355668  0.0122142  0.0462721  
  0.355658  0.0121695  0.0462025  
  0.355665  0.0121699  0.0461996  
  0.355665  0.0121692  0.0461988  
  0.355664  0.0121668  0.0461959  
  0.355665  0.0121706  0.0461958  
  0.355662  0.0121682  0.0462011  
 0.0090287 -0.0167536 -0.0964293  
 0.0414731 -0.0317097   -0.18317  
 0.0953708 -0.0437292  -0.254135  
  0.167174 -0.0519911    -0.3045  
     0.252 -0.0558992  -0.330932  
0.00154242 -0.00847555 -0.0489791  
 0.0224054 -0.0245411  -0.141419  
 0.0659283 -0.0381421  -0.220958  
  0.129313 -0.0483717  -0.282139  
  0.208308 -0.0545155  -0.320851  
  0.297498 -0.0561003  -0.334586  
  0.436794 -0.0496674  -0.307007  
  0.523945 -0.0399598  -0.258304  
  0.599449 -0.0267198  -0.188851  
  0.658174  -0.010886  -0.103275  
  0.696252 0.00647097 -0.00737041  
  0.390714 -0.0529562   -0.32252  
  0.481459 -0.0452984  -0.285486  
  0.563498 -0.0337247  -0.225915  
  0.631182 -0.0190614   -0.14774  
  0.679975 -0.00232599  -0.056218  
  0.706734  0.0153583  0.0424163  
    0.7023  0.0410924   0.188827  
  0.669855  0.0560486   0.275568  
  0.615957   0.068069   0.346533  
  0.544153  0.0763314   0.396898  
   0.45933  0.0802334   0.423327  
  0.709786  0.0328143   0.141377  
  0.688923    0.04888   0.233817  
    0.6454  0.0624814   0.313356  
  0.582013  0.0727127   0.374538  
  0.503013  0.0788527   0.413251  
  0.413841  0.0804321   0.426981  
  0.274532  0.0740107   0.399406  
   0.18738  0.0642975   0.350704  
  0.111878  0.0510574   0.281249  
 0.0531544  0.0352247   0.195673  
 0.0150759  0.0178678  0.0997686  
  0.320624  0.0772961   0.414918  
  0.229861  0.0696424   0.377884  
  0.147827  0.0580614   0.318313  
 0.0801461  0.0433995   0.240138  
 0.0313527  0.0266645   0.148616  
0.00459386 0.00898036  0.0499818  
   0.35567  0.0121691  0.0462122  
  0.355759  0.0121894  0.0463342  
  0.355602     0.0122  0.0462767  
  0.355715  0.0121637  0.0462229  
  0.355688  0.0121944    0.04626  
  0.355649  0.0121332  0.0461825  
  0.355658   0.012177  0.0461932  
  0.355665  0.0121643  0.0462005  
  0.355685  0.0121586  0.0462183  
  0.355642  0.0121989  0.0462238  
  0.355724  0.0121138  0.0461918  
  0.355643  0.0122234  0.0462006  
  0.355618  0.0121827   0.046148  
  0.355666  0.0121532  0.0461865  
  0.355661   0.012168  0.0461956  
  0.355671  0.0121978  0.0462563  
  0.355647  0.0122159   0.046263  
  0.355664  0.0121704   0.046205  
  0.355665  0.0121693  0.0461993  
  0.355664  0.0121687  0.0461984  
  0.355663  0.0121674  0.0461921  
  0.355664  0.0121738  0.0462051  
  0.355673  0.0121738  0.0462192  
  0.355668  0.0122142  0.0462721  
  0.355658  0.0121695  0.0462025  
  0.355665  0.0121699  0.0461996  
  0.355665  0.0121692  0.0461988  
  0.355664  0.0121668  0.0461959  
  0.355665  0.0121706  0.0461958  
  0.355662  0.0121682  0.0462011  
   0.35567  0.0121691  0.0462122  
  0.355759  0.0121894  0.0463342  
  0.355602     0.0122  0.0462767  
  0.355715  0.0121637  0.0462229  
  0.355688  0.0121944    0.04626  
  0.355649  0.0121332  0.0461825  
  0.355658   0.012177  0.0461932  
  0.355665  0.0121643  0.0462005  
  0.355685  0.0121586  0.0462183  
  0.355642  0.0121989  0.0462238  
  0.355724  0.0121138  0.0461918  
  0.355643  0.0122234  0.0462006  
  0.355618  0.0121827   0.046148  
  0.355666  0.0121532  0.0461865  
  0.355661   0.012168  0.0461956  
  0.355671  0.0121978  0.0462563  
  0.355647  0.0122159   0.046263  
  0.355664  0.0121704   0.046205  
  0.355665  0.0121693  0.0461993  
  0.355664  0.0121687  0.0461984  
  0.355663  0.0121674  0.0461921  
  0.355664  0.0121738  0.0462051  
  0.355673  0.0121738  0.0462192  
  0.355668  0.0122142  0.0462721  
  0.355658  0.0121695  0.0462025  
  0.355665  0.0121699  0.0461996  
  0.355665  0.0121692  0.0461988  
  0.355664  0.0121668  0.0461959  
  0.355665  0.0121706  0.0461958  
  0.355662  0.0121682  0.0462011  
 0.0150759  0.0178678  0.0997686  
 0.0531544  0.0352247   0.195673  
  0.111878  0.0510574   0.281249  
   0.18738  0.0642975   0.350704  
  0.274532  0.0740107   0.399406  
0.00459386 0.00898036  0.0499818  
 0.0313527  0.0266645   0.148616  
 0.0801461  0.0433995   0.240138  
  0.147827  0.0580614   0.318313  
  0.229861  0.0696424   0.377884  
  0.320624  0.0772961   0.414918  
   0.45933  0.0802334   0.423327  
  0.544153  0.0763314   0.396898  
  0.615957   0.068069   0.346533  
  0.669855  0.0560486   0.275568  
    0.7023  0.0410924   0.188827  
  0.413841  0.0804321   0.426981  
  0.503013  0.0788527   0.413251  
  0.582013  0.0727127   0.374538  
    0.6454  0.0624814   0.313356  
  0.688923    0.04888   0.233817  
  0.709786  0.0328143   0.141377  
  0.696252 0.00647097 -0.00737041  
  0.658174  -0.010886  -0.103275  
  0.599449 -0.0267198  -0.188851  
  0.523945 -0.0399598  -0.258304  
  0.436794 -0.0496674  -0.307007  
  0.706734  0.0153583  0.0424163  
  0.679975 -0.00232599  -0.056218  
  0.631182 -0.0190614   -0.14774  
  0.563498 -0.0337247  -0.225915  
  0.481459 -0.0452984  -0.285486  
  0.390714 -0.0529562   -0.32252  
     0.252 -0.0558992  -0.330932  
  0.167174 -0.0519911    -0.3045  
 0.0953708 -0.0437292  -0.254135  
 0.0414731 -0.0317097   -0.18317  
 0.0090287 -0.0167536 -0.0964293  
  0.297498 -0.0561003  -0.334586  
  0.208308 -0.0545155  -0.320851  
  0.129313 -0.0483717  -0.282139  
 0.0659283 -0.0381421  -0.220958  
 0.0224054 -0.0245411  -0.141419  
0.00154242 -0.00847555 -0.0489791  
  0.356133  0.0149801  0.0490055  
  0.355815  0.0131007  0.0470847  
   0.35551  0.0112365   0.045313  
  0.355192 0.00935798  0.0433924  
  0.356376  0.0164191  0.0518682  
  0.356012  0.0142745  0.0483778  
  0.355662  0.0121686  0.0461989  
  0.355313  0.0100628  0.0440204  
   0.35495 0.00791596  0.0405294  
  0.356133  0.0149801  0.0490055  
  0.355815  0.0131007  0.0470847  
   0.35551  0.0112365   0.045313  
  0.355192 0.00935798  0.0433924  
  0.356376  0.0164191  0.0518682  
  0.356012  0.0142745  0.0483778  
  0.355662  0.0121686  0.0461989  
  0.355313  0.0100628  0.0440204  
   0.35495 0.00791596  0.0405294  
  0.356133  0.0149801  0.0490055  
  0.355815  0.0131007  0.0470847  
   0.35551  0.0112365   0.045313  
  0.355192 0.00935798  0.0433924  
  0.356376  0.0164191  0.0518682  
  0.356012  0.0142745  0.0483778  
  0.355662  0.0121686  0.0461989  
  0.355313  0.0100628  0.0440204  
   0.35495 0.00791596  0.0405294  
  0.356133  0.0149801  0.0490055  
  0.355815  0.0131007  0.0470847  
   0.35551  0.0112365   0.045313  
  0.355192 0.00935798  0.0433924  
  0.356376  0.0164191  0.0518682  
  0.356012  0.0142745  0.0483778  
  0.355662  0.0121686  0.0461989  
  0.355313  0.0100628  0.0440204  
   0.35495 0.00791596  0.0405294  
         0          0          0  
-6.60707e-05 6.48729e-05 4.70791e-05  
-5.65542e-05 0.000210221 0.000132398  
1.58723e-05 0.000289141 0.000201732  
3.87731e-05 4.82476e-05 3.09616e-05  
-4.1525e-05 1.3561e-05 1.28775e-05  
-6.99284e-05 0.000136533 8.79953e-05  
-2.57578e-05 0.000267328 0.000176764  
4.87704e-05 0.000247494 0.000180041  
  0.367311  0.0794384   0.424182  
   0.36733  0.0794873   0.424245  
  0.367355  0.0795462   0.424257  
  0.367359  0.0795361   0.424202  
  0.367315  0.0794394   0.424162  
  0.367318  0.0794561   0.424214  
  0.367344    0.07952    0.42426  
   0.36736  0.0795538   0.424233  
  0.367348  0.0795012   0.424175  
  0.711312  0.0240496  0.0921964  
  0.711385  0.0241285  0.0922657  
  0.711394  0.0242738   0.092351  
  0.711328  0.0243387  0.0923981  
  0.711279  0.0240912  0.0922181  
  0.711354  0.0240714  0.0922213  
  0.711398  0.0242022  0.0923101  
   0.71137  0.0243251  0.0923852  
  0.711289  0.0242904  0.0923672  
  0.343974 -0.0551961  -0.331805  
  0.343978 -0.0552063   -0.33186  
  0.344003 -0.0551474  -0.331847  
  0.344022 -0.0550985  -0.331785  
  0.343985 -0.0551613  -0.331778  
  0.343973 -0.0552139  -0.331836  
  0.343989 -0.0551801  -0.331863  
  0.344015 -0.0551162  -0.331816  
  0.344018 -0.0550994  -0.331765  
   0.51976  0.0846272   0.253826  
   0.21423  0.0677934   0.218489  
  0.494797 -0.0436729  -0.123969  
  0.191393 -0.0603515  -0.160928  
  0.124095  0.0542381   0.109864  
  0.408071  0.0461609   0.273585  
  0.283602 -0.0300203  -0.212229  
  0.587173 -0.0299027 -0.0174278  
  0.131021 -0.0314462 -0.0381873  
  0.383839 -0.0105113  -0.171736  
  0.306015   0.045175    0.29995  
  0.580317  0.0557998   0.130616  
  0.391092 -0.0387978  -0.008572  
  0.387153  0.0559354   0.119909  
  0.325761 -0.0304598 -0.0242993  
  0.319548  0.0633385   0.101668  
  0.418169  0.0690849   0.106222  
  0.347477  0.0213891   0.119868  
  0.366343 -0.00123284 -0.0157506  
  0.293148 -0.0447477 -0.0138242  
  0.238563 -0.0474668   -0.18944  
  0.319732  -0.016644  -0.114666  
  0.342429 -0.000477123   -0.10784  
  0.263106  -0.058725 -0.0878236  
  0.540234    -0.0466 -0.0761091  
  0.494671 -0.0412837 -0.00533387  
  0.505955 -0.00843421  0.0384865  
  0.427548 -0.0426194 -0.0637625  
  0.170461  0.0708207    0.16888  
  0.216585  0.0656267  0.0977516  
  0.205353  0.0327783  0.0539161  
  0.281664  0.0670043   0.159107  
  0.360551  0.0405734   0.311996  
  0.466786   0.070997   0.275225  
  0.449413  0.0831226   0.181923  
  0.256576  0.0562092   0.263906  
  0.147936 -0.0594521  -0.116761  
  0.563582  0.0837795   0.209428  
  0.446067 -0.0306098  -0.161588  
  0.354292   0.022616   0.211948  
  0.395801  0.0691093   0.108397  
  0.338592  0.0378054  0.0976268  
  0.371629 -0.0130345 -0.000565697  
  0.315531 -0.0447693 -0.0159943  
  0.361259 0.00592432 -0.0366013  
  0.269735 -0.0260514  0.0026183  
  0.441596   0.050396  0.0897864  
  0.369032   0.024613    0.18146  
  0.329955  0.0312845   0.202755  
  0.611027 0.00688694  0.0567113  
  0.335347 -0.0157407  -0.212755  
  0.100284  0.0174563  0.0356941  
  0.474429  0.0300511  0.0751979  
    0.2369 -0.00570615   0.017206  
  0.357285 0.00647313 -0.0686844  
  0.304816  0.0494519   0.181756  
  0.472549  0.0875655   0.159983  
  0.239169 -0.0631918 -0.0672511  
  0.401414 -0.0245968 -0.0765121  
  0.301906  0.0674293  0.0936233  
   0.33795 -0.0112349 -0.0290018  
  0.382149  0.0405686   0.156343  
   0.40926 -0.0430327 -0.00115538  
  0.374911  0.0488468  0.0879752  
  0.341794  0.0419096  0.0782963  
  0.369228 -0.0173052  0.0147258  
  0.336623 -0.0242766 0.00480579  
  0.353962  0.0157318   0.123792  
  0.436665 -0.0516344  -0.035159  
  0.414077  0.0644737   0.181126  
  0.301175 -0.0396273  -0.079307  
   0.27453  0.0759778   0.127639  
  0.276235  0.0367641  0.0600593  
  0.349165 0.00490948 -0.0390857  
  0.435077 -0.0124206  0.0323421  
  0.313845  0.0600691    0.12237  
  0.300857 -0.0495467 -0.0455922  
  0.411758  0.0743346   0.139663  
  0.395845    -0.0354 -0.0272207  
  0.374632 -0.00494068 -0.0661147  
  0.470451  0.0731056   0.122588  
  0.240957 -0.0487519 -0.0301428  
  0.287875  0.0563264   0.079558  
  0.344072 -0.00180451 -0.0344552  
  0.423395 -0.0319718  0.0128526  
  0.367987  0.0262487   0.133183  
  0.360159  0.0175958   0.127748  
  0.325036  0.0449245   0.133974  
  0.316587  0.0399727   0.195279  
  0.340395  0.0259354   0.159285  
  0.342021   0.029558   0.109942  
  0.331574  0.0351831   0.148789  
  0.252802 -0.0168451 0.00885081  
    0.2529 -0.0381332 -0.0136134  
  0.189933 -0.0433195 -0.0373304  
  0.182683 -0.0190345 -0.00572625  
  0.218786 -0.0308371 -0.0123056  
  0.359825 0.00657113 -0.0527314  
  0.366771 0.00127298 -0.0530077  
  0.380875 -0.00655409  -0.114237  
  0.365074 3.10073e-05  -0.120289  
  0.367354 0.00121323 -0.0852396  
  0.458527  0.0411901  0.0835536  
  0.458472  0.0624829   0.106035  
  0.521446  0.0676705   0.129766  
  0.528653  0.0433849  0.0981398  
   0.49257  0.0551859   0.104722  
  0.379414  0.0555762  0.0885626  
  0.407743  0.0725224   0.110497  
  0.390206  0.0482751  0.0817458  
  0.385224  0.0549476  0.0878938  
  0.348443  0.0239316  0.0725977  
  0.352769  0.0160229  0.0823334  
  0.350382   0.019861  0.0780081  
  0.362637 0.000662986  0.0216481  
  0.369606 -0.00733204 -0.00852419  
  0.359174 0.00730242  0.0129168  
  0.361129 0.00397945  0.0170734  
  0.331912 -0.0312438 0.00382849  
  0.303578 -0.0481886 -0.0181027  
  0.321119 -0.0239388  0.0106516  
  0.326101 -0.0306142 0.00450002  
  0.456237 -0.0446879 -0.0912982  
  0.434717 -0.0487199 -0.0499448  
  0.480312 -0.0529315 -0.0546243  
  0.520587 -0.0465907  -0.102889  
  0.470986 -0.0502684 -0.0742871  
  0.480263  0.0855385   0.214401  
   0.43235  0.0751185   0.185005  
   0.43686  0.0684428   0.223184  
  0.495234  0.0792273    0.26945  
  0.459628  0.0784103    0.22286  
   0.23171 -0.0612583  -0.120777  
  0.282202 -0.0504123   -0.08701  
  0.274913 -0.0445861  -0.127507  
  0.212547 -0.0551555  -0.179596  
  0.252448 -0.0543052  -0.128035  
  0.252854   0.068937   0.186387  
  0.275304  0.0731337    0.14359  
   0.23071  0.0772585   0.147219  
  0.189128  0.0706927   0.196345  
  0.238875  0.0745338   0.167894  
   0.59258 -0.0347532 -0.0902059  
  0.538833 -0.0391469  -0.154145  
  0.568318  -0.038025  -0.124554  
   0.20721 -0.0485172  -0.240905  
  0.150147 -0.0552758   -0.20255  
  0.176591 -0.0527688  -0.225487  
  0.500249  0.0725773   0.329297  
  0.561118  0.0795818   0.295275  
  0.532423  0.0771556   0.316385  
  0.118358  0.0589757   0.182817  
     0.171  0.0632179   0.247786  
  0.141968   0.062106    0.21755  
  0.299125 0.00586779   0.034586  
   0.31572 -0.0172816  0.0162634  
  0.306928 -0.00804657   0.023351  
   0.35539  0.0101416 -0.0107636  
  0.357994 0.00905743 0.00767348  
  0.356947  0.0100045 -0.00193882  
  0.412205  0.0184734  0.0578139  
  0.395611  0.0416213  0.0761367  
  0.404402  0.0323872  0.0690491  
  0.360397  0.0189382  0.0902485  
  0.358473  0.0160416  0.0859074  
  0.363823  0.0206692   0.154491  
   0.36913  0.0256085   0.156788  
  0.362669  0.0203947   0.121256  
  0.374399  0.0328738   0.146233  
  0.366696  0.0287474  0.0965655  
  0.363426  0.0235283  0.0949452  
  0.365955  0.0317598  0.0701189  
  0.367785  0.0413826  0.0752616  
   0.36351  0.0288256  0.0628588  
  0.346021  0.0393772  0.0712673  
  0.348711  0.0269884  0.0622781  
   0.34971  0.0266408  0.0591377  
  0.365113 -0.0146585  0.0215129  
  0.362555 -0.00250971   0.030366  
  0.361571 -0.00218424  0.0333748  
  0.345437 -0.00729781  0.0224584  
  0.343635 -0.0168782   0.017318  
  0.347845 -0.00442833  0.0296074  
  0.332527  0.0515207  0.0797772  
  0.322794  0.0429005  0.0692832  
  0.294221  0.0630861  0.0876274  
  0.327173  0.0498478  0.0766692  
  0.347636 -0.000699416  0.0102121  
  0.351165 0.00553711 0.00493785  
    0.3409 -0.00651345 -0.0325231  
  0.349264 0.00241466 0.00682018  
  0.378722 -0.0271409  0.0126658  
   0.38851 -0.0185487  0.0231239  
  0.416984  -0.038717 0.00480357  
  0.384091 -0.0254692  0.0157619  
   0.38226 -0.0245141 -0.0159289  
  0.409928 -0.0395436 -0.0443344  
   0.41526 -0.0342534  -0.072544  
  0.383685 -0.0201342 -0.0333381  
  0.396249 -0.0302819 -0.0413383  
  0.405783  0.0739936   0.124245  
  0.428751  0.0793137    0.15944  
  0.463562  0.0874439    0.17345  
  0.427423    0.08133   0.133182  
  0.430674  0.0821445   0.147136  
  0.306203 -0.0493683 -0.0311323  
  0.283869 -0.0547234 -0.0653572  
  0.248672 -0.0630365 -0.0800769  
   0.28405 -0.0569568   -0.04065  
  0.281449 -0.0576319 -0.0539205  
  0.327553  0.0492107   0.112307  
  0.299513  0.0640598   0.139607  
  0.291875  0.0588892   0.172406  
  0.312496  0.0549572   0.139324  
  0.235899 -0.0583862 -0.0498491  
  0.198441  -0.063762 -0.0904169  
    0.1302 -0.0489276 -0.0797479  
  0.188043 -0.0565978 -0.0655221  
  0.475693  0.0827539   0.142417  
  0.513195  0.0881081   0.183119  
  0.581261  0.0732728   0.172277  
  0.523497  0.0809498   0.158069  
  0.387163   -0.01429 -0.0747116  
  0.420593 -0.0276105  -0.114817  
  0.414153 -0.0206293  -0.175095  
  0.399768 -0.0166099  -0.119674  
  0.369271  0.0341499  0.0902704  
  0.381294  0.0538151   0.102893  
  0.368189  0.0340748  0.0796582  
  0.331477  0.0584796  0.0873676  
  0.332745  0.0531134  0.0908385  
  0.339912  0.0505272  0.0812137  
  0.379425   -0.03372  0.0054516  
  0.378096 -0.0285213 0.00225137  
  0.371117 -0.0257696   0.011613  
  0.342484 -0.0092164 0.00368324  
  0.330849 -0.0287118 -0.0089426  
  0.343397 -0.00934734  0.0134856  
  0.545615  0.0862096   0.235574  
  0.611419  0.0748945   0.239278  
  0.589449  0.0786578   0.270569  
  0.232765  0.0624646     0.2443  
  0.226796  0.0595684   0.303751  
   0.19664     0.0616   0.278509  
  0.472487 -0.0378945  -0.146781  
  0.478852 -0.0346716  -0.205649  
  0.510659 -0.0373981  -0.183229  
  0.165777  -0.061896  -0.142735  
  0.100027 -0.0505835  -0.146712  
  0.121926 -0.0543481   -0.17789  
  0.370175 -0.00329239 -0.0394665  
  0.362514 0.00408236 -0.0180476  
  0.268885 -0.0480673 -0.0225418  
  0.289234 -0.0351001 -0.00349676  
  0.442472  0.0724153   0.114963  
  0.422113  0.0594463  0.0959074  
  0.284153  0.0528322   0.219204  
  0.279168  0.0505017    0.28679  
  0.319194  0.0365402   0.247682  
  0.300331  0.0443353   0.237278  
    0.3947 -0.0383687 -0.0180585  
  0.371353 -0.0164267 0.00726584  
  0.381402 -0.0280693 -0.00691244  
  0.398916  0.0658413   0.131575  
  0.384559    0.06065   0.100307  
   0.39286  0.0652282   0.115666  
  0.313956 -0.0407336 -0.0367443  
  0.326926 -0.0361921 -0.00771271  
  0.319279 -0.0403739 -0.0221283  
  0.315406  0.0630431   0.112046  
  0.339145  0.0413203  0.0874365  
  0.328832  0.0528507   0.101395  
  0.333266  0.0424442   0.312521  
  0.355966  0.0293188    0.25908  
  0.342212  0.0255469   0.211533  
  0.337532  0.0318162   0.258641  
  0.604748     0.0322  0.0978161  
  0.638981  0.0529639    0.15534  
  0.661116  0.0160261  0.0711278  
  0.656773  0.0346817   0.116192  
   0.29157  0.0564003   0.345914  
  0.362956  0.0559585   0.363897  
  0.327169  0.0561449   0.360085  
  0.362834 -0.0117088  -0.198741  
  0.404122 -0.0252286  -0.233615  
    0.3362 -0.0306512   -0.26814  
  0.372719 -0.0272667   -0.25615  
  0.106581 -0.00785043 -0.00540043  
 0.0723508 -0.0286194 -0.0629204  
  0.050202 0.00831438  0.0212746  
 0.0545547 -0.0103384 -0.0237822  
  0.104833  0.0371906  0.0733285  
 0.0716687  0.0393059   0.107386  
 0.0553138  0.0243411  0.0645958  
  0.606451 -0.0128503  0.0190874  
  0.639626 -0.0149722 -0.0149646  
   0.65599 -3.66588e-06  0.0278122  
  0.308662 -0.0224906  -0.219038  
  0.267363 -0.0386923  -0.266566  
  0.301081  -0.034666  -0.272604  
  0.257314  0.0578585   0.328864  
 0.0798982 -0.0414829  -0.106876  
  0.631503  0.0658123   0.199358  
  0.441749 -0.0304187  -0.225953  
  0.266641  0.0614852   0.205208  
  0.499772  0.0890089   0.201828  
  0.212131 -0.0646848  -0.108671  
  0.439658 -0.0368888  -0.106076  
  0.389564  0.0418373   0.300549  
  0.430657  0.0577091   0.340473  
  0.400721  0.0562405   0.358449  
  0.556567 -0.00185587  0.0457885  
  0.493574  0.0114428  0.0589451  
  0.548481  0.0214792  0.0748002  
  0.338148 -0.00593427  -0.157233  
   0.35143 0.00426845 -0.0903336  
  0.353778 -0.0012913   -0.14246  
  0.154743  0.0261997  0.0466151  
  0.217744  0.0129015  0.0334571  
  0.162843 0.00286823  0.0176071  
  0.383505  0.0339303   0.227737  
  0.363413  0.0224386   0.199505  
  0.372634  0.0301109   0.248115  
  0.373311  0.0505511  0.0841029  
  0.347929  0.0264222  0.0670698  
  0.363184 -0.00179717  0.0261988  
  0.338087 -0.0261176 0.00839829  
  0.567949 -0.0403184  -0.049458  
  0.619967 -0.0259987 -0.0545559  
  0.437666  0.0592345   0.281619  
  0.466199  0.0657824    0.34052  
  0.258838 -0.0389847  -0.205762  
   0.23531  -0.043719  -0.257981  
  0.142989  0.0645787   0.142004  
 0.0911303  0.0502669   0.147031  
  0.537934 -0.0376694 -0.0109907  
   0.50483 -0.0268575  0.0159859  
   0.55299 -0.0216887  0.0167798  
  0.304122 -0.0223862  -0.160013  
  0.331374 -0.00768758  -0.114831  
  0.321032 -0.0133906  -0.163393  
  0.173327  0.0620088   0.103415  
  0.206449  0.0511998    0.07642  
  0.158291  0.0460302  0.0756299  
  0.353512  0.0183597   0.166053  
  0.350862  0.0178505   0.123255  
  0.347047  0.0210502   0.165151  
  0.467364 -0.0518633 -0.0260571  
  0.512195 -0.0491507 -0.0374209  
  0.397117  0.0525288   0.172263  
  0.394883  0.0433075   0.209118  
  0.415143  0.0560262   0.220902  
   0.30797 -0.0289413  -0.100131  
  0.286891 -0.0339068   -0.14789  
  0.243856  0.0762089   0.118498  
   0.19891  0.0734729   0.129906  
  0.355641    0.01353   0.085662  
  0.354307  0.0142269  0.0849989  
  0.379785  0.0335846    0.18463  
  0.253031  0.0626224  0.0877672  
  0.284014   0.074915   0.109758  
  0.267343  0.0717617   0.101561  
  0.458234 -0.0382753 0.00464358  
  0.427172 -0.0505418 -0.0172859  
  0.443871 -0.0474063 -0.00912658  
   0.33424 -0.00877556 -0.0735379  
  0.322257 -0.0252689 -0.0574754  
  0.327408 -0.0173112 -0.0673811  
  0.241935  0.0358338  0.0575793  
  0.315691  0.0205548   0.048861  
  0.268499  0.0188627  0.0431643  
  0.345995 0.00250411 -0.0724509  
  0.354159 0.00990854 0.00314585  
  0.352414 0.00757279  -0.042421  
  0.469376 -0.0114903   0.034822  
   0.39563 0.00378622  0.0435374  
  0.442821 0.00547943  0.0492356  
  0.273788 -0.0555829 -0.0343503  
  0.437644  0.0799448   0.126824  
  0.377252 -0.0115051 -0.0383242  
  0.300519  0.0709434   0.115315  
   0.31148  0.0697241  0.0992806  
  0.314677 -0.0359005 -0.0491895  
  0.333792 -0.0181735 -0.0242359  
  0.399341  0.0612464   0.147373  
  0.380815  0.0448017   0.126684  
  0.410287 -0.0465295 -0.0224556  
  0.399518 -0.0452303 -0.00666126  
  0.357035  0.0156873   0.127614  
  0.359271  0.0183946   0.162779  
  0.357001  0.0142248  0.0869918  
  0.298021  0.0689335   0.127292  
  0.413906  0.0712611   0.155898  
  0.299711 -0.0462888 -0.0597396  
  0.412002 -0.0444075  -0.033415  
  0.280993  0.0477879  0.0705675  
   0.24506  0.0507652  0.0734963  
  0.346608 0.00182041 -0.0376776  
  0.340155 -0.00257701 -0.0749228  
  0.430296 -0.0234412  0.0218355  
  0.466224 -0.0264206  0.0189074  
  0.318572  0.0329262  0.0598611  
  0.352723 0.00799605 0.00316249  
  0.392738 -0.00858078  0.0325413  
  0.123983  0.0284575   0.152363  
  0.593946 -0.00664896  -0.074718  
  0.218829 -0.0364424  -0.219219  
  0.500995  0.0659943   0.340615  
  0.440321 -0.0314131  -0.204148  
  0.267201  0.0568807   0.303149  
  0.613374  0.0391328    0.18272  
 0.0947109 -0.0159826 -0.0968612  
  0.607359  0.0501286   0.245253  
  0.529083  0.0379058    0.18059  
  0.526538  0.0199491  0.0796075  
  0.456719  0.0231081   0.101564  
   0.46573 0.00501897 -0.000661764  
   0.41164  0.0129094  0.0469751  
      0.35  0.0248445   0.117715  
  0.290528 0.00663394  0.0190407  
  0.354705 -0.00494544 -0.0498547  
  0.274774  0.0252956   0.124847  
  0.235048  0.0147525  0.0680273  
  0.347091  0.0443769   0.227663  
  0.445276  0.0340894   0.163972  
  0.424617 -0.00513822 -0.0552162  
  0.362847 -0.0225678  -0.149412  
  0.259967 -0.0183667  -0.119678  
  0.245463 -0.00367793 -0.0362166  
  0.517142 -0.00566948 -0.0640734  
  0.172133 -0.0172737  -0.108509  
  0.183047  0.0220914    0.11258  
  0.248319  0.0375454   0.195419  
  0.353017  0.0612653   0.322381  
  0.170781  0.0429669   0.231161  
  0.619894  0.0235359  0.0941876  
  0.172989 -0.00035638 -0.0132272  
 0.0879373 -0.000826171 -0.0107843  
  0.153165 -0.0314375  -0.187428  
  0.535928  0.0547182   0.275043  
  0.433918 -0.0158879  -0.116262  
  0.359374 -0.0374219  -0.232841  
  0.515401 -0.0238794  -0.166699  
  0.557167 0.00794515  0.0100939  
  0.148469  0.0125115  0.0607748  
 0.0967889 -0.0264257  -0.156072  
  0.436797  0.0492011   0.249483  
  0.613491 0.00781659 0.00576184  
 0.0957882  0.0143105  0.0742682  
  0.306716 -0.0269566   -0.17074  
  0.284791 -0.0387282   -0.23578  
  0.569394  -0.018758  -0.141516  
  0.208586  0.0543749   0.293003  
  0.439731  0.0642827   0.334305  
  0.310107  0.0590805   0.312756  
  0.257763  0.0472195   0.249297  
    0.2977  0.0409663   0.211534  
  0.350054  0.0528268   0.275032  
  0.303905  0.0500297   0.262156  
  0.270871  0.0654522   0.351293  
  0.360169  0.0703709   0.373287  
  0.315366  0.0681985   0.363853  
  0.399852 -0.0344229  -0.218487  
  0.437112 -0.0236567  -0.160213  
  0.398387 -0.0192306  -0.132833  
   0.36111 -0.0299994  -0.191135  
  0.399116 -0.0268322  -0.175668  
  0.239415  -0.027415  -0.169451  
  0.216045 -0.0178225  -0.114093  
   0.16266 -0.0243614   -0.14797  
   0.18599  -0.033941  -0.203327  
  0.201031   -0.02589  -0.158711  
  0.522562  0.0711708   0.368754  
  0.518466  0.0603583   0.307838  
  0.575918  0.0614118   0.310777  
  0.550221  0.0665492   0.341181  
   0.14738  0.0357116   0.191771  
  0.141349  0.0470245   0.256199  
 0.0885859  0.0318532    0.17401  
  0.113782  0.0395696   0.215946  
   0.43855 -0.0405466  -0.255595  
  0.351694 -0.0462799  -0.282318  
  0.395278 -0.0436997  -0.270521  
  0.051863 -0.0163697 -0.0966479  
 0.0913384 -0.00840534 -0.0538256  
  0.043993 -0.000335193 -0.00534399  
 0.0464336 -0.00844057 -0.0514067  
  0.267998 0.00147596 -0.00858615  
  0.252717 -0.0110241 -0.0779521  
  0.307346  -0.011663 -0.0847606  
  0.322613 0.00084331 -0.0154092  
  0.287671 -0.00509438 -0.0466776  
  0.477867 -0.0276485   -0.18542  
  0.519659  -0.031929  -0.212512  
  0.479654 -0.0364848  -0.235467  
   0.26279  0.0106953  0.0435313  
  0.320264   0.015739    0.06838  
  0.312388  0.0250719   0.121278  
   0.25491  0.0200236  0.0964392  
  0.287589  0.0178832  0.0824074  
  0.383175 0.00398112 -0.00144215  
  0.380821  0.0188772  0.0823465  
  0.351718 0.00985973  0.0334686  
   0.38966 -0.0050438 -0.0525328  
  0.445175 -5.95818e-05 -0.0279408  
  0.438682 0.00896181   0.023159  
  0.414172 0.00195872 -0.0146895  
  0.397633  0.0294709   0.140839  
  0.434178  0.0180102  0.0742681  
  0.450996  0.0285994    0.13277  
  0.415906  0.0237407   0.107556  
  0.496131  0.0124873  0.0394673  
   0.49163  0.0215273  0.0905886  
  0.465153  0.0152469  0.0568707  
  0.527798  0.0289299   0.130101  
  0.487179  0.0360008   0.172278  
  0.489399  0.0287652   0.131435  
  0.441035  0.0416485   0.206734  
  0.532494  0.0463178   0.227821  
  0.486359   0.051968   0.262254  
  0.486763  0.0439886   0.217272  
  0.657843  0.0401154   0.185775  
  0.616619  0.0313351   0.138457  
  0.665588  0.0238609  0.0932431  
  0.663209  0.0320762    0.13992  
  0.348548  0.0346157   0.172696  
  0.261554  0.0314247   0.160134  
   0.30505  0.0330234   0.166411  
  0.358773 -0.0137615 -0.0996402  
  0.429264 -0.0105154 -0.0857411  
  0.394019 -0.0121407 -0.0926873  
  0.209224 -0.00201612 -0.0247246  
  0.172572 -0.00881784 -0.0608708  
  0.212641 -0.00992142 -0.0694127  
  0.193024 -0.0442311  -0.261858  
  0.124286 -0.0375958  -0.220776  
  0.157673 -0.0411712  -0.242728  
  0.153523  0.0252808   0.132466  
  0.215679  0.0298175   0.154006  
  0.209562  0.0402658   0.213282  
   0.18154  0.0327724   0.172882  
  0.573219  0.0217436   0.086898  
  0.571232  0.0385213   0.181655  
  0.572211  0.0301342   0.134279  
  0.204023 0.00719351  0.0274061  
  0.236011 0.00433645  0.0094067  
  0.209052  0.0184258  0.0902999  
  0.235302  0.0249246   0.125221  
  0.237893  0.0556306   0.298072  
  0.189679  0.0486714   0.262087  
  0.223727  0.0479513   0.255686  
   0.13046 -0.000590628 -0.0120083  
  0.133417 -0.0166286  -0.102687  
  0.131952 -0.00861157 -0.0573504  
  0.541844  0.0139435  0.0448537  
  0.585329 0.00787926 0.00793023  
  0.616676  0.0156758  0.0499718  
  0.579262   0.014809  0.0474149  
  0.391941  0.0467947   0.238566  
  0.394787  0.0381369   0.189709  
  0.571651  0.0524238   0.260152  
  0.638602  0.0530951   0.260406  
  0.608511  0.0574655   0.286746  
  0.610361  0.0446321   0.213989  
  0.649642  0.0467614   0.223901  
  0.537153 0.00113904 -0.0269955  
  0.491426 -0.000331421 -0.0323642  
  0.516633 0.00680826 0.00623908  
  0.475537 -0.0107795 -0.0901673  
  0.460349 -0.00542347 -0.0590541  
  0.555541 -0.00616433 -0.0693895  
  0.516259 -0.0147818  -0.115395  
  0.542401 -0.0213194  -0.154107  
  0.581668 -0.0127044  -0.108123  
  0.548964 -0.0137456  -0.111756  
  0.396374  0.0627817   0.328333  
   0.44952  0.0722643   0.378827  
  0.405096  0.0716182   0.377671  
  0.283336 -0.0226636  -0.145212  
  0.334783 -0.0247648  -0.160073  
   0.32106  -0.018217  -0.122422  
 0.0691351 -0.0290729  -0.169618  
 0.0957557 -0.0212058  -0.126469  
 0.0590799 -0.0228776  -0.133943  
  0.571433   0.045476   0.220907  
  0.654869 0.00713722 -0.000798323  
  0.603709 0.000583014 -0.0344845  
  0.626049 -0.00877587 -0.0889904  
  0.641837 -0.000879709 -0.0453433  
  0.476693  -0.019221  -0.137802  
 0.0554374  0.0160977  0.0870107  
  0.109893  0.0213832   0.113323  
 0.0706325  0.0240351   0.130959  
  0.322081 -0.0380813  -0.234304  
  0.268411 -0.0473245  -0.283365  
    0.3098 -0.0471018  -0.284458  
  0.251805 -0.0375884  -0.227498  
  0.230077 -0.0460661  -0.274178  
  0.584411 -0.0227454  -0.165183  
  0.606413 -0.0158917  -0.127927  
  0.197993  0.0593424   0.321856  
  0.233886  0.0626448   0.337987  
  0.470363  0.0651415   0.337456  
  0.486678  0.0720051   0.375356  
   0.16877  0.0533774   0.290198  
  0.160738 0.00608036  0.0237709  
  0.122129  0.0134131  0.0675187  
 0.0918776 0.00674201  0.0317447  
  0.126306 0.00641276  0.0277546  
 0.0482344  0.0078673  0.0408546  
  0.165759  0.0173001  0.0866802  
  0.184898  0.0122504  0.0570398  
  0.661709  0.0155127   0.046201  
  0.552935 -0.0275316  -0.190014  
  0.124972  -0.028931  -0.171755  
 0.0954614 -0.0335462  -0.196351  
   0.57043 0.000857913 -0.0307359  
  0.129203 -0.0227836  -0.137223  
  0.438261   0.056747   0.291902  
  0.478362  0.0585584   0.299863  
  0.394156  0.0547939   0.283458  
   0.13783  0.0193457   0.099997  
  0.295758 -0.0328462  -0.203263  
   0.26758 -0.0301328  -0.186358  
  0.328435  -0.031427  -0.197194  
  0.363048  0.0177466  0.0532861  
  0.362347  0.0162013  0.0519918  
  0.362121  0.0144588   0.050337  
   0.36235  0.0124855  0.0477907  
  0.363333    0.01812  0.0540416  
  0.363124   0.017594  0.0541901  
  0.363093  0.0162828  0.0531032  
  0.363257   0.015048  0.0514701  
  0.358952  0.0163486  0.0514258  
  0.359236   0.016283  0.0520271  
   0.35941  0.0154829  0.0515417  
  0.359567   0.014831  0.0508147  
  0.355226  0.0126539  0.0462233  
  0.355544  0.0124359  0.0463316  
  0.355804  0.0118575  0.0460879  
  0.356129  0.0116452  0.0462051  
  0.351698 0.00956104  0.0416094  
  0.351839 0.00889719  0.0408419  
  0.352011 0.00809613  0.0403543  
  0.352311 0.00804233  0.0409921  
  0.348107 0.00928938  0.0409766  
  0.348247 0.00805247  0.0393314  
  0.348214  0.0067423  0.0382457  
  0.348009 0.00621413  0.0384112  
  0.348977   0.011857  0.0446089  
  0.349206 0.00988419  0.0420628  
  0.348978 0.00814205  0.0404076  
  0.348276 0.00659731  0.0391137  
  0.364062  0.0174549  0.0524403  
  0.360077  0.0167917  0.0517223  
  0.361297  0.0170451  0.0522708  
  0.362912  0.0171497  0.0527794  
  0.359523  0.0147988  0.0497716  
  0.359942  0.0158277  0.0507575  
  0.362213  0.0153491  0.0512097  
  0.359236   0.012885  0.0479079  
  0.359355  0.0138514  0.0488639  
  0.362404  0.0135005  0.0491807  
  0.359192  0.0106736   0.045276  
  0.359297  0.0118545  0.0467232  
  0.363026  0.0124437  0.0470443  
  0.359988  0.0103303  0.0438738  
  0.363249  0.0173086  0.0521526  
  0.364102  0.0182081  0.0539988  
  0.364583  0.0175581  0.0525247  
  0.363479  0.0181354  0.0544015  
  0.363596  0.0172278  0.0535581  
  0.364117  0.0179869  0.0540643  
  0.363049  0.0169602  0.0537058  
  0.363461  0.0156716  0.0521642  
  0.363484  0.0164777  0.0529239  
  0.363425  0.0156829  0.0523564  
  0.363697  0.0140546  0.0500475  
  0.363816  0.0148961  0.0511908  
  0.363203  0.0150948  0.0508537  
  0.363959  0.0141822  0.0494535  
  0.358563   0.015829  0.0501863  
  0.361341  0.0174396  0.0530868  
  0.361104  0.0168382  0.0515998  
  0.359241  0.0165452  0.0519599  
  0.361458  0.0172723  0.0536648  
  0.361647  0.0176641  0.0537106  
  0.359295  0.0159013  0.0518285  
  0.361537  0.0162381   0.052911  
  0.361465   0.016785  0.0533542  
  0.359667  0.0151691  0.0512378  
  0.361625  0.0153218  0.0517072  
  0.361851  0.0158046  0.0524128  
  0.359528  0.0148268  0.0503975  
  0.361608  0.0153091  0.0512504  
  0.354954  0.0124643  0.0459635  
  0.356953  0.0145507  0.0490051  
  0.356592  0.0142357  0.0483382  
  0.355359  0.0126258  0.0463356  
  0.357302  0.0144709  0.0494617  
  0.357195  0.0146785  0.0494061  
  0.355673  0.0121453  0.0462083  
   0.35754  0.0138357  0.0491562  
  0.357411  0.0141671  0.0493384  
  0.355986  0.0116635   0.046079  
  0.357779  0.0134226  0.0488431  
  0.357767  0.0136088  0.0490309  
  0.356385  0.0118153   0.046434  
  0.357902  0.0134867  0.0487496  
  0.351689 0.00953154  0.0419216  
  0.353606  0.0109239  0.0435675  
  0.353493  0.0108556  0.0436531  
  0.351572 0.00920208  0.0411342  
  0.353846  0.0105094  0.0432514  
   0.35362  0.0107365  0.0433775  
  0.351946 0.00847304  0.0405486  
  0.354084 0.00987248  0.0429444  
  0.353975  0.0101784  0.0430693  
  0.351996 0.00782651  0.0404129  
  0.354434 0.00978659  0.0433976  
  0.354191 0.00966824  0.0430031  
  0.352657 0.00852993  0.0421335  
  0.354796  0.0101238  0.0440854  
  0.348111 0.00922286  0.0415534  
  0.349649 0.00903682  0.0406659  
  0.349661 0.00902624  0.0411348  
  0.347908 0.00865039  0.0400703  
  0.349737 0.00811348  0.0394651  
  0.349422 0.00854626  0.0399667  
  0.348286 0.00737478  0.0387267  
  0.349818 0.00707738  0.0387135  
  0.349808 0.00756679  0.0390231  
  0.347857 0.00619854  0.0380289  
  0.349943 0.00689917  0.0392988  
  0.349624  0.0066904  0.0386655  
   0.34808 0.00703643  0.0402443  
  0.350161 0.00753533   0.040772  
  0.348302  0.0118918  0.0453516  
  0.347633  0.0102727  0.0423486  
  0.347376  0.0101362  0.0429573  
  0.348921  0.0108424  0.0432168  
  0.347869 0.00865591    0.04024  
  0.347517 0.00943166  0.0412162  
  0.349113 0.00899422  0.0411888  
  0.347737 0.00709991  0.0388477  
  0.347848 0.00785049  0.0394819  
  0.348415  0.0071941  0.0396192  
  0.347233 0.00611889  0.0384071  
  0.347215 0.00634208  0.0383421  
  0.347267 0.00689054  0.0399586  
  0.346748 0.00677856  0.0398778  
  0.352131  0.0136619   0.047122  
  0.351339  0.0140019  0.0485226  
  0.352087  0.0114519  0.0444903  
  0.352027  0.0124824  0.0456752  
  0.351801 0.00953833  0.0426268  
  0.351969  0.0104858  0.0435346  
  0.351248 0.00754517  0.0406774  
  0.351382 0.00850959  0.0416407  
  0.350029 0.00729716  0.0401294  
  0.359222  0.0573312  0.0843976  
  0.359134  0.0603709  0.0874132  
  0.358866  0.0589723  0.0861083  
  0.358376  0.0531071  0.0798612  
  0.360475  0.0796021   0.100533  
  0.360831  0.0860543   0.107051  
  0.360698   0.085787   0.107018  
  0.360313  0.0788523   0.100246  
  0.359514  0.0628447  0.0850167  
  0.359715  0.0693741   0.091428  
  0.359587  0.0703605  0.0926638  
  0.359207  0.0663838  0.0890097  
  0.355749  0.0095025  0.0433655  
  0.355702  0.0114064  0.0453273  
  0.355628  0.0129334   0.047071  
  0.355581  0.0148369   0.049033  
  0.352124 -0.0420451  0.0033895  
  0.351743 -0.0460214 -0.00026524  
  0.351615 -0.0450347 0.000970566  
  0.351816 -0.0385044 0.00738311  
  0.351012  -0.054511 -0.00784257  
   0.35063 -0.0614506 -0.0146206  
  0.350498 -0.0617168 -0.0146537  
  0.350854 -0.0552515 -0.00812871  
  0.352944 -0.0287555  0.0125511  
  0.352459 -0.0346334 0.00628781  
   0.35219 -0.0360324 0.00498275  
  0.352106 -0.0329849 0.00800954  
  0.358909  0.0558543  0.0791084  
  0.357827  0.0374533  0.0681969  
  0.357746  0.0374707  0.0663858  
  0.359282   0.060993  0.0869142  
  0.357565  0.0380337  0.0685998  
  0.357727   0.038964  0.0689538  
  0.359015  0.0601035  0.0870653  
  0.357253  0.0362852  0.0668755  
  0.357414  0.0373705  0.0679019  
  0.358702   0.057876  0.0838295  
  0.356798  0.0321436  0.0623646  
  0.357081  0.0350444  0.0650175  
  0.358194  0.0496473  0.0720223  
  0.356683  0.0296468   0.056977  
  0.360372  0.0755328  0.0908672  
   0.36032  0.0720742  0.0956882  
  0.359529  0.0695077  0.0879829  
  0.360956  0.0857603   0.105091  
  0.360295  0.0772975   0.100944  
  0.360348  0.0775229   0.099643  
  0.360795   0.086541   0.107447  
  0.360029   0.076437   0.100224  
  0.360174  0.0774469   0.100985  
   0.36055  0.0853929   0.104955  
  0.359428  0.0696286  0.0931801  
  0.359919  0.0756253   0.097905  
  0.359762  0.0753342  0.0900821  
   0.35938  0.0656612  0.0837043  
  0.359074  0.0599003  0.0774675  
  0.360322  0.0764281  0.0965454  
  0.359881  0.0733727  0.0882616  
    0.3597   0.068582  0.0892372  
  0.360594  0.0837241   0.103892  
  0.360632  0.0833212   0.101779  
  0.359667  0.0704324  0.0923352  
  0.360455  0.0841475   0.104562  
  0.360554  0.0846872   0.104666  
  0.359554   0.071032  0.0920242  
  0.360013   0.078056  0.0985885  
  0.360383  0.0844245   0.103199  
  0.359055  0.0655809  0.0836585  
   0.35974  0.0762534  0.0911302  
  0.355659 0.00794121  0.0413524  
   0.35765  0.0390192  0.0659286  
  0.357562  0.0367789  0.0610558  
  0.355719  0.0103265  0.0441974  
  0.357819  0.0437093  0.0706029  
  0.357856  0.0427566  0.0688514  
  0.355665  0.0121699  0.0461992  
   0.35776  0.0451021  0.0722179  
  0.357802  0.0447528  0.0715928  
  0.355611  0.0140131  0.0482009  
  0.357616  0.0438616  0.0712016  
  0.357705   0.046103  0.0725267  
   0.35567   0.016398  0.0510457  
  0.357366  0.0445597  0.0696229  
  0.352277 -0.0412425 0.00873902  
  0.353714 -0.0195221  0.0211969  
  0.353964 -0.0202207  0.0227754  
  0.351777 -0.0466931 0.00037437  
   0.35357 -0.0207624  0.0201805  
  0.353625 -0.0217635  0.0198717  
  0.351663 -0.0460934 6.31546e-05  
  0.353511 -0.0193696  0.0217953  
  0.353528 -0.0204131  0.0208055  
   0.35163 -0.0442435 0.00316079  
   0.35368 -0.0146798  0.0264696  
  0.353474  -0.018417  0.0235469  
  0.352254 -0.0355639  0.0149283  
  0.353767 -0.0124401  0.0313422  
  0.351576 -0.0510076 0.00230158  
  0.351317 -0.0537174 -0.00618929  
  0.351593 -0.0519157 0.00126853  
   0.35078 -0.0610601 -0.0125562  
  0.350875  -0.059809 -0.0121635  
  0.350947 -0.0600866    -0.0108  
  0.350534 -0.0622069 -0.0150485  
  0.350735 -0.0593857 -0.0114941  
  0.350775 -0.0603488 -0.0122672  
  0.350373 -0.0614285 -0.0126929  
  0.351009 -0.0520896 -0.00414779  
  0.350697 -0.0589829 -0.00938032  
  0.350952 -0.0512204 0.00151329  
  0.351443  -0.049037 0.00413577  
  0.353143 -0.0253319   0.020347  
  0.351894 -0.0452774 -0.0007652  
  0.351961 -0.0413412 0.00866638  
  0.352623 -0.0335437 0.00856614  
  0.351297 -0.0520964 -0.0078258  
  0.351407 -0.0512914 -0.00550788  
  0.352309 -0.0357689 0.00533031  
  0.351031 -0.0529565 -0.00854564  
  0.351152 -0.0531107 -0.00858787  
  0.352041 -0.0366602 0.00548077  
   0.35101 -0.0477206 -0.00327795  
  0.350977 -0.0531893 -0.00724628  
  0.352404 -0.0315296  0.0132679  
  0.351782 -0.0451892 0.00439093  
  0.354526 -0.00779548  0.0300407  
  0.354647 -0.00531876  0.0354114  
  0.354072 -0.0119437  0.0255235  
  0.354243 -0.0107056  0.0273821  
  0.353759 -0.0136929  0.0237993  
   0.35391 -0.0130307  0.0244971  
  0.353499  -0.013112   0.024205  
  0.353596 -0.0146246   0.023445  
  0.353572 -0.0131327  0.0260064  
  0.348977   0.011857  0.0446089  
  0.349206 0.00988419  0.0420628  
  0.348978 0.00814205  0.0404076  
  0.348276 0.00659731  0.0391137  
  0.348107 0.00928938  0.0409766  
  0.348247 0.00805247  0.0393314  
  0.348214  0.0067423  0.0382457  
  0.348009 0.00621413  0.0384112  
  0.351698 0.00956104  0.0416094  
  0.351839 0.00889719  0.0408419  
  0.352011 0.00809613  0.0403543  
  0.352311 0.00804233  0.0409921  
  0.355226  0.0126539  0.0462233  
  0.355544  0.0124359  0.0463316  
  0.355804  0.0118575  0.0460879  
  0.356129  0.0116452  0.0462051  
  0.358952  0.0163486  0.0514258  
  0.359236   0.016283  0.0520271  
   0.35941  0.0154829  0.0515417  
  0.359567   0.014831  0.0508147  
  0.363333    0.01812  0.0540416  
  0.363124   0.017594  0.0541901  
  0.363093  0.0162828  0.0531032  
  0.363257   0.015048  0.0514701  
  0.363048  0.0177466  0.0532861  
  0.362347  0.0162013  0.0519918  
  0.362121  0.0144588   0.050337  
   0.36235  0.0124855  0.0477907  
  0.348302  0.0118918  0.0453516  
  0.352131  0.0136619   0.047122  
  0.351339  0.0140019  0.0485226  
  0.348921  0.0108424  0.0432168  
  0.352087  0.0114519  0.0444903  
  0.352027  0.0124824  0.0456752  
  0.349113 0.00899422  0.0411888  
  0.351801 0.00953833  0.0426268  
  0.351969  0.0104858  0.0435346  
  0.348415  0.0071941  0.0396192  
  0.351248 0.00754517  0.0406774  
  0.351382 0.00850959  0.0416407  
  0.347267 0.00689054  0.0399586  
  0.350029 0.00729716  0.0401294  
  0.348111 0.00922286  0.0415534  
  0.347633  0.0102727  0.0423486  
  0.347376  0.0101362  0.0429573  
  0.347908 0.00865039  0.0400703  
  0.347869 0.00865591    0.04024  
  0.347517 0.00943166  0.0412162  
  0.348286 0.00737478  0.0387267  
  0.347737 0.00709991  0.0388477  
  0.347848 0.00785049  0.0394819  
  0.347857 0.00619854  0.0380289  
  0.347233 0.00611889  0.0384071  
  0.347215 0.00634208  0.0383421  
   0.34808 0.00703643  0.0402443  
  0.346748 0.00677856  0.0398778  
  0.351689 0.00953154  0.0419216  
  0.349649 0.00903682  0.0406659  
  0.349661 0.00902624  0.0411348  
  0.351572 0.00920208  0.0411342  
  0.349737 0.00811348  0.0394651  
  0.349422 0.00854626  0.0399667  
  0.351946 0.00847304  0.0405486  
  0.349818 0.00707738  0.0387135  
  0.349808 0.00756679  0.0390231  
  0.351996 0.00782651  0.0404129  
  0.349943 0.00689917  0.0392988  
  0.349624  0.0066904  0.0386655  
  0.352657 0.00852993  0.0421335  
  0.350161 0.00753533   0.040772  
  0.354954  0.0124643  0.0459635  
  0.353606  0.0109239  0.0435675  
  0.353493  0.0108556  0.0436531  
  0.355359  0.0126258  0.0463356  
  0.353846  0.0105094  0.0432514  
   0.35362  0.0107365  0.0433775  
  0.355673  0.0121453  0.0462083  
  0.354084 0.00987248  0.0429444  
  0.353975  0.0101784  0.0430693  
  0.355986  0.0116635   0.046079  
  0.354434 0.00978659  0.0433976  
  0.354191 0.00966824  0.0430031  
  0.356385  0.0118153   0.046434  
  0.354796  0.0101238  0.0440854  
  0.358563   0.015829  0.0501863  
  0.356953  0.0145507  0.0490051  
  0.356592  0.0142357  0.0483382  
  0.359241  0.0165452  0.0519599  
  0.357302  0.0144709  0.0494617  
  0.357195  0.0146785  0.0494061  
  0.359295  0.0159013  0.0518285  
   0.35754  0.0138357  0.0491562  
  0.357411  0.0141671  0.0493384  
  0.359667  0.0151691  0.0512378  
  0.357779  0.0134226  0.0488431  
  0.357767  0.0136088  0.0490309  
  0.359528  0.0148268  0.0503975  
  0.357902  0.0134867  0.0487496  
  0.363249  0.0173086  0.0521526  
  0.361341  0.0174396  0.0530868  
  0.361104  0.0168382  0.0515998  
  0.363479  0.0181354  0.0544015  
  0.361458  0.0172723  0.0536648  
  0.361647  0.0176641  0.0537106  
  0.363049  0.0169602  0.0537058  
  0.361537  0.0162381   0.052911  
  0.361465   0.016785  0.0533542  
  0.363425  0.0156829  0.0523564  
  0.361625  0.0153218  0.0517072  
  0.361851  0.0158046  0.0524128  
  0.363203  0.0150948  0.0508537  
  0.361608  0.0153091  0.0512504  
  0.364062  0.0174549  0.0524403  
  0.364102  0.0182081  0.0539988  
  0.364583  0.0175581  0.0525247  
  0.362912  0.0171497  0.0527794  
  0.363596  0.0172278  0.0535581  
  0.364117  0.0179869  0.0540643  
  0.362213  0.0153491  0.0512097  
  0.363461  0.0156716  0.0521642  
  0.363484  0.0164777  0.0529239  
  0.362404  0.0135005  0.0491807  
  0.363697  0.0140546  0.0500475  
  0.363816  0.0148961  0.0511908  
  0.363026  0.0124437  0.0470443  
  0.363959  0.0141822  0.0494535  
  0.360077  0.0167917  0.0517223  
  0.361297  0.0170451  0.0522708  
  0.359523  0.0147988  0.0497716  
  0.359942  0.0158277  0.0507575  
  0.359236   0.012885  0.0479079  
  0.359355  0.0138514  0.0488639  
  0.359192  0.0106736   0.045276  
  0.359297  0.0118545  0.0467232  
  0.359988  0.0103303  0.0438738  
  0.352944 -0.0287555  0.0125511  
  0.352459 -0.0346334 0.00628781  
   0.35219 -0.0360324 0.00498275  
  0.352106 -0.0329849 0.00800954  
  0.351012  -0.054511 -0.00784257  
   0.35063 -0.0614506 -0.0146206  
  0.350498 -0.0617168 -0.0146537  
  0.350854 -0.0552515 -0.00812871  
  0.352124 -0.0420451  0.0033895  
  0.351743 -0.0460214 -0.00026524  
  0.351615 -0.0450347 0.000970566  
  0.351816 -0.0385044 0.00738311  
  0.355749  0.0095025  0.0433655  
  0.355702  0.0114064  0.0453273  
  0.355628  0.0129334   0.047071  
  0.355581  0.0148369   0.049033  
  0.359514  0.0628447  0.0850167  
  0.359715  0.0693741   0.091428  
  0.359587  0.0703605  0.0926638  
  0.359207  0.0663838  0.0890097  
  0.360475  0.0796021   0.100533  
  0.360831  0.0860543   0.107051  
  0.360698   0.085787   0.107018  
  0.360313  0.0788523   0.100246  
  0.359222  0.0573312  0.0843976  
  0.359134  0.0603709  0.0874132  
  0.358866  0.0589723  0.0861083  
  0.358376  0.0531071  0.0798612  
  0.353143 -0.0253319   0.020347  
  0.354526 -0.00779548  0.0300407  
  0.354647 -0.00531876  0.0354114  
  0.352623 -0.0335437 0.00856614  
  0.354072 -0.0119437  0.0255235  
  0.354243 -0.0107056  0.0273821  
  0.352309 -0.0357689 0.00533031  
  0.353759 -0.0136929  0.0237993  
   0.35391 -0.0130307  0.0244971  
  0.352041 -0.0366602 0.00548077  
  0.353499  -0.013112   0.024205  
  0.353596 -0.0146246   0.023445  
  0.352404 -0.0315296  0.0132679  
  0.353572 -0.0131327  0.0260064  
  0.351576 -0.0510076 0.00230158  
  0.351894 -0.0452774 -0.0007652  
  0.351961 -0.0413412 0.00866638  
   0.35078 -0.0610601 -0.0125562  
  0.351297 -0.0520964 -0.0078258  
  0.351407 -0.0512914 -0.00550788  
  0.350534 -0.0622069 -0.0150485  
  0.351031 -0.0529565 -0.00854564  
  0.351152 -0.0531107 -0.00858787  
  0.350373 -0.0614285 -0.0126929  
   0.35101 -0.0477206 -0.00327795  
  0.350977 -0.0531893 -0.00724628  
  0.350952 -0.0512204 0.00151329  
  0.351782 -0.0451892 0.00439093  
  0.352277 -0.0412425 0.00873902  
  0.351317 -0.0537174 -0.00618929  
  0.351593 -0.0519157 0.00126853  
  0.351777 -0.0466931 0.00037437  
  0.350875  -0.059809 -0.0121635  
  0.350947 -0.0600866    -0.0108  
  0.351663 -0.0460934 6.31546e-05  
  0.350735 -0.0593857 -0.0114941  
  0.350775 -0.0603488 -0.0122672  
   0.35163 -0.0442435 0.00316079  
  0.351009 -0.0520896 -0.00414779  
  0.350697 -0.0589829 -0.00938032  
  0.352254 -0.0355639  0.0149283  
  0.351443  -0.049037 0.00413577  
  0.355659 0.00794121  0.0413524  
  0.353714 -0.0195221  0.0211969  
  0.353964 -0.0202207  0.0227754  
  0.355719  0.0103265  0.0441974  
   0.35357 -0.0207624  0.0201805  
  0.353625 -0.0217635  0.0198717  
  0.355665  0.0121699  0.0461992  
  0.353511 -0.0193696  0.0217953  
  0.353528 -0.0204131  0.0208055  
  0.355611  0.0140131  0.0482009  
   0.35368 -0.0146798  0.0264696  
  0.353474  -0.018417  0.0235469  
   0.35567   0.016398  0.0510457  
  0.353767 -0.0124401  0.0313422  
  0.359074  0.0599003  0.0774675  
   0.35765  0.0390192  0.0659286  
  0.357562  0.0367789  0.0610558  
    0.3597   0.068582  0.0892372  
  0.357819  0.0437093  0.0706029  
  0.357856  0.0427566  0.0688514  
  0.359667  0.0704324  0.0923352  
   0.35776  0.0451021  0.0722179  
  0.357802  0.0447528  0.0715928  
  0.359554   0.071032  0.0920242  
  0.357616  0.0438616  0.0712016  
  0.357705   0.046103  0.0725267  
  0.359055  0.0655809  0.0836585  
  0.357366  0.0445597  0.0696229  
  0.360372  0.0755328  0.0908672  
  0.360322  0.0764281  0.0965454  
  0.359881  0.0733727  0.0882616  
  0.360956  0.0857603   0.105091  
  0.360594  0.0837241   0.103892  
  0.360632  0.0833212   0.101779  
  0.360795   0.086541   0.107447  
  0.360455  0.0841475   0.104562  
  0.360554  0.0846872   0.104666  
   0.36055  0.0853929   0.104955  
  0.360013   0.078056  0.0985885  
  0.360383  0.0844245   0.103199  
  0.359762  0.0753342  0.0900821  
   0.35974  0.0762534  0.0911302  
  0.358909  0.0558543  0.0791084  
   0.36032  0.0720742  0.0956882  
  0.359529  0.0695077  0.0879829  
  0.359282   0.060993  0.0869142  
  0.360295  0.0772975   0.100944  
  0.360348  0.0775229   0.099643  
  0.359015  0.0601035  0.0870653  
  0.360029   0.076437   0.100224  
  0.360174  0.0774469   0.100985  
  0.358702   0.057876  0.0838295  
  0.359428  0.0696286  0.0931801  
  0.359919  0.0756253   0.097905  
  0.358194  0.0496473  0.0720223  
   0.35938  0.0656612  0.0837043  
  0.357827  0.0374533  0.0681969  
  0.357746  0.0374707  0.0663858  
  0.357565  0.0380337  0.0685998  
  0.357727   0.038964  0.0689538  
  0.357253  0.0362852  0.0668755  
  0.357414  0.0373705  0.0679019  
  0.356798  0.0321436  0.0623646  
  0.357081  0.0350444  0.0650175  
  0.356683  0.0296468   0.056977  
  0.274529  0.0739829   0.399427  
  0.274541    0.07403   0.399484  
  0.274551  0.0740929   0.399496  
  0.274546   0.074085   0.399443  
  0.187396  0.0642667   0.350722  
  0.187394   0.064323   0.350784  
  0.187388   0.064398   0.350801  
  0.187374  0.0643909   0.350744  
   0.11191  0.0510211   0.281258  
  0.111884  0.0510962   0.281337  
  0.111865  0.0511909   0.281368  
  0.111848  0.0511872   0.281308  
 0.0531807  0.0351709   0.195655  
 0.0531243  0.0352629   0.195751  
  0.053104  0.0353812   0.195805  
 0.0531013  0.0353916   0.195761  
 0.0150655  0.0177738  0.0997065  
 0.0149912  0.0178645  0.0997961  
 0.0149815  0.0180026  0.0998715  
 0.0150141  0.0180433  0.0998755  
  0.320612  0.0772702    0.41494  
  0.274528  0.0739862    0.39941  
  0.320614  0.0772727   0.414922  
  0.320628  0.0773169   0.414998  
  0.274534  0.0739988   0.399455  
  0.320618  0.0772863   0.414969  
  0.320646  0.0773769    0.41501  
  0.274547  0.0740644   0.399499  
  0.320638  0.0773499   0.415013  
  0.320646  0.0773682   0.414957  
  0.274551  0.0741022   0.399473  
  0.320648  0.0773852   0.414987  
  0.274539  0.0740499   0.399419  
  0.320637  0.0773341   0.414932  
  0.229867  0.0696131   0.377905  
   0.18739  0.0642688   0.350706  
  0.229864  0.0696163   0.377888  
  0.229874  0.0696634   0.377962  
  0.187396  0.0642866   0.350751  
  0.229871  0.0696303   0.377932  
  0.229875  0.0697313   0.377976  
  0.187392  0.0643634   0.350803  
  0.229876  0.0697002   0.377979  
  0.229866  0.0697238   0.377922  
  0.187381  0.0644102   0.350777  
  0.229872  0.0697418   0.377952  
  0.187372  0.0643471   0.350718  
  0.229861  0.0696855   0.377897  
  0.147853  0.0580286   0.318328  
  0.111904  0.0510197   0.281243  
  0.147846  0.0580288   0.318312  
   0.14784  0.0580936   0.318397  
  0.111899  0.0510502   0.281293  
  0.147848  0.0580527   0.318359  
  0.147827  0.0581775    0.31842  
  0.111874  0.0511467   0.281364  
  0.147833  0.0581386    0.31842  
   0.14781  0.0581713   0.318361  
  0.111856  0.0512089   0.281345  
  0.147818  0.0581922   0.318395  
  0.111854  0.0511273   0.281274  
  0.147811    0.05812   0.318331  
 0.0801792  0.0433568   0.240136  
 0.0531841  0.0351709   0.195647  
  0.080176  0.0433548   0.240123  
 0.0801372  0.0434416   0.240225  
 0.0531515  0.0352073   0.195698  
 0.0801588  0.0433904   0.240176  
 0.0801164   0.043548   0.240267  
 0.0531101  0.0353249   0.195789  
 0.0801244  0.0434979   0.240258  
 0.0801036  0.0435494   0.240212  
 0.0531001  0.0354096   0.195793  
 0.0801082  0.0435706   0.240248  
 0.0531185  0.0353184   0.195719  
 0.0801149  0.0434817   0.240173  
 0.0313639  0.0265936   0.148578  
 0.0150883  0.0177907  0.0997137  
 0.0313765  0.0265998   0.148576  
 0.0312958   0.026688   0.148675  
  0.015023  0.0178061  0.0997436  
 0.0313267  0.0266298    0.14862  
 0.0312793  0.0268172    0.14874  
 0.0149794   0.017935  0.0998402  
  0.031282  0.0267549   0.148717  
 0.0312924   0.026841   0.148717  
 0.0149934  0.0180455  0.0998851  
 0.0312824  0.0268526   0.148739  
 0.0150431  0.0179747  0.0998355  
 0.0313158  0.0267671   0.148673  
0.00455838 0.00885874  0.0498955  
0.00459053 0.00889041  0.0499142  
0.00448472 0.00893921  0.0499678  
0.00451427 0.00888313  0.0499225  
0.00448401 0.00908285  0.0500501  
0.00447633 0.00901131  0.0500115  
0.00453772 0.00914298  0.0500867  
0.00450567 0.00913339  0.0500793  
 0.0045702 0.00908574  0.0500542  
  0.702302   0.041008   0.188772  
  0.702394  0.0411134    0.18889  
  0.702424  0.0412504   0.188968  
  0.702387  0.0412774   0.188955  
  0.669819   0.056005   0.275553  
  0.669902  0.0561135   0.275683  
  0.669947  0.0562303   0.275742  
  0.669941  0.0562269   0.275682  
  0.615907  0.0680432   0.346546  
  0.615965  0.0681368    0.34666  
  0.616015  0.0682301   0.346698  
  0.616026  0.0682134   0.346621  
  0.544108  0.0763107   0.396922  
  0.544145  0.0763851   0.397015  
   0.54419  0.0764591   0.397039  
  0.544205  0.0764416   0.396964  
  0.459298  0.0802124   0.423353  
  0.459324  0.0802711   0.423429  
   0.45936  0.0803337   0.423444  
  0.459371  0.0803198    0.42338  
   0.70981  0.0327018     0.1413  
  0.702279  0.0410175    0.18877  
   0.70978  0.0327266    0.14131  
  0.709896  0.0327966   0.141398  
  0.702351   0.041049   0.188824  
  0.709857  0.0327347   0.141341  
  0.709916  0.0329397   0.141482  
  0.702417  0.0411854   0.188939  
  0.709914  0.0328705   0.141446  
  0.709863  0.0329859   0.141499  
  0.702414  0.0412876   0.188974  
  0.709898  0.0329845   0.141502  
  0.702346  0.0412021   0.188904  
  0.709821  0.0329222   0.141457  
  0.688904  0.0488192   0.233783  
  0.669815  0.0559968   0.275536  
   0.68889  0.0488176   0.233773  
  0.688995  0.0489291   0.233911  
   0.66986  0.0560514   0.275613  
  0.688951  0.0488647   0.233842  
  0.689033  0.0490569   0.233981  
  0.669931  0.0561768   0.275727  
  0.689021  0.0489973    0.23396  
  0.689013  0.0490667   0.233941  
  0.669952   0.056253   0.275724  
  0.689032  0.0490864   0.233974  
  0.669908  0.0561464   0.275627  
  0.688975  0.0489859   0.233887  
  0.645354   0.062449   0.313358  
  0.615916  0.0680325   0.346522  
  0.645358  0.0624383   0.313336  
  0.645425  0.0625513   0.313481  
  0.615932  0.0680835     0.3466  
  0.645386  0.0624931   0.313415  
  0.645474  0.0626562    0.31353  
  0.615994  0.0681885   0.346695  
  0.645454  0.0626089   0.313521  
  0.645478  0.0626441   0.313457  
  0.616027  0.0682429   0.346668  
  0.645484  0.0626732   0.313504  
  0.616002  0.0681451   0.346573  
   0.64545  0.0625685   0.313406  
  0.581965  0.0726905   0.374558  
   0.54412  0.0763033   0.396897  
  0.581976  0.0726811   0.374533  
   0.58201  0.0727743   0.374661  
  0.544121  0.0763419   0.396968  
  0.581982  0.0727262   0.374607  
  0.582059  0.0728571   0.374691  
   0.54417  0.0764267   0.397041  
  0.582038  0.0728206   0.374691  
  0.582073  0.0728389   0.374613  
  0.544204  0.0764675   0.397008  
  0.582073  0.0728671   0.374659  
  0.544187  0.0763889   0.396926  
  0.582052  0.0727786    0.37457  
  0.502975  0.0788324   0.413277  
  0.459307  0.0802092    0.42333  
  0.502985   0.078827   0.413252  
  0.503005  0.0788983    0.41336  
  0.459307  0.0802357   0.423391  
  0.502985  0.0788593   0.413318  
  0.503046  0.0789656   0.413379  
  0.459343  0.0803062   0.423448  
  0.503027  0.0789361   0.413382  
  0.503059  0.0789496   0.413309  
  0.459371  0.0803408   0.423417  
  0.503058   0.078973   0.413349  
  0.459356  0.0802787   0.423348  
  0.503043  0.0789034   0.413274  
  0.413815  0.0804098   0.427006  
  0.413821  0.0804088   0.426984  
  0.413838  0.0804628   0.427074  
  0.413823    0.08043    0.42704  
  0.413868  0.0805227   0.427088  
  0.413854  0.0804962   0.427091  
  0.413875  0.0805108   0.427029  
  0.413876  0.0805299   0.427063  
  0.413863  0.0804735      0.427  
  0.436781 -0.0497418  -0.307044  
  0.436776 -0.0497498  -0.307096  
  0.436786 -0.0496869  -0.307084  
  0.436798 -0.0496397  -0.307028  
  0.523951 -0.0400531  -0.258345  
  0.523937 -0.0400603  -0.258402  
  0.523931 -0.0399854  -0.258385  
  0.523929  -0.039929  -0.258323  
   0.59948 -0.0268494   -0.18891  
  0.599462 -0.0268532   -0.18897  
  0.599444 -0.0267586  -0.188938  
  0.599417 -0.0266835  -0.188859  
  0.658227  -0.011053  -0.103363  
  0.658224 -0.0110426  -0.103407  
  0.658204 -0.0109243  -0.103353  
  0.658147 -0.0108323  -0.103257  
  0.696314 0.00629545 -0.00747741  
  0.696347 0.00633621 -0.00747331  
  0.696337 0.00647422 -0.00739791  
  0.696263 0.00656493 -0.00730836  
  0.390692 -0.0530283  -0.322559  
  0.436787 -0.0497067   -0.30702  
  0.390701 -0.0529943  -0.322535  
  0.390692 -0.0530371  -0.322612  
  0.436776  -0.049759  -0.307074  
  0.390689 -0.0530454  -0.322589  
  0.390709 -0.0529771  -0.322601  
   0.43678 -0.0497212    -0.3071  
  0.390699 -0.0530101  -0.322616  
  0.390726 -0.0529303  -0.322542  
  0.436793 -0.0496557  -0.307055  
  0.390719 -0.0529465  -0.322571  
  0.436799  -0.049643  -0.307011  
  0.390724 -0.0529328  -0.322524  
  0.481454 -0.0453798  -0.285524  
  0.523953 -0.0400092  -0.258319  
  0.481459 -0.0453415  -0.285499  
  0.481445 -0.0453874  -0.285578  
  0.523944 -0.0400725  -0.258378  
  0.481448 -0.0453978  -0.285554  
  0.481446 -0.0453195  -0.285564  
  0.523933 -0.0400258  -0.258404  
  0.481444 -0.0453563   -0.28558  
  0.481452 -0.0452692  -0.285507  
  0.523929  -0.039949  -0.258352  
  0.481449 -0.0452864  -0.285534  
  0.523935  -0.039931  -0.258307  
  0.481456 -0.0452723   -0.28549  
  0.563516 -0.0338347  -0.225963  
  0.599473 -0.0267896  -0.188876  
  0.563514 -0.0337833  -0.225933  
  0.563499 -0.0338409  -0.226022  
  0.599472 -0.0268712  -0.188947  
  0.563508 -0.0338555  -0.225998  
  0.563486  -0.033757  -0.225999  
  0.599454  -0.026809  -0.188966  
  0.563492  -0.033802  -0.226022  
  0.563472  -0.033692   -0.22593  
  0.599429 -0.0267125  -0.188895  
  0.563477 -0.0337162  -0.225961  
  0.599424  -0.026682  -0.188845  
   0.56348 -0.0336922  -0.225914  
  0.631224 -0.0192113  -0.147814  
   0.65821 -0.0109798  -0.103321  
  0.631213 -0.0191435  -0.147775  
  0.631211   -0.01921  -0.147869  
  0.658228  -0.011071  -0.103395  
   0.63122 -0.0192325   -0.14785  
  0.631191 -0.0191036  -0.147827  
  0.658218 -0.0109863  -0.103391  
  0.631203 -0.0191599   -0.14786  
  0.631149 -0.0190188  -0.147738  
  0.658177 -0.0108687    -0.1033  
  0.631169 -0.0190524  -0.147778  
  0.658144 -0.0108323  -0.103249  
  0.631152 -0.0190167  -0.147725  
  0.680036 -0.00250249 -0.0563185  
  0.696285 0.00636405 -0.0074374  
  0.680012 -0.00242855 -0.0562753  
  0.680049 -0.00247878  -0.056342  
  0.696335 0.00629325 -0.00748692  
  0.680046 -0.00251414 -0.0563414  
  0.680032 -0.00234954 -0.0562766  
  0.696349  0.0064038 -0.00744206  
  0.680046 -0.00241644 -0.0563187  
  0.679964 -0.00225514 -0.0561795  
  0.696305 0.00653265 -0.00734549  
  0.680001 -0.00229138 -0.0562216  
   0.69624 0.00654809 -0.00731557  
  0.679952 -0.0022613 -0.0561776  
   0.70679  0.0151957  0.0423114  
  0.706758  0.0152529  0.0423438  
  0.706844  0.0152558  0.0423479  
  0.706823  0.0152053  0.0423187  
  0.706843  0.0153994  0.0424303  
  0.706852  0.0153273  0.0423865  
   0.70677  0.0154799  0.0425026  
  0.706814  0.0154555  0.0424755  
  0.706738  0.0154482  0.0424839  
0.00894127 -0.0169386 -0.0965568  
0.00890456 -0.0169116 -0.0965704  
0.00893477 -0.0167746 -0.0964918  
0.00902662 -0.0166692 -0.0963741  
 0.0413871  -0.031888  -0.183284  
 0.0413813 -0.0318914  -0.183344  
 0.0414263 -0.0317746  -0.183285  
 0.0415087 -0.0316661  -0.183155  
  0.095302 -0.0438737  -0.254223  
 0.0953132 -0.0438903    -0.2543  
  0.095363  -0.043797  -0.254262  
 0.0954204 -0.0437034  -0.254148  
  0.167122 -0.0521012  -0.304566  
  0.167136 -0.0521188   -0.30464  
  0.167182 -0.0520447  -0.304617  
  0.167218 -0.0519703  -0.304524  
   0.25196 -0.0559857  -0.330985  
  0.251971 -0.0559997  -0.331048  
  0.252007 -0.0559371  -0.331033  
  0.252033 -0.0558783  -0.330958  
0.00146536 -0.00864714 -0.0491008  
0.00898238 -0.0168633 -0.0965064  
0.00150708 -0.00858338 -0.0490586  
0.00141247 -0.00860092 -0.0490839  
0.00891396 -0.0169488 -0.0965762  
0.00142993 -0.00864568 -0.0491043  
0.00143263 -0.00845786     -0.049  
0.00891144 -0.0168466 -0.0965411  
0.00141387 -0.00853171 -0.0490481  
0.00151847 -0.00836299 -0.0489025  
0.00897734 -0.0167102 -0.0964262  
0.00147071 -0.00839593 -0.0489431  
0.00904917 -0.0166787 -0.0963723  
0.00154783 -0.00838784 -0.0489121  
 0.0223151 -0.0247279  -0.141543  
 0.0414205 -0.0318075  -0.183229  
 0.0223533  -0.024647  -0.141489  
 0.0222949  -0.024718  -0.141583  
 0.0413761  -0.031914  -0.183326  
 0.0222964 -0.0247475  -0.141576  
 0.0223337 -0.0245902  -0.141513  
 0.0413976 -0.0318379   -0.18333  
 0.0223069 -0.0246584  -0.141562  
 0.0224242 -0.0244803  -0.141385  
 0.0414686 -0.0317124  -0.183215  
 0.0223777 -0.0245258  -0.141444  
  0.041513 -0.0316579  -0.183138  
 0.0224379 -0.0244787  -0.141375  
   0.06585 -0.0383049   -0.22106  
 0.0953261 -0.0438053  -0.254175  
 0.0658786 -0.0382292  -0.221008  
 0.0658547 -0.0383169  -0.221132  
 0.0953005 -0.0439032   -0.25427  
 0.0658448  -0.038334  -0.221106  
 0.0659035  -0.038212  -0.221083  
 0.0953343 -0.0438487  -0.254297  
 0.0658742 -0.0382696  -0.221123  
 0.0659739 -0.0381097   -0.22096  
 0.0953964 -0.0437437  -0.254202  
 0.0659419 -0.0381539  -0.221017  
 0.0954119 -0.0436926  -0.254124  
 0.0659706  -0.038099  -0.220938  
  0.129253 -0.0484979  -0.282215  
   0.16714 -0.0520485  -0.304527  
  0.129274 -0.0484376  -0.282172  
  0.129267  -0.048516  -0.282292  
  0.167123 -0.0521271  -0.304609  
  0.129254  -0.048526   -0.28226  
  0.129316 -0.0484332  -0.282262  
  0.167157 -0.0520863  -0.304642  
  0.129289 -0.0484795  -0.282292  
  0.129362 -0.0483494  -0.282159  
  0.167205 -0.0520015  -0.304569  
  0.129344 -0.0483851  -0.282208  
  0.167207 -0.0519629  -0.304499  
  0.129351   -0.04834  -0.282134  
  0.208262 -0.0546124   -0.32091  
  0.251975 -0.0559446  -0.330953  
  0.208278 -0.0545662  -0.320875  
  0.208275 -0.0546283  -0.320979  
   0.25196 -0.0560068  -0.331021  
  0.208263 -0.0546357   -0.32095  
  0.208316 -0.0545611  -0.320961  
  0.251988 -0.0559722  -0.331052  
  0.208294 -0.0545989  -0.320982  
  0.208346 -0.0544951  -0.320877  
  0.252024 -0.0559016  -0.330995  
  0.208336 -0.0545221  -0.320918  
  0.252024 -0.0558751  -0.330934  
  0.208336 -0.0544898  -0.320852  
  0.297463  -0.056179  -0.334634  
  0.297476 -0.0561417  -0.334605  
  0.297471 -0.0561909  -0.334693  
  0.297463 -0.0561981  -0.334667  
  0.297501 -0.0561311  -0.334679  
  0.297485 -0.0561645  -0.334696  
  0.297524  -0.056078  -0.334611  
  0.297516 -0.0560982  -0.334645  
  0.297517  -0.056077  -0.334589  
   0.51976  0.0846272   0.253826  
   0.21423  0.0677934   0.218489  
  0.494797 -0.0436729  -0.123969  
  0.191393 -0.0603515  -0.160928  
  0.124095  0.0542381   0.109864  
  0.408071  0.0461609   0.273585  
  0.283602 -0.0300203  -0.212229  
  0.587173 -0.0299027 -0.0174278  
  0.131021 -0.0314462 -0.0381873  
  0.383839 -0.0105113  -0.171736  
  0.306015   0.045175    0.29995  
  0.580317  0.0557998   0.130616  
  0.391092 -0.0387978  -0.008572  
  0.387153  0.0559354   0.119909  
  0.325761 -0.0304598 -0.0242993  
  0.319548  0.0633385   0.101668  
  0.418169  0.0690849   0.106222  
  0.347477  0.0213891   0.119868  
  0.366343 -0.00123284 -0.0157506  
  0.293148 -0.0447477 -0.0138242  
  0.238563 -0.0474668   -0.18944  
  0.319732  -0.016644  -0.114666  
  0.342429 -0.000477123   -0.10784  
  0.263106  -0.058725 -0.0878236  
  0.540234    -0.0466 -0.0761091  
  0.494671 -0.0412837 -0.00533387  
  0.505955 -0.00843421  0.0384865  
  0.427548 -0.0426194 -0.0637625  
  0.170461  0.0708207    0.16888  
  0.216585  0.0656267  0.0977516  
  0.205353  0.0327783  0.0539161  
  0.281664  0.0670043   0.159107  
  0.360551  0.0405734   0.311996  
  0.466786   0.070997   0.275225  
  0.449413  0.0831226   0.181923  
  0.256576  0.0562092   0.263906  
  0.147936 -0.0594521  -0.116761  
  0.563582  0.0837795   0.209428  
  0.446067 -0.0306098  -0.161588  
  0.354292   0.022616   0.211948  
  0.395801  0.0691093   0.108397  
  0.338592  0.0378054  0.0976268  
  0.371629 -0.0130345 -0.000565697  
  0.315531 -0.0447693 -0.0159943  
  0.361259 0.00592432 -0.0366013  
  0.269735 -0.0260514  0.0026183  
  0.441596   0.050396  0.0897864  
  0.369032   0.024613    0.18146  
  0.329955  0.0312845   0.202755  
  0.611027 0.00688694  0.0567113  
  0.335347 -0.0157407  -0.212755  
  0.100284  0.0174563  0.0356941  
  0.474429  0.0300511  0.0751979  
    0.2369 -0.00570615   0.017206  
  0.357285 0.00647313 -0.0686844  
  0.304816  0.0494519   0.181756  
  0.472549  0.0875655   0.159983  
  0.239169 -0.0631918 -0.0672511  
  0.401414 -0.0245968 -0.0765121  
  0.301906  0.0674293  0.0936233  
   0.33795 -0.0112349 -0.0290018  
  0.382149  0.0405686   0.156343  
   0.40926 -0.0430327 -0.00115538  
  0.374911  0.0488468  0.0879752  
  0.341794  0.0419096  0.0782963  
  0.369228 -0.0173052  0.0147258  
  0.336623 -0.0242766 0.00480579  
  0.353962  0.0157318   0.123792  
  0.436665 -0.0516344  -0.035159  
  0.414077  0.0644737   0.181126  
  0.301175 -0.0396273  -0.079307  
   0.27453  0.0759778   0.127639  
  0.276235  0.0367641  0.0600593  
  0.349165 0.00490948 -0.0390857  
  0.435077 -0.0124206  0.0323421  
  0.313845  0.0600691    0.12237  
  0.300857 -0.0495467 -0.0455922  
  0.411758  0.0743346   0.139663  
  0.395845    -0.0354 -0.0272207  
  0.374632 -0.00494068 -0.0661147  
  0.470451  0.0731056   0.122588  
  0.240957 -0.0487519 -0.0301428  
  0.287875  0.0563264   0.079558  
  0.344072 -0.00180451 -0.0344552  
  0.423395 -0.0319718  0.0128526  
  0.367987  0.0262487   0.133183  
  0.360159  0.0175958   0.127748  
  0.325036  0.0449245   0.133974  
  0.316587  0.0399727   0.195279  
  0.340395  0.0259354   0.159285  
  0.342021   0.029558   0.109942  
  0.331574  0.0351831   0.148789  
  0.252802 -0.0168451 0.00885081  
    0.2529 -0.0381332 -0.0136134  
  0.189933 -0.0433195 -0.0373304  
  0.182683 -0.0190345 -0.00572625  
  0.218786 -0.0308371 -0.0123056  
  0.359825 0.00657113 -0.0527314  
  0.366771 0.00127298 -0.0530077  
  0.380875 -0.00655409  -0.114237  
  0.365074 3.10073e-05  -0.120289  
  0.367354 0.00121323 -0.0852396  
  0.458527  0.0411901  0.0835536  
  0.458472  0.0624829   0.106035  
  0.521446  0.0676705   0.129766  
  0.528653  0.0433849  0.0981398  
   0.49257  0.0551859   0.104722  
  0.379414  0.0555762  0.0885626  
  0.407743  0.0725224   0.110497  
  0.390206  0.0482751  0.0817458  
  0.385224  0.0549476  0.0878938  
  0.348443  0.0239316  0.0725977  
  0.352769  0.0160229  0.0823334  
  0.350382   0.019861  0.0780081  
  0.362637 0.000662986  0.0216481  
  0.369606 -0.00733204 -0.00852419  
  0.359174 0.00730242  0.0129168  
  0.361129 0.00397945  0.0170734  
  0.331912 -0.0312438 0.00382849  
  0.303578 -0.0481886 -0.0181027  
  0.321119 -0.0239388  0.0106516  
  0.326101 -0.0306142 0.00450002  
  0.456237 -0.0446879 -0.0912982  
  0.434717 -0.0487199 -0.0499448  
  0.480312 -0.0529315 -0.0546243  
  0.520587 -0.0465907  -0.102889  
  0.470986 -0.0502684 -0.0742871  
  0.480263  0.0855385   0.214401  
   0.43235  0.0751185   0.185005  
   0.43686  0.0684428   0.223184  
  0.495234  0.0792273    0.26945  
  0.459628  0.0784103    0.22286  
   0.23171 -0.0612583  -0.120777  
  0.282202 -0.0504123   -0.08701  
  0.274913 -0.0445861  -0.127507  
  0.212547 -0.0551555  -0.179596  
  0.252448 -0.0543052  -0.128035  
  0.252854   0.068937   0.186387  
  0.275304  0.0731337    0.14359  
   0.23071  0.0772585   0.147219  
  0.189128  0.0706927   0.196345  
  0.238875  0.0745338   0.167894  
   0.59258 -0.0347532 -0.0902059  
  0.538833 -0.0391469  -0.154145  
  0.568318  -0.038025  -0.124554  
   0.20721 -0.0485172  -0.240905  
  0.150147 -0.0552758   -0.20255  
  0.176591 -0.0527688  -0.225487  
  0.500249  0.0725773   0.329297  
  0.561118  0.0795818   0.295275  
  0.532423  0.0771556   0.316385  
  0.118358  0.0589757   0.182817  
     0.171  0.0632179   0.247786  
  0.141968   0.062106    0.21755  
  0.299125 0.00586779   0.034586  
   0.31572 -0.0172816  0.0162634  
  0.306928 -0.00804657   0.023351  
   0.35539  0.0101416 -0.0107636  
  0.357994 0.00905743 0.00767348  
  0.356947  0.0100045 -0.00193882  
  0.412205  0.0184734  0.0578139  
  0.395611  0.0416213  0.0761367  
  0.404402  0.0323872  0.0690491  
  0.360397  0.0189382  0.0902485  
  0.358473  0.0160416  0.0859074  
  0.363823  0.0206692   0.154491  
   0.36913  0.0256085   0.156788  
  0.362669  0.0203947   0.121256  
  0.374399  0.0328738   0.146233  
  0.366696  0.0287474  0.0965655  
  0.363426  0.0235283  0.0949452  
  0.365955  0.0317598  0.0701189  
  0.367785  0.0413826  0.0752616  
   0.36351  0.0288256  0.0628588  
  0.346021  0.0393772  0.0712673  
  0.348711  0.0269884  0.0622781  
   0.34971  0.0266408  0.0591377  
  0.365113 -0.0146585  0.0215129  
  0.362555 -0.00250971   0.030366  
  0.361571 -0.00218424  0.0333748  
  0.345437 -0.00729781  0.0224584  
  0.343635 -0.0168782   0.017318  
  0.347845 -0.00442833  0.0296074  
  0.332527  0.0515207  0.0797772  
  0.322794  0.0429005  0.0692832  
  0.294221  0.0630861  0.0876274  
  0.327173  0.0498478  0.0766692  
  0.347636 -0.000699416  0.0102121  
  0.351165 0.00553711 0.00493785  
    0.3409 -0.00651345 -0.0325231  
  0.349264 0.00241466 0.00682018  
  0.378722 -0.0271409  0.0126658  
   0.38851 -0.0185487  0.0231239  
  0.416984  -0.038717 0.00480357  
  0.384091 -0.0254692  0.0157619  
   0.38226 -0.0245141 -0.0159289  
  0.409928 -0.0395436 -0.0443344  
   0.41526 -0.0342534  -0.072544  
  0.383685 -0.0201342 -0.0333381  
  0.396249 -0.0302819 -0.0413383  
  0.405783  0.0739936   0.124245  
  0.428751  0.0793137    0.15944  
  0.463562  0.0874439    0.17345  
  0.427423    0.08133   0.133182  
  0.430674  0.0821445   0.147136  
  0.306203 -0.0493683 -0.0311323  
  0.283869 -0.0547234 -0.0653572  
  0.248672 -0.0630365 -0.0800769  
   0.28405 -0.0569568   -0.04065  
  0.281449 -0.0576319 -0.0539205  
  0.327553  0.0492107   0.112307  
  0.299513  0.0640598   0.139607  
  0.291875  0.0588892   0.172406  
  0.312496  0.0549572   0.139324  
  0.235899 -0.0583862 -0.0498491  
  0.198441  -0.063762 -0.0904169  
    0.1302 -0.0489276 -0.0797479  
  0.188043 -0.0565978 -0.0655221  
  0.475693  0.0827539   0.142417  
  0.513195  0.0881081   0.183119  
  0.581261  0.0732728   0.172277  
  0.523497  0.0809498   0.158069  
  0.387163   -0.01429 -0.0747116  
  0.420593 -0.0276105  -0.114817  
  0.414153 -0.0206293  -0.175095  
  0.399768 -0.0166099  -0.119674  
  0.369271  0.0341499  0.0902704  
  0.381294  0.0538151   0.102893  
  0.368189  0.0340748  0.0796582  
  0.331477  0.0584796  0.0873676  
  0.332745  0.0531134  0.0908385  
  0.339912  0.0505272  0.0812137  
  0.379425   -0.03372  0.0054516  
  0.378096 -0.0285213 0.00225137  
  0.371117 -0.0257696   0.011613  
  0.342484 -0.0092164 0.00368324  
  0.330849 -0.0287118 -0.0089426  
  0.343397 -0.00934734  0.0134856  
  0.545615  0.0862096   0.235574  
  0.611419  0.0748945   0.239278  
  0.589449  0.0786578   0.270569  
  0.232765  0.0624646     0.2443  
  0.226796  0.0595684   0.303751  
   0.19664     0.0616   0.278509  
  0.472487 -0.0378945  -0.146781  
  0.478852 -0.0346716  -0.205649  
  0.510659 -0.0373981  -0.183229  
  0.165777  -0.061896  -0.142735  
  0.100027 -0.0505835  -0.146712  
  0.121926 -0.0543481   -0.17789  
  0.370175 -0.00329239 -0.0394665  
  0.362514 0.00408236 -0.0180476  
  0.268885 -0.0480673 -0.0225418  
  0.289234 -0.0351001 -0.00349676  
  0.442472  0.0724153   0.114963  
  0.422113  0.0594463  0.0959074  
  0.284153  0.0528322   0.219204  
  0.279168  0.0505017    0.28679  
  0.319194  0.0365402   0.247682  
  0.300331  0.0443353   0.237278  
    0.3947 -0.0383687 -0.0180585  
  0.371353 -0.0164267 0.00726584  
  0.381402 -0.0280693 -0.00691244  
  0.398916  0.0658413   0.131575  
  0.384559    0.06065   0.100307  
   0.39286  0.0652282   0.115666  
  0.313956 -0.0407336 -0.0367443  
  0.326926 -0.0361921 -0.00771271  
  0.319279 -0.0403739 -0.0221283  
  0.315406  0.0630431   0.112046  
  0.339145  0.0413203  0.0874365  
  0.328832  0.0528507   0.101395  
  0.333266  0.0424442   0.312521  
  0.355966  0.0293188    0.25908  
  0.342212  0.0255469   0.211533  
  0.337532  0.0318162   0.258641  
  0.604748     0.0322  0.0978161  
  0.638981  0.0529639    0.15534  
  0.661116  0.0160261  0.0711278  
  0.656773  0.0346817   0.116192  
   0.29157  0.0564003   0.345914  
  0.362956  0.0559585   0.363897  
  0.327169  0.0561449   0.360085  
  0.362834 -0.0117088  -0.198741  
  0.404122 -0.0252286  -0.233615  
    0.3362 -0.0306512   -0.26814  
  0.372719 -0.0272667   -0.25615  
  0.106581 -0.00785043 -0.00540043  
 0.0723508 -0.0286194 -0.0629204  
  0.050202 0.00831438  0.0212746  
 0.0545547 -0.0103384 -0.0237822  
  0.104833  0.0371906  0.0733285  
 0.0716687  0.0393059   0.107386  
 0.0553138  0.0243411  0.0645958  
  0.606451 -0.0128503  0.0190874  
  0.639626 -0.0149722 -0.0149646  
   0.65599 -3.66588e-06  0.0278122  
  0.308662 -0.0224906  -0.219038  
  0.267363 -0.0386923  -0.266566  
  0.301081  -0.034666  -0.272604  
  0.257314  0.0578585   0.328864  
 0.0798982 -0.0414829  -0.106876  
  0.631503  0.0658123   0.199358  
  0.441749 -0.0304187  -0.225953  
  0.266641  0.0614852   0.205208  
  0.499772  0.0890089   0.201828  
  0.212131 -0.0646848  -0.108671  
  0.439658 -0.0368888  -0.106076  
  0.389564  0.0418373   0.300549  
  0.430657  0.0577091   0.340473  
  0.400721  0.0562405   0.358449  
  0.556567 -0.00185587  0.0457885  
  0.493574  0.0114428  0.0589451  
  0.548481  0.0214792  0.0748002  
  0.338148 -0.00593427  -0.157233  
   0.35143 0.00426845 -0.0903336  
  0.353778 -0.0012913   -0.14246  
  0.154743  0.0261997  0.0466151  
  0.217744  0.0129015  0.0334571  
  0.162843 0.00286823  0.0176071  
  0.383505  0.0339303   0.227737  
  0.363413  0.0224386   0.199505  
  0.372634  0.0301109   0.248115  
  0.373311  0.0505511  0.0841029  
  0.347929  0.0264222  0.0670698  
  0.363184 -0.00179717  0.0261988  
  0.338087 -0.0261176 0.00839829  
  0.567949 -0.0403184  -0.049458  
  0.619967 -0.0259987 -0.0545559  
  0.437666  0.0592345   0.281619  
  0.466199  0.0657824    0.34052  
  0.258838 -0.0389847  -0.205762  
   0.23531  -0.043719  -0.257981  
  0.142989  0.0645787   0.142004  
 0.0911303  0.0502669   0.147031  
  0.537934 -0.0376694 -0.0109907  
   0.50483 -0.0268575  0.0159859  
   0.55299 -0.0216887  0.0167798  
  0.304122 -0.0223862  -0.160013  
  0.331374 -0.00768758  -0.114831  
  0.321032 -0.0133906  -0.163393  
  0.173327  0.0620088   0.103415  
  0.206449  0.0511998    0.07642  
  0.158291  0.0460302  0.0756299  
  0.353512  0.0183597   0.166053  
  0.350862  0.0178505   0.123255  
  0.347047  0.0210502   0.165151  
  0.467364 -0.0518633 -0.0260571  
  0.512195 -0.0491507 -0.0374209  
  0.397117  0.0525288   0.172263  
  0.394883  0.0433075   0.209118  
  0.415143  0.0560262   0.220902  
   0.30797 -0.0289413  -0.100131  
  0.286891 -0.0339068   -0.14789  
  0.243856  0.0762089   0.118498  
   0.19891  0.0734729   0.129906  
  0.355641    0.01353   0.085662  
  0.354307  0.0142269  0.0849989  
  0.379785  0.0335846    0.18463  
  0.253031  0.0626224  0.0877672  
  0.284014   0.074915   0.109758  
  0.267343  0.0717617   0.101561  
  0.458234 -0.0382753 0.00464358  
  0.427172 -0.0505418 -0.0172859  
  0.443871 -0.0474063 -0.00912658  
   0.33424 -0.00877556 -0.0735379  
  0.322257 -0.0252689 -0.0574754  
  0.327408 -0.0173112 -0.0673811  
  0.241935  0.0358338  0.0575793  
  0.315691  0.0205548   0.048861  
  0.268499  0.0188627  0.0431643  
  0.345995 0.00250411 -0.0724509  
  0.354159 0.00990854 0.00314585  
  0.352414 0.00757279  -0.042421  
  0.469376 -0.0114903   0.034822  
   0.39563 0.00378622  0.0435374  
  0.442821 0.00547943  0.0492356  
  0.273788 -0.0555829 -0.0343503  
  0.437644  0.0799448   0.126824  
  0.377252 -0.0115051 -0.0383242  
  0.300519  0.0709434   0.115315  
   0.31148  0.0697241  0.0992806  
  0.314677 -0.0359005 -0.0491895  
  0.333792 -0.0181735 -0.0242359  
  0.399341  0.0612464   0.147373  
  0.380815  0.0448017   0.126684  
  0.410287 -0.0465295 -0.0224556  
  0.399518 -0.0452303 -0.00666126  
  0.357035  0.0156873   0.127614  
  0.359271  0.0183946   0.162779  
  0.357001  0.0142248  0.0869918  
  0.298021  0.0689335   0.127292  
  0.413906  0.0712611   0.155898  
  0.299711 -0.0462888 -0.0597396  
  0.412002 -0.0444075  -0.033415  
  0.280993  0.0477879  0.0705675  
   0.24506  0.0507652  0.0734963  
  0.346608 0.00182041 -0.0376776  
  0.340155 -0.00257701 -0.0749228  
  0.430296 -0.0234412  0.0218355  
  0.466224 -0.0264206  0.0189074  
  0.318572  0.0329262  0.0598611  
  0.352723 0.00799605 0.00316249  
  0.392738 -0.00858078  0.0325413  
  0.123983  0.0284575   0.152363  
  0.593946 -0.00664896  -0.074718  
  0.218829 -0.0364424  -0.219219  
  0.500995  0.0659943   0.340615  
  0.440321 -0.0314131  -0.204148  
  0.267201  0.0568807   0.303149  
  0.613374  0.0391328    0.18272  
 0.0947109 -0.0159826 -0.0968612  
  0.607359  0.0501286   0.245253  
  0.529083  0.0379058    0.18059  
  0.526538  0.0199491  0.0796075  
  0.456719  0.0231081   0.101564  
   0.46573 0.00501897 -0.000661764  
   0.41164  0.0129094  0.0469751  
      0.35  0.0248445   0.117715  
  0.290528 0.00663394  0.0190407  
  0.354705 -0.00494544 -0.0498547  
  0.274774  0.0252956   0.124847  
  0.235048  0.0147525  0.0680273  
  0.347091  0.0443769   0.227663  
  0.445276  0.0340894   0.163972  
  0.424617 -0.00513822 -0.0552162  
  0.362847 -0.0225678  -0.149412  
  0.259967 -0.0183667  -0.119678  
  0.245463 -0.00367793 -0.0362166  
  0.517142 -0.00566948 -0.0640734  
  0.172133 -0.0172737  -0.108509  
  0.183047  0.0220914    0.11258  
  0.248319  0.0375454   0.195419  
  0.353017  0.0612653   0.322381  
  0.170781  0.0429669   0.231161  
  0.619894  0.0235359  0.0941876  
  0.172989 -0.00035638 -0.0132272  
 0.0879373 -0.000826171 -0.0107843  
  0.153165 -0.0314375  -0.187428  
  0.535928  0.0547182   0.275043  
  0.433918 -0.0158879  -0.116262  
  0.359374 -0.0374219  -0.232841  
  0.515401 -0.0238794  -0.166699  
  0.557167 0.00794515  0.0100939  
  0.148469  0.0125115  0.0607748  
 0.0967889 -0.0264257  -0.156072  
  0.436797  0.0492011   0.249483  
  0.613491 0.00781659 0.00576184  
 0.0957882  0.0143105  0.0742682  
  0.306716 -0.0269566   -0.17074  
  0.284791 -0.0387282   -0.23578  
  0.569394  -0.018758  -0.141516  
  0.208586  0.0543749   0.293003  
  0.439731  0.0642827   0.334305  
  0.310107  0.0590805   0.312756  
  0.257763  0.0472195   0.249297  
    0.2977  0.0409663   0.211534  
  0.350054  0.0528268   0.275032  
  0.303905  0.0500297   0.262156  
  0.270871  0.0654522   0.351293  
  0.360169  0.0703709   0.373287  
  0.315366  0.0681985   0.363853  
  0.399852 -0.0344229  -0.218487  
  0.437112 -0.0236567  -0.160213  
  0.398387 -0.0192306  -0.132833  
   0.36111 -0.0299994  -0.191135  
  0.399116 -0.0268322  -0.175668  
  0.239415  -0.027415  -0.169451  
  0.216045 -0.0178225  -0.114093  
   0.16266 -0.0243614   -0.14797  
   0.18599  -0.033941  -0.203327  
  0.201031   -0.02589  -0.158711  
  0.522562  0.0711708   0.368754  
  0.518466  0.0603583   0.307838  
  0.575918  0.0614118   0.310777  
  0.550221  0.0665492   0.341181  
   0.14738  0.0357116   0.191771  
  0.141349  0.0470245   0.256199  
 0.0885859  0.0318532    0.17401  
  0.113782  0.0395696   0.215946  
   0.43855 -0.0405466  -0.255595  
  0.351694 -0.0462799  -0.282318  
  0.395278 -0.0436997  -0.270521  
  0.051863 -0.0163697 -0.0966479  
 0.0913384 -0.00840534 -0.0538256  
  0.043993 -0.000335193 -0.00534399  
 0.0464336 -0.00844057 -0.0514067  
  0.267998 0.00147596 -0.00858615  
  0.252717 -0.0110241 -0.0779521  
  0.307346  -0.011663 -0.0847606  
  0.322613 0.00084331 -0.0154092  
  0.287671 -0.00509438 -0.0466776  
  0.477867 -0.0276485   -0.18542  
  0.519659  -0.031929  -0.212512  
  0.479654 -0.0364848  -0.235467  
   0.26279  0.0106953  0.0435313  
  0.320264   0.015739    0.06838  
  0.312388  0.0250719   0.121278  
   0.25491  0.0200236  0.0964392  
  0.287589  0.0178832  0.0824074  
  0.383175 0.00398112 -0.00144215  
  0.380821  0.0188772  0.0823465  
  0.351718 0.00985973  0.0334686  
   0.38966 -0.0050438 -0.0525328  
  0.445175 -5.95818e-05 -0.0279408  
  0.438682 0.00896181   0.023159  
  0.414172 0.00195872 -0.0146895  
  0.397633  0.0294709   0.140839  
  0.434178  0.0180102  0.0742681  
  0.450996  0.0285994    0.13277  
  0.415906  0.0237407   0.107556  
  0.496131  0.0124873  0.0394673  
   0.49163  0.0215273  0.0905886  
  0.465153  0.0152469  0.0568707  
  0.527798  0.0289299   0.130101  
  0.487179  0.0360008   0.172278  
  0.489399  0.0287652   0.131435  
  0.441035  0.0416485   0.206734  
  0.532494  0.0463178   0.227821  
  0.486359   0.051968   0.262254  
  0.486763  0.0439886   0.217272  
  0.657843  0.0401154   0.185775  
  0.616619  0.0313351   0.138457  
  0.665588  0.0238609  0.0932431  
  0.663209  0.0320762    0.13992  
  0.348548  0.0346157   0.172696  
  0.261554  0.0314247   0.160134  
   0.30505  0.0330234   0.166411  
  0.358773 -0.0137615 -0.0996402  
  0.429264 -0.0105154 -0.0857411  
  0.394019 -0.0121407 -0.0926873  
  0.209224 -0.00201612 -0.0247246  
  0.172572 -0.00881784 -0.0608708  
  0.212641 -0.00992142 -0.0694127  
  0.193024 -0.0442311  -0.261858  
  0.124286 -0.0375958  -0.220776  
  0.157673 -0.0411712  -0.242728  
  0.153523  0.0252808   0.132466  
  0.215679  0.0298175   0.154006  
  0.209562  0.0402658   0.213282  
   0.18154  0.0327724   0.172882  
  0.573219  0.0217436   0.086898  
  0.571232  0.0385213   0.181655  
  0.572211  0.0301342   0.134279  
  0.204023 0.00719351  0.0274061  
  0.236011 0.00433645  0.0094067  
  0.209052  0.0184258  0.0902999  
  0.235302  0.0249246   0.125221  
  0.237893  0.0556306   0.298072  
  0.189679  0.0486714   0.262087  
  0.223727  0.0479513   0.255686  
   0.13046 -0.000590628 -0.0120083  
  0.133417 -0.0166286  -0.102687  
  0.131952 -0.00861157 -0.0573504  
  0.541844  0.0139435  0.0448537  
  0.585329 0.00787926 0.00793023  
  0.616676  0.0156758  0.0499718  
  0.579262   0.014809  0.0474149  
  0.391941  0.0467947   0.238566  
  0.394787  0.0381369   0.189709  
  0.571651  0.0524238   0.260152  
  0.638602  0.0530951   0.260406  
  0.608511  0.0574655   0.286746  
  0.610361  0.0446321   0.213989  
  0.649642  0.0467614   0.223901  
  0.537153 0.00113904 -0.0269955  
  0.491426 -0.000331421 -0.0323642  
  0.516633 0.00680826 0.00623908  
  0.475537 -0.0107795 -0.0901673  
  0.460349 -0.00542347 -0.0590541  
  0.555541 -0.00616433 -0.0693895  
  0.516259 -0.0147818  -0.115395  
  0.542401 -0.0213194  -0.154107  
  0.581668 -0.0127044  -0.108123  
  0.548964 -0.0137456  -0.111756  
  0.396374  0.0627817   0.328333  
   0.44952  0.0722643   0.378827  
  0.405096  0.0716182   0.377671  
  0.283336 -0.0226636  -0.145212  
  0.334783 -0.0247648  -0.160073  
   0.32106  -0.018217  -0.122422  
 0.0691351 -0.0290729  -0.169618  
 0.0957557 -0.0212058  -0.126469  
 0.0590799 -0.0228776  -0.133943  
  0.571433   0.045476   0.220907  
  0.654869 0.00713722 -0.000798323  
  0.603709 0.000583014 -0.0344845  
  0.626049 -0.00877587 -0.0889904  
  0.641837 -0.000879709 -0.0453433  
  0.476693  -0.019221  -0.137802  
 0.0554374  0.0160977  0.0870107  
  0.109893  0.0213832   0.113323  
 0.0706325  0.0240351   0.130959  
  0.322081 -0.0380813  -0.234304  
  0.268411 -0.0473245  -0.283365  
    0.3098 -0.0471018  -0.284458  
  0.251805 -0.0375884  -0.227498  
  0.230077 -0.0460661  -0.274178  
  0.584411 -0.0227454  -0.165183  
  0.606413 -0.0158917  -0.127927  
  0.197993  0.0593424   0.321856  
  0.233886  0.0626448   0.337987  
  0.470363  0.0651415   0.337456  
  0.486678  0.0720051   0.375356  
   0.16877  0.0533774   0.290198  
  0.160738 0.00608036  0.0237709  
  0.122129  0.0134131  0.0675187  
 0.0918776 0.00674201  0.0317447  
  0.126306 0.00641276  0.0277546  
 0.0482344  0.0078673  0.0408546  
  0.165759  0.0173001  0.0866802  
  0.184898  0.0122504  0.0570398  
  0.661709  0.0155127   0.046201  
  0.552935 -0.0275316  -0.190014  
  0.124972  -0.028931  -0.171755  
 0.0954614 -0.0335462  -0.196351  
   0.57043 0.000857913 -0.0307359  
  0.129203 -0.0227836  -0.137223  
  0.438261   0.056747   0.291902  
  0.478362  0.0585584   0.299863  
  0.394156  0.0547939   0.283458  
   0.13783  0.0193457   0.099997  
  0.295758 -0.0328462  -0.203263  
   0.26758 -0.0301328  -0.186358  
  0.328435  -0.031427  -0.197194  
  0.518977  0.0855481   0.253485  
  0.519682  0.0860351   0.254546  
  0.520155  0.0859521   0.254696  
  0.520727  0.0853964   0.254073  
  0.215134  0.0686143   0.218454  
  0.214674  0.0687651   0.218903  
   0.21418  0.0685674   0.218813  
  0.213464  0.0680674   0.218241  
  0.495584 -0.0439564  -0.123714  
  0.494843 -0.0444742  -0.124309  
  0.494338 -0.0446813  -0.124405  
  0.493865 -0.0445252  -0.123943  
  0.190423 -0.0611301  -0.161178  
  0.190996 -0.0616872  -0.161806  
  0.191469 -0.0617682  -0.161653  
  0.192178 -0.0612761  -0.160585  
  0.124496   0.054564    0.10908  
  0.123606  0.0555518   0.110653  
    0.1234  0.0560599   0.111233  
  0.123104  0.0561834   0.110842  
  0.407808  0.0467628   0.273589  
   0.40815  0.0469307   0.273987  
  0.408558  0.0466673   0.273898  
  0.408793  0.0463657   0.273719  
  0.283012  -0.030183  -0.212329  
   0.28322 -0.0304356  -0.212487  
  0.283591 -0.0306188   -0.21254  
  0.283887 -0.0304673  -0.212189  
  0.588166 -0.0318506  -0.018407  
   0.58787 -0.0317266 -0.0187978  
  0.587664 -0.0312183 -0.0182172  
  0.586772 -0.0302295 -0.0166429  
    0.1294 -0.0343778 -0.0401039  
  0.129302 -0.0340374 -0.0400512  
  0.129409 -0.0332041 -0.0390854  
  0.130587 -0.0316059 -0.0368805  
  0.383832 -0.0102279  -0.171535  
  0.383733 -0.0104645  -0.171495  
  0.383652 -0.0107121  -0.171657  
  0.383819 -0.0107911  -0.171724  
  0.306109  0.0453855   0.299966  
  0.306189  0.0453468   0.299932  
  0.306067  0.0451949   0.299812  
   0.30594  0.0450109     0.2998  
  0.580751    0.05596   0.129309  
   0.58193  0.0575584   0.131514  
  0.582036  0.0583914    0.13248  
  0.581939  0.0587314   0.132532  
  0.391912 -0.0451782 -0.0107974  
  0.389187 -0.0483416 -0.0160743  
  0.388318 -0.0492639 -0.0168693  
  0.386933 -0.0480252 -0.0138192  
  0.386299   0.060101   0.122072  
  0.386828  0.0605094   0.123669  
  0.387245  0.0594119   0.122826  
  0.388797  0.0575048       0.12  
  0.324124 -0.0320554 -0.0243796  
  0.325687 -0.0340032 -0.0272877  
  0.326082 -0.0351313 -0.0281686  
  0.326572 -0.0347627 -0.0265892  
  0.323684  0.0723767   0.106789  
  0.322284  0.0736166   0.109812  
  0.321412  0.0726995   0.109025  
  0.318667  0.0695518   0.103798  
  0.419753  0.0838635   0.113675  
  0.421007  0.0869594   0.119321  
  0.421308  0.0874228   0.120087  
  0.421828  0.0857501   0.116235  
  0.346654  0.0212795   0.119255  
  0.346932  0.0208832    0.11873  
  0.346839  0.0201144   0.118227  
  0.346664  0.0196757   0.118498  
   0.36777 0.000877439 -0.0139136  
  0.367253 0.000240077 -0.0138457  
  0.367013 -0.000711547 -0.0145515  
  0.367239 -0.00121966 -0.0152539  
   0.28949  -0.061409 -0.0238349  
  0.290008 -0.0630813 -0.0276852  
   0.29031 -0.0626174   -0.02692  
  0.291562 -0.0595217 -0.0212759  
  0.237801 -0.0477755   -0.18951  
  0.238222   -0.04821  -0.189896  
  0.238716 -0.0484299  -0.189915  
   0.23914 -0.0481727  -0.189312  
  0.318649 -0.0171058  -0.114884  
   0.31904 -0.0175976   -0.11529  
  0.319543 -0.0180911  -0.115512  
  0.319934 -0.0178593  -0.114908  
  0.341562 -0.00066246  -0.108031  
  0.341777 -0.000976719   -0.10811  
  0.342108 -0.00137406  -0.108267  
  0.342521 -0.00129293  -0.107933  
  0.261314 -0.0606931 -0.0883405  
  0.262664   -0.06207  -0.090269  
  0.263268 -0.0624452 -0.0903154  
  0.264516 -0.0614268 -0.0882085  
  0.541205 -0.0478316 -0.0763641  
   0.54044  -0.048264 -0.0771842  
  0.540022 -0.0481822  -0.076982  
  0.539215 -0.0475786  -0.075805  
  0.496686 -0.0467143 -0.00818991  
  0.495717 -0.0470183 -0.00986017  
  0.495332 -0.0463442 -0.00902565  
   0.49368 -0.0442432 -0.00558117  
  0.508256 -0.0128591  0.0351503  
  0.508459 -0.0117492  0.0355616  
  0.508301 -0.0105319  0.0369238  
   0.50707 -0.00847578  0.0397818  
  0.428853 -0.0432421 -0.0631745  
  0.427232 -0.0444794 -0.0647727  
  0.426492 -0.0450768 -0.0652051  
  0.425729 -0.0448025  -0.064447  
  0.171472  0.0717883   0.168574  
  0.170672  0.0723866   0.169741  
  0.170256  0.0724687   0.169942  
  0.169499  0.0720404   0.169131  
  0.217576  0.0685811  0.0979978  
  0.215926  0.0706808   0.101439  
  0.215541  0.0713549   0.102274  
  0.214573  0.0710507   0.100605  
   0.20424  0.0328198  0.0526211  
  0.203009  0.0348756  0.0554785  
   0.20285  0.0360927  0.0568406  
  0.203054   0.037202  0.0572516  
  0.283425   0.069089   0.159736  
  0.282684  0.0693512   0.160461  
   0.28195  0.0687723   0.160046  
  0.280384  0.0675841   0.158527  
  0.360467  0.0407832   0.311978  
  0.360694  0.0408262   0.312084  
  0.360812  0.0407098   0.312022  
  0.360847  0.0405614    0.31202  
  0.466186   0.071762   0.275115  
  0.466624  0.0720333   0.275744  
  0.467137  0.0717884   0.275712  
  0.467584  0.0713248   0.275298  
  0.448015  0.0857573   0.182273  
  0.449249  0.0867588   0.184344  
  0.449856  0.0863892   0.184303  
  0.451185  0.0850375   0.182423  
  0.257038  0.0566643   0.263947  
  0.256895  0.0566138   0.263974  
  0.256529  0.0563795   0.263803  
  0.256122  0.0560473   0.263601  
  0.146703  -0.061173  -0.117581  
  0.147175 -0.0615942  -0.118247  
  0.147494 -0.0613379   -0.11778  
  0.148521 -0.0603992  -0.116063  
  0.562997  0.0847231   0.208729  
  0.564022   0.085658   0.210441  
   0.56434   0.085913   0.210907  
  0.564811  0.0854925   0.210243  
  0.446558 -0.0304025  -0.161233  
   0.44611 -0.0307761  -0.161451  
  0.445716 -0.0310551  -0.161652  
  0.445572 -0.0311243  -0.161645  
  0.354138  0.0230332   0.211882  
  0.354489  0.0229841   0.211927  
  0.354631  0.0226312   0.211764  
  0.354714  0.0223678   0.211856  
   0.39469  0.0828654   0.115823  
  0.395986  0.0849621   0.120677  
  0.396446  0.0843642   0.120353  
  0.398016  0.0811917   0.114727  
  0.338893  0.0394458  0.0984519  
  0.338805   0.038849   0.097794  
  0.338273  0.0375748  0.0966942  
  0.336717  0.0360987  0.0954704  
  0.373599 -0.0112801  0.0017171  
  0.371926 -0.0128772 0.000302862  
  0.371399 -0.0142059 -0.000858019  
  0.371308 -0.0148359 -0.00152817  
  0.313315 -0.0568588 -0.0223296  
  0.314881 -0.0600306 -0.0279526  
   0.31534 -0.0606277 -0.0282776  
  0.316633  -0.058529  -0.023427  
  0.361527 0.00719866 -0.0356469  
  0.361542  0.0068542 -0.0353415  
  0.361571 0.00621407  -0.035708  
  0.361912 0.00591793 -0.0360487  
  0.265335 -0.0383268 -0.00543944  
  0.265197   -0.03818 -0.00661279  
  0.265395 -0.0369437 -0.00514584  
  0.266725 -0.0337497 -0.000389512  
  0.444605  0.0580958   0.092794  
  0.445936  0.0612904  0.0975515  
  0.446134  0.0625264  0.0990185  
  0.445997  0.0626727  0.0978444  
  0.369022  0.0256681   0.181657  
  0.369443  0.0257609    0.18207  
  0.369809   0.025303   0.181882  
  0.370068  0.0249472    0.18173  
  0.329975  0.0316943   0.202729  
  0.330134  0.0314651   0.202476  
  0.329935  0.0309882   0.202161  
  0.329706  0.0305971    0.20222  
  0.611961 0.00523701  0.0552466  
  0.612354 0.00616931  0.0559558  
  0.612308 0.00700437  0.0568288  
  0.611607 0.00801248    0.05808  
  0.334937 -0.0157817  -0.212823  
  0.335014 -0.0159492  -0.212846  
  0.335207 -0.0160872  -0.212905  
  0.335472 -0.0160157  -0.212732  
 0.0997038  0.0163313  0.0343259  
 0.0990032  0.0173391  0.0355768  
 0.0989568   0.018174  0.0364495  
 0.0993497  0.0191058  0.0371584  
  0.477038  0.0303169  0.0736046  
  0.478078  0.0327142   0.076578  
  0.478104  0.0340995  0.0781602  
  0.477557  0.0353544  0.0791209  
  0.233772 -0.0110079  0.0132836  
  0.233225 -0.0097527  0.0142447  
  0.233251 -0.00836739  0.0158267  
  0.234291 -0.00597084  0.0187993  
  0.356881 0.00695313 -0.0684659  
  0.357015 0.00666418  -0.068296  
   0.35717 0.00618988 -0.0685148  
  0.357561 0.00606685 -0.0685331  
  0.305544  0.0504654   0.182027  
  0.305363  0.0502606   0.181894  
  0.304805  0.0496272    0.18142  
  0.303964  0.0488852   0.180933  
  0.471444  0.0913697    0.16044  
  0.473324   0.093225   0.163916  
  0.473779  0.0933354   0.164346  
  0.475092  0.0919771   0.161969  
  0.236619 -0.0676335  -0.069252  
  0.237935 -0.0689972 -0.0716428  
  0.238389 -0.0688865 -0.0712128  
  0.240271 -0.0670245 -0.0677245  
   0.40236 -0.0239487 -0.0755728  
  0.401411 -0.0247869 -0.0761531  
   0.40083 -0.0254962 -0.0766951  
  0.400635 -0.0257292  -0.076855  
  0.304397  0.0815856   0.101331  
    0.3031  0.0844272   0.106638  
  0.302443  0.0846655   0.107038  
  0.301077  0.0827272   0.102458  
  0.335916 -0.0124729 -0.0296202  
  0.336633 -0.0134088  -0.030794  
  0.337062 -0.0143391 -0.0314156  
  0.337233 -0.0142691 -0.0306042  
  0.382285  0.0426101   0.157181  
  0.382651  0.0428582   0.158047  
  0.383172  0.0421263   0.157632  
  0.383752  0.0413953   0.156797  
  0.410082 -0.0583898 -0.0100274  
  0.408717 -0.0603313 -0.0146149  
   0.40806 -0.0600935 -0.0142152  
  0.406767 -0.0572503 -0.00890147  
  0.373509  0.0583026   0.093996  
  0.373893  0.0586764  0.0963096  
  0.374152  0.0572881  0.0950969  
   0.37574  0.0541553  0.0899963  
  0.344744  0.0490259  0.0829836  
  0.344103  0.0488561  0.0837168  
  0.343378  0.0473468  0.0822791  
  0.340992  0.0443179  0.0779131  
  0.369937 -0.0198113  0.0150396  
  0.367578 -0.0228561  0.0106377  
  0.366858 -0.0243759 0.00918865  
  0.366237 -0.0245691 0.00991916  
  0.335815 -0.0295888 0.00276927  
  0.337385 -0.0327194 -0.00233231  
   0.33764 -0.0341134 -0.00355222  
  0.338005 -0.0337543 -0.00125994  
  0.353456  0.0158592   0.123366  
  0.353848  0.0156762   0.123273  
  0.354006  0.0151199   0.123007  
  0.354162  0.0148484    0.12326  
  0.438268 -0.0554429 -0.0360109  
   0.43611 -0.0571549 -0.0391268  
  0.435396 -0.0574454 -0.0392455  
  0.433888 -0.0561209  -0.036622  
  0.413209  0.0665432    0.18161  
  0.413819  0.0670371   0.182785  
  0.414456  0.0663769   0.182443  
  0.415447  0.0653088   0.181159  
  0.299741 -0.0405452 -0.0793281  
  0.300818 -0.0417133 -0.0807767  
  0.301445 -0.0424292  -0.081174  
  0.302064 -0.0419211 -0.0799324  
  0.277308  0.0804519    0.12909  
  0.275801  0.0817771   0.131711  
  0.275088  0.0814877   0.131593  
  0.272932  0.0797771   0.128481  
  0.274671  0.0420142  0.0617932  
  0.273825  0.0446949  0.0656879  
  0.273626  0.0460337  0.0672274  
  0.273828  0.0469354  0.0670963  
  0.347796 0.00432899 -0.0396218  
  0.348104 0.00392851 -0.0398147  
  0.348449 0.00336646 -0.0400621  
   0.34886 0.00336571 -0.0396484  
  0.437485 -0.0225943  0.0253029  
  0.437687 -0.0216921  0.0251719  
  0.437488 -0.0203532  0.0267115  
  0.436642 -0.0176723  0.0306067  
  0.316194  0.0635257   0.124027  
  0.315377  0.0637146   0.124826  
  0.314639  0.0627737   0.124043  
  0.312454  0.0608967   0.121539  
  0.298929 -0.0527831 -0.0464668  
  0.300775 -0.0549591 -0.0498171  
  0.301273   -0.05569 -0.0502533  
  0.302575 -0.0545369 -0.0475352  
  0.410045  0.0791936   0.141515  
  0.411352  0.0803442   0.144206  
  0.411858  0.0796281   0.143788  
  0.413691   0.077488   0.140509  
   0.39723 -0.0363369 -0.0264078  
  0.394984 -0.0382922 -0.0290472  
  0.394248 -0.0392574 -0.0298571  
  0.393411 -0.0390591 -0.0290116  
  0.375195 -0.00379621 -0.0651959  
  0.374852 -0.00431461 -0.0651244  
  0.374606 -0.00499376 -0.0655921  
  0.374775 -0.00534756 -0.0660249  
  0.471118  0.0787126   0.123743  
  0.473044  0.0814855   0.128435  
  0.473329  0.0822284    0.12946  
  0.473992  0.0814838   0.127303  
  0.237416 -0.0571385 -0.0348639  
  0.238078 -0.0578831 -0.0370216  
  0.238362 -0.0571397 -0.0359967  
  0.240286 -0.0543665 -0.0313034  
  0.288799  0.0683777    0.08559  
  0.287701  0.0714788  0.0907987  
  0.287222  0.0723379  0.0918645  
  0.286588  0.0716128  0.0891426  
  0.342257 -0.00291329 -0.0352854  
  0.342681 -0.00349479 -0.0358888  
  0.343076 -0.00420355 -0.0362807  
  0.343375 -0.00414563 -0.0356239  
  0.424684 -0.0472764 0.00325696  
  0.424051 -0.0480013 0.000533847  
  0.423571 -0.0471421 0.00159952  
  0.422473 -0.0440398 0.00680985  
  0.368506  0.0284103   0.134156  
  0.368817  0.0284798   0.134795  
  0.369218  0.0278046   0.134435  
  0.369632  0.0272567   0.133894  
  0.360344  0.0189097   0.128169  
  0.360777  0.0188831   0.128523  
    0.3611  0.0183473   0.128301  
  0.361386  0.0179923   0.128194  
  0.338905  0.0390293  0.0985502  
  0.305343  0.0501198   0.182051  
  0.329934  0.0316365   0.202837  
  0.346853  0.0215386   0.119716  
  0.325795  0.0463586   0.134554  
  0.341421  0.0299126   0.109755  
  0.316889  0.0405984   0.195372  
  0.340145  0.0262415    0.15911  
  0.325644  0.0459273   0.134587  
   0.34164  0.0300423   0.110172  
  0.316789  0.0404486    0.19546  
  0.340194  0.0263001   0.159355  
  0.331664  0.0358429   0.148874  
  0.331664  0.0357751   0.149084  
  0.338867  0.0392852  0.0980921  
  0.305508   0.050457   0.181944  
  0.330089  0.0316223   0.202586  
  0.346811  0.0211443   0.118936  
  0.325612  0.0460023   0.134238  
  0.341567  0.0293645   0.109011  
  0.316901  0.0403426   0.195109  
  0.340367   0.025916   0.158717  
  0.325749  0.0463106   0.134382  
   0.34152  0.0297218   0.109298  
   0.31694  0.0405292   0.195219  
  0.340285  0.0261287   0.158884  
  0.331724  0.0354413   0.148395  
  0.331734  0.0357155   0.148599  
  0.338631  0.0382361  0.0973475  
  0.305142  0.0499642   0.181741  
  0.330076  0.0312345    0.20233  
  0.346943   0.020496   0.118449  
  0.325019  0.0450528   0.133467  
  0.341226  0.0283392   0.108215  
  0.316516  0.0397838   0.194709  
  0.340204  0.0252826   0.158303  
  0.325398  0.0455551    0.13396  
  0.341478  0.0288553   0.108614  
   0.31676  0.0400753   0.194945  
  0.340336  0.0256039   0.158512  
  0.331328  0.0346429     0.1478  
  0.331595  0.0350541   0.148137  
  0.337551   0.036841  0.0958969  
   0.30434    0.04924   0.181054  
  0.329775  0.0307509   0.202086  
  0.346696  0.0198079   0.118143  
  0.323783  0.0439313   0.132611  
  0.340484  0.0275251   0.108056  
  0.316025  0.0392538   0.194572  
  0.339986  0.0248347   0.158453  
  0.324393  0.0444841   0.132878  
   0.34081  0.0278566   0.107863  
  0.316217  0.0394801    0.19452  
  0.340043  0.0249995   0.158227  
  0.330691  0.0339386   0.147631  
  0.330954  0.0342357   0.147537  
  0.337031  0.0360884   0.096031  
  0.304151  0.0488777   0.181231  
  0.329833  0.0307442   0.202492  
   0.34708   0.019995   0.119154  
  0.324036  0.0439093   0.133038  
  0.340991  0.0278517   0.108794  
  0.316204  0.0393766    0.19488  
  0.340225  0.0250669   0.158879  
  0.331003  0.0341571   0.148125  
  0.234529 -0.00977781  0.0138798  
   0.26497 -0.0343077 -0.00296283  
  0.237289 -0.0533639  -0.032655  
  0.129873 -0.0332666 -0.0395795  
     0.249 -0.0256589 0.00282592  
  0.180176 -0.0234128 -0.00881975  
  0.248967   -0.04863 -0.0199722  
  0.187239 -0.0484024 -0.0403496  
  0.249501 -0.0233873 0.00399307  
  0.180882 -0.0220196 -0.00812043  
  0.248699 -0.0445534 -0.0173857  
  0.187659 -0.0462587 -0.0392796  
   0.21544 -0.0377195  -0.016703  
   0.21588  -0.035206 -0.0152959  
  0.233397 -0.0104494  0.0135786  
  0.265268 -0.0384794 -0.00681763  
  0.237903 -0.0578926 -0.0365538  
  0.129313 -0.0343699 -0.0402007  
  0.248785 -0.0250201 0.00265201  
  0.179874 -0.0226739 -0.0084418  
  0.249225 -0.0489692 -0.0217151  
  0.187546  -0.048501 -0.0411947  
  0.248955 -0.0255949  0.0021543  
  0.179969 -0.0231912 -0.00880822  
  0.249177 -0.0491265 -0.0215028  
  0.187441 -0.0487284 -0.0410825  
  0.215484 -0.0374587 -0.0172823  
  0.215498  -0.037835 -0.0173614  
  0.233202 -0.00910407  0.0149274  
  0.265237 -0.0376821 -0.00629373  
  0.238188 -0.0576382 -0.0368179  
  0.129311 -0.0336628  -0.039694  
  0.248942 -0.0236874 0.00420082  
  0.179955 -0.0215217 -0.00712133  
  0.249446 -0.0479685 -0.0204514  
  0.187746 -0.0476418  -0.040111  
  0.248824 -0.0244651 0.00314522  
  0.179863 -0.0221502 -0.00789301  
  0.249295 -0.0486007  -0.021396  
  0.187606 -0.0481546 -0.0408674  
  0.215642 -0.0363436 -0.0159406  
  0.215516 -0.0369886 -0.0167973  
  0.233524 -0.00733561   0.017029  
    0.2656 -0.0358204 -0.00372581  
  0.238843 -0.0562087 -0.0343323  
  0.129779 -0.0325365 -0.0380489  
  0.250246 -0.0207833 0.00820763  
  0.181309 -0.0193413 -0.00427726  
  0.251093  -0.044899 -0.0155851  
  0.189466 -0.0453928 -0.0366433  
  0.249162  -0.022626 0.00550847  
  0.180307 -0.0206341 -0.00590824  
  0.249823 -0.0469256 -0.0188279  
  0.188237 -0.0468199 -0.0386893  
   0.21729 -0.0336908 -0.0120421  
  0.216036 -0.0353526 -0.0144501  
  0.236123 -0.00427457  0.0200888  
  0.269367 -0.0293326 0.00312784  
  0.242378  -0.050585   -0.02897  
  0.131313 -0.0308339 -0.0367509  
  0.252342 -0.0179588   0.010309  
  0.182572 -0.0181765 -0.0037292  
   0.25372 -0.0407176 -0.0125554  
  0.190725 -0.0434631 -0.0357899  
  0.219098 -0.0311781 -0.0104969  
  0.356876 0.00686221 -0.0686865  
  0.361255 0.00693509 -0.0361421  
  0.374927 -0.00402734 -0.0656464  
  0.383816 -0.0102786  -0.171655  
  0.359739 0.00743736 -0.0521412  
  0.364876 0.000449525  -0.120048  
  0.367199 0.00251146 -0.0520793  
  0.381083 -0.00590659  -0.113741  
  0.359618 0.00725029  -0.052465  
  0.364881 0.000362667  -0.120216  
  0.366931 0.00225842 -0.0525623  
   0.38097 -0.00604495  -0.113997  
  0.367406 0.00199366 -0.0847139  
   0.36729 0.00182224 -0.0850172  
  0.356958 0.00685972 -0.0682932  
  0.361583 0.00709746 -0.0353167  
  0.375081 -0.00399642 -0.0649972  
  0.383802 -0.0103265  -0.171463  
  0.359829 0.00712419 -0.0518852  
  0.364881 0.000167379  -0.119927  
   0.36705 0.00208897 -0.0518609  
  0.380879 -0.00628152  -0.113673  
  0.359819 0.00733694  -0.051878  
  0.364893 0.000341997  -0.119916  
   0.36718 0.00236884 -0.0518012  
  0.381024 -0.00605396  -0.113606  
  0.367348 0.00164453 -0.0845356  
  0.367415 0.00186884 -0.0845123  
  0.357073 0.00642198 -0.0684035  
  0.361514 0.00653521 -0.0354941  
  0.374672 -0.00466075 -0.0653686  
  0.383668 -0.0105961  -0.171585  
  0.359919 0.00657349 -0.0521691  
  0.364917 -0.00020648  -0.120125  
  0.366948 0.00142967  -0.052278  
    0.3807 -0.00673956   -0.11397  
  0.359846 0.00684938 -0.0520077  
  0.364873 -2.63394e-05   -0.12003  
  0.366949 0.00175622 -0.0520611  
   0.38075 -0.00651837  -0.113831  
  0.367307 0.00113631   -0.08483  
  0.367291 0.00138564 -0.0846822  
  0.357341 0.00605622 -0.0685448  
  0.361713 0.00600719 -0.0358347  
  0.374657 -0.00522668  -0.065774  
  0.383711 -0.0107813  -0.171692  
  0.360279 0.00635144 -0.0523634  
  0.365215 -0.000322739    -0.1202  
  0.367215 0.00109742 -0.0526876  
  0.380868 -0.00695503  -0.114204  
   0.36008  0.0064148  -0.052237  
   0.36504 -0.000310261  -0.120168  
  0.367052 0.00120558 -0.0524495  
  0.380751 -0.00688888  -0.114073  
  0.367589 0.000907398 -0.0850659  
   0.36742 0.00097632 -0.0849365  
  0.357628 0.00616424 -0.0685888  
  0.361796 0.00575103 -0.0363666  
  0.374735 -0.00538187 -0.0662665  
  0.383874 -0.0107156  -0.171757  
  0.360286 0.00634788 -0.0524999  
  0.365257 -0.000232613   -0.12025  
  0.367118 0.000963608 -0.0530001  
   0.38091 -0.00689638  -0.114307  
  0.367588 0.000913537  -0.085222  
  0.475204  0.0286197  0.0723148  
  0.441962  0.0536769  0.0892762  
  0.469028  0.0749341   0.121413  
  0.580025  0.0551877   0.129179  
  0.461083  0.0451297  0.0841967  
  0.530027  0.0436925  0.0966906  
  0.460277  0.0692447   0.108003  
  0.521911  0.0697425   0.129077  
  0.458987  0.0423039  0.0820951  
  0.528764  0.0425271  0.0961426  
  0.457651  0.0650644   0.104976  
  0.520653  0.0678135   0.128226  
  0.494065  0.0580391   0.104458  
  0.492257  0.0555263   0.102913  
  0.477805  0.0316822  0.0753754  
  0.445731  0.0601668  0.0961311  
  0.472562  0.0805548    0.12677  
  0.581559  0.0568907   0.130477  
  0.462388  0.0480345  0.0882045  
  0.531381  0.0458735  0.0995354  
  0.461926  0.0723146    0.11287  
  0.523631  0.0719914   0.132545  
  0.462168  0.0469729  0.0868966  
  0.531029  0.0449858   0.098322  
  0.461548  0.0712718   0.111246  
   0.52314  0.0711696   0.131123  
  0.495714  0.0606924   0.108357  
  0.495319  0.0597013   0.106866  
  0.478127  0.0334509  0.0774774  
  0.446094  0.0620287  0.0986994  
  0.473219  0.0819837   0.129256  
  0.582027   0.058017   0.132123  
  0.462545  0.0493671  0.0897534  
  0.531462  0.0470256   0.100856  
  0.462147   0.073315   0.114134  
  0.523832  0.0728501   0.133628  
  0.462506  0.0488122  0.0892602  
  0.531474   0.046502   0.100307  
  0.462077  0.0729467   0.113814  
  0.523772   0.072504   0.133301  
  0.495872  0.0618072   0.109698  
  0.495839  0.0613373   0.109213  
  0.477932  0.0347961  0.0788261  
  0.446063  0.0628256  0.0992231  
  0.473504  0.0822378   0.128992  
  0.582026  0.0587238   0.132629  
  0.462331  0.0500055   0.089579  
  0.531161  0.0477641   0.101233  
  0.462406  0.0729754    0.11239  
  0.524139  0.0727512   0.132783  
  0.462376  0.0499418   0.090251  
  0.531368  0.0475428   0.101222  
  0.462196  0.0734722   0.113921  
  0.523938  0.0730774   0.133516  
  0.495916  0.0620676   0.109119  
  0.495858  0.0621834   0.109777  
    0.4768  0.0341236  0.0785243  
  0.446362  0.0586527  0.0953673  
  0.474118  0.0777123   0.125097  
  0.581466  0.0576201   0.132008  
   0.46183  0.0477331  0.0884114  
  0.530454  0.0463704   0.100534  
  0.462673  0.0689001   0.109806  
  0.523719  0.0706083   0.131714  
  0.495477  0.0595541   0.107712  
  0.392508  0.0769613   0.111754  
  0.415923  0.0765895   0.107869  
  0.394711  0.0755364  0.0992407  
  0.381876  0.0839432   0.107753  
  0.407829  0.0875229   0.118314  
  0.390237  0.0672009  0.0896558  
  0.376848  0.0744649  0.0975397  
  0.404672  0.0806896   0.113303  
  0.389071  0.0847118   0.107506  
  0.383886  0.0750691  0.0967707  
  0.395893  0.0846183     0.1197  
  0.420692  0.0858877   0.117748  
  0.394853  0.0794299   0.104555  
  0.381656  0.0865022   0.112293  
  0.409217   0.090275   0.123887  
  0.394491  0.0780498   0.102486  
  0.381313  0.0855909   0.110661  
  0.409014  0.0895611   0.122611  
  0.389004  0.0881214   0.112708  
  0.388574  0.0868784   0.110702  
  0.396203  0.0848998   0.121132  
  0.421162  0.0873458   0.120303  
  0.394746  0.0802437   0.105607  
  0.381571  0.0860889   0.112075  
  0.409655  0.0902032   0.124125  
  0.394831  0.0798922   0.105457  
  0.381599  0.0863353    0.11266  
  0.409435  0.0904676   0.124693  
  0.388878  0.0883488    0.11315  
   0.38895  0.0882681   0.113371  
  0.396699  0.0834808   0.118917  
  0.421408  0.0870385   0.119359  
  0.394003  0.0786384   0.102648  
  0.381286  0.0828896   0.106799  
   0.41078  0.0875992   0.119073  
  0.394969  0.0798303   0.104693  
  0.381886  0.0847891   0.110203  
  0.409812  0.0895614   0.123044  
  0.388279  0.0858378   0.108794  
  0.389201  0.0873948   0.111651  
  0.399548  0.0754647   0.110778  
  0.423445  0.0789457   0.111155  
  0.396785  0.0710889  0.0945546  
  0.385072  0.0731564  0.0968546  
    0.4124  0.0810454   0.114407  
  0.391865  0.0763593  0.0989679  
  0.350893  0.0149287  0.0805551  
  0.346212  0.0237832  0.0718467  
  0.351246  0.0154685  0.0814607  
  0.346824  0.0241786  0.0728466  
  0.347991  0.0188378  0.0763582  
  0.348564  0.0194381   0.077433  
  0.351222  0.0145466  0.0800783  
  0.346518  0.0230161  0.0708156  
  0.351064  0.0148969  0.0803882  
  0.346437  0.0236309  0.0714323  
  0.348308  0.0182661  0.0755561  
  0.348182   0.018739  0.0760234  
  0.351268   0.013766   0.079588  
  0.346221  0.0217011   0.069696  
  0.351311  0.0141631  0.0798097  
  0.346493  0.0223827  0.0702838  
  0.348178  0.0172305   0.074771  
  0.348344  0.0177568  0.0751428  
  0.351241   0.013511  0.0799793  
  0.345111  0.0206613  0.0691327  
   0.35122  0.0134674  0.0795809  
  0.345736  0.0210399  0.0691696  
  0.347709  0.0167125  0.0749121  
  0.347925  0.0167821  0.0745731  
  0.351862  0.0138398   0.081063  
  0.345859  0.0209893  0.0704274  
   0.34848   0.017108  0.0762299  
  0.373315 -0.0111999 0.00119078  
  0.367198 0.000538707 -0.0147457  
  0.361244   0.010154  0.0156962  
  0.366129 0.00405001  0.0252486  
  0.371464  -0.005171 -0.00635965  
  0.360568  0.0097833  0.0144931  
  0.365387 0.00373369  0.0239316  
   0.37094 -0.00543474 -0.00711566  
  0.364111 0.00727611  0.0203955  
  0.363314 0.00688928  0.0190031  
  0.372675 -0.0120967 0.00117977  
  0.367552 0.000658147 -0.0136166  
    0.3611 0.00983373  0.0160531  
  0.364978  0.0029732  0.0246264  
  0.370427 -0.00620743 -0.00682593  
  0.361214  0.0101735  0.0161112  
  0.365471 0.00364932  0.0251782  
  0.370956 -0.00562919 -0.00631421  
  0.363529  0.0066828  0.0204331  
  0.363827 0.00717232  0.0206883  
  0.371568 -0.0135666 -0.000380408  
  0.367054 -0.000236683 -0.0141829  
  0.361093 0.00896069  0.0154644  
   0.36468 0.00163129  0.0234767  
  0.370018 -0.00736049 -0.00776657  
  0.361018 0.00939206  0.0157855  
  0.364703 0.00227724  0.0240244  
  0.370132 -0.00679199 -0.00731553  
   0.36337 0.00558385  0.0195751  
   0.36334 0.00612199  0.0200212  
  0.371332 -0.0146644 -0.00116731  
  0.367096 -0.00105754 -0.0148474  
   0.36141  0.0084959   0.014853  
  0.364999 0.000835145  0.0224146  
  0.370118 -0.00796799 -0.00856707  
  0.361243 0.00857249  0.0150942  
  0.364763 0.000998623  0.0228385  
  0.370039 -0.00776774 -0.00808627  
  0.363697 0.00496672  0.0187096  
  0.363489 0.00507353  0.0190644  
  0.371274 -0.0143561 -0.00160755  
  0.366934 -0.00151528 -0.0158319  
  0.360975 0.00792829   0.013866  
  0.364368 0.000433726  0.0213831  
  0.369896 -0.00799945 -0.00895371  
  0.363073 0.00435498  0.0175867  
  0.311785 -0.0511346 -0.0183828  
  0.287875 -0.0546068 -0.0187569  
  0.317324  -0.054297 -0.0102472  
  0.330043 -0.0585509 -0.0144016  
  0.300544 -0.0632627 -0.0266769  
  0.314543 -0.0467485 -0.00215509  
  0.326265 -0.0488252 -0.0044641  
  0.298925  -0.056711 -0.0220128  
  0.323049 -0.0614994 -0.0163961  
  0.319466 -0.0520237 -0.00657288  
  0.314627 -0.0591475 -0.0265179  
  0.289909 -0.0626975 -0.0269584  
   0.31658 -0.0559018 -0.0132057  
  0.329757 -0.0617521 -0.0196772  
  0.301666 -0.0658665 -0.0317275  
  0.316357 -0.0554888 -0.0122916  
  0.329442 -0.0604531 -0.0178033  
   0.30151 -0.0652251 -0.0306459  
  0.322449 -0.0640109 -0.0207512  
  0.322126 -0.0630574 -0.0192522  
  0.315123  -0.060566 -0.0287332  
  0.290155 -0.0630041  -0.027902  
  0.316472 -0.0550877 -0.0121542  
  0.329671 -0.0621656 -0.0198953  
  0.302104 -0.0659379 -0.0314896  
  0.316494 -0.0555502 -0.0130558  
  0.329728 -0.0619986 -0.0202614  
  0.301886 -0.0661306 -0.0322951  
  0.322323 -0.0637833 -0.0203093  
  0.322377   -0.06393 -0.0209719  
  0.315432 -0.0602844 -0.0273013  
  0.290624 -0.0615458 -0.0253466  
  0.316614  -0.051195 -0.00684101  
  0.329451 -0.0596055 -0.0153564  
   0.30349 -0.0631864 -0.0259192  
  0.316835 -0.0537077 -0.0100847  
  0.330014 -0.0612539  -0.018262  
  0.302306 -0.0652237 -0.0302129  
  0.322255 -0.0603734 -0.0151093  
  0.322752 -0.0625403  -0.018303  
  0.318811 -0.0526334 -0.0193594  
  0.295389 -0.0522523 -0.0154718  
  0.321085 -0.0428621 0.00274293  
  0.334471 -0.0501343 -0.00515071  
  0.306644  -0.056356 -0.0209095  
  0.327434 -0.0507365 -0.00437718  
  0.495473 -0.0436616  -0.123785  
  0.428839 -0.0425336 -0.0631577  
  0.438841 -0.0531895 -0.0349389  
  0.541122 -0.0471293 -0.0762081  
  0.457338 -0.0451406 -0.0908849  
  0.521454 -0.0472808  -0.102836  
  0.436219 -0.0505833 -0.0498522  
  0.481806 -0.0552185 -0.0551082  
  0.457247 -0.0446543 -0.0909369  
  0.521362 -0.0468019  -0.102813  
  0.436445 -0.0492466 -0.0494471  
   0.48189 -0.0538496  -0.054624  
  0.472274 -0.0514767 -0.0741995  
  0.472259 -0.0506159  -0.074044  
  0.495224  -0.044264  -0.123969  
   0.42798 -0.0439677 -0.0639524  
  0.436897   -0.05664 -0.0379505  
  0.540788 -0.0481721 -0.0768087  
  0.456158 -0.0459916  -0.091936  
   0.52068 -0.0477838   -0.10356  
  0.434274 -0.0520756 -0.0521769  
  0.480316 -0.0561932 -0.0569195  
  0.456735 -0.0456414 -0.0913682  
  0.521055 -0.0476175  -0.103187  
  0.435093 -0.0515477 -0.0511452  
   0.48093 -0.0559248 -0.0561576  
  0.470909 -0.0524178 -0.0756306  
  0.471526 -0.0520907 -0.0749466  
  0.494573 -0.0445976  -0.124477  
   0.42681 -0.0448256 -0.0651946  
  0.435726 -0.0573994 -0.0394883  
  0.540238 -0.0482503 -0.0772517  
  0.455497 -0.0463834 -0.0921753  
  0.520208 -0.0478668  -0.103525  
  0.433536 -0.0525502 -0.0524806  
  0.479707 -0.0562559 -0.0568102  
  0.455793 -0.0462208 -0.0922254  
  0.520438 -0.0478484  -0.103689  
  0.433866 -0.0523815 -0.0525861  
  0.480003 -0.0562831 -0.0571117  
  0.470254 -0.0526731 -0.0757227  
  0.470559 -0.0525896 -0.0758907  
  0.494069 -0.0446942  -0.124153  
  0.426089 -0.0451532 -0.0648677  
  0.434817 -0.0571981 -0.0382583  
  0.539654  -0.048008 -0.0763876  
  0.454851 -0.0461452 -0.0915402  
  0.519576 -0.0475205  -0.102739  
  0.432392 -0.0518182 -0.0509122  
  0.478455 -0.0552387 -0.0548961  
  0.455141 -0.0464184 -0.0918587  
  0.519886 -0.0478017  -0.103113  
  0.433014 -0.0524849 -0.0518302  
  0.479171 -0.0560128 -0.0559556  
  0.469318 -0.0520988 -0.0745224  
  0.469799 -0.0525898 -0.0751559  
  0.494087  -0.044091  -0.123956  
  0.426105 -0.0437453 -0.0641863  
   0.43394 -0.0536203 -0.0356054  
  0.539316 -0.0469029 -0.0757915  
  0.455163 -0.0454127 -0.0914466  
  0.519764 -0.0469752  -0.102748  
  0.432708 -0.0501769 -0.0503721  
  0.478582 -0.0537947 -0.0545161  
  0.469591 -0.0510607  -0.074326  
  0.519066  0.0849732   0.253498  
  0.448019  0.0842169   0.181795  
  0.413304  0.0653999   0.181195  
  0.466301  0.0713285   0.275075  
  0.479148  0.0871978   0.214267  
  0.494524  0.0800499   0.269238  
  0.431152  0.0773986    0.18541  
  0.436073  0.0697963   0.223271  
  0.479216  0.0861874     0.2141  
  0.494649   0.079568   0.269234  
  0.431267  0.0761187   0.185008  
  0.436197  0.0690279   0.223087  
  0.458639   0.079877   0.222839  
  0.458777  0.0790265   0.222689  
   0.51934  0.0859165    0.25399  
  0.448733  0.0865728    0.18342  
  0.413511  0.0670674   0.182309  
  0.466374  0.0720113   0.275428  
  0.480158  0.0879649   0.215843  
  0.495068  0.0803942   0.270031  
  0.432037  0.0780991   0.186944  
  0.436641  0.0702056   0.224191  
    0.4797  0.0877984   0.215075  
  0.494777  0.0803364   0.269615  
  0.431625  0.0780351   0.186265  
  0.436334  0.0701931   0.223766  
  0.459395  0.0804243    0.22402  
  0.459016  0.0803501   0.223446  
  0.519921  0.0860271    0.25479  
  0.449529  0.0866479   0.184621  
  0.414093  0.0667538    0.18283  
   0.46687  0.0719343   0.275844  
   0.48074  0.0877561   0.215941  
  0.495572  0.0802153   0.270075  
  0.432682  0.0775582   0.186729  
  0.437266  0.0697612   0.224039  
   0.48044  0.0879135   0.216133  
  0.495315  0.0803324   0.270194  
  0.432324  0.0778875   0.187097  
  0.436928  0.0700181   0.224284  
  0.460017  0.0800783   0.223974  
  0.459687  0.0802944   0.224204  
  0.520466  0.0857639   0.254373  
  0.450468   0.085919   0.183431  
  0.414993  0.0659016   0.181757  
  0.467419   0.071585   0.275465  
  0.481683   0.086836   0.214772  
  0.496086  0.0797023   0.269566  
   0.43386  0.0763333   0.185167  
  0.437983  0.0690076    0.22325  
  0.481214  0.0874396   0.215368  
  0.495873  0.0800132   0.269789  
  0.433272  0.0770739   0.185942  
  0.437685  0.0694291   0.223592  
  0.460858   0.079233   0.223008  
  0.460472  0.0797438   0.223461  
  0.520516    0.08488   0.253976  
  0.450988  0.0837292   0.182002  
  0.415127  0.0646578   0.181062  
  0.467354  0.0710609   0.275286  
  0.481434  0.0859634   0.214548  
  0.495873  0.0793445   0.269528  
  0.433612  0.0754266   0.184952  
  0.437686  0.0685618   0.223204  
  0.460593  0.0786196   0.222903  
  0.190634  -0.060609   -0.16108  
  0.261505  -0.059351 -0.0879004  
  0.300053 -0.0398351 -0.0792022  
  0.238021 -0.0475269    -0.1895  
  0.230276 -0.0625836  -0.121158  
  0.211716 -0.0556246  -0.179714  
  0.280648 -0.0517169 -0.0871832  
  0.273764 -0.0451946  -0.127575  
  0.230524 -0.0616941  -0.120927  
  0.211924 -0.0552737  -0.179676  
  0.280884 -0.0507448  -0.086938  
  0.274061 -0.0447216  -0.127524  
  0.251195 -0.0551667  -0.128192  
   0.25146 -0.0545286  -0.128078  
  0.190685 -0.0614993  -0.161481  
  0.262047 -0.0615922 -0.0893794  
   0.30025 -0.0411975 -0.0800136  
  0.237955 -0.0480208  -0.189665  
   0.23123 -0.0635156   -0.12235  
  0.212214 -0.0561212  -0.180206  
  0.281886 -0.0530132 -0.0888688  
  0.274511 -0.0459778  -0.128413  
  0.230752 -0.0631959  -0.121768  
  0.211922 -0.0559269   -0.17993  
  0.281277 -0.0525027 -0.0880295  
  0.274079 -0.0456351  -0.127944  
  0.252059  -0.056034  -0.129196  
  0.251594 -0.0556927  -0.128665  
   0.19123 -0.0617614  -0.161899  
   0.26299 -0.0623329 -0.0905923  
  0.301181 -0.0421214 -0.0812032  
  0.238477 -0.0483422  -0.190016  
  0.231812 -0.0637251  -0.122251  
  0.212707  -0.056287  -0.180155  
  0.282525 -0.0535828 -0.0891129  
   0.27514 -0.0464307  -0.128571  
   0.23153 -0.0636742  -0.122544  
  0.212464 -0.0562311  -0.180319  
  0.282244   -0.05336 -0.0892597  
  0.274852 -0.0462407  -0.128668  
  0.252682  -0.056384  -0.129243  
   0.25239 -0.0562534  -0.129431  
  0.191812 -0.0616475  -0.161094  
  0.263786 -0.0622563 -0.0893811  
  0.301752 -0.0424695 -0.0806793  
  0.238958 -0.0484053  -0.189608  
  0.232834 -0.0629454  -0.120652  
  0.213242 -0.0559485  -0.179375  
  0.283435  -0.052854 -0.0875085  
  0.275725 -0.0460009  -0.127613  
  0.232274 -0.0635556  -0.121474  
  0.212992 -0.0562279  -0.179745  
  0.282942 -0.0535198 -0.0884137  
  0.275453  -0.046416   -0.12813  
  0.253456 -0.0558183  -0.128028  
  0.253068 -0.0563058  -0.128654  
  0.192089 -0.0606974  -0.160597  
  0.264523 -0.0598487 -0.0877063  
  0.301983 -0.0406667 -0.0794337  
  0.239027 -0.0477685  -0.189284  
  0.232769 -0.0619179  -0.120477  
  0.213119 -0.0554826  -0.179377  
  0.283332 -0.0514904 -0.0870524  
    0.2756 -0.0452017  -0.127414  
  0.253321  -0.054941  -0.127865  
  0.214918  0.0681961    0.21847  
  0.283052  0.0680788   0.159498  
  0.277252  0.0779564   0.128079  
  0.171371    0.07112   0.168563  
  0.254197   0.070337   0.186603  
  0.190119   0.071599   0.196189  
  0.277591  0.0761512   0.144512  
  0.232561  0.0795525   0.147484  
  0.253892  0.0696335   0.186521  
  0.189933  0.0710674   0.196202  
  0.277272  0.0745499   0.143996  
  0.232432  0.0781159   0.147109  
  0.240514   0.076319   0.168108  
  0.240242  0.0753054   0.167923  
  0.214936  0.0687771   0.218657  
  0.283079  0.0694257   0.160133  
  0.276379  0.0815299   0.130724  
  0.171037  0.0722137   0.169151  
   0.25357  0.0705655   0.187216  
  0.189499  0.0719378    0.19696  
  0.276461  0.0768714    0.14605  
  0.231313  0.0805667   0.149391  
  0.253919  0.0705996   0.186908  
  0.189816  0.0718736   0.196555  
   0.27698  0.0768061   0.145407  
  0.231848  0.0803241   0.148539  
  0.239592  0.0768826   0.169286  
  0.240042  0.0768004   0.168727  
  0.214444  0.0686854   0.218975  
  0.282368  0.0691073   0.160455  
  0.275471  0.0817318   0.131954  
  0.170458  0.0724546   0.170009  
  0.252919  0.0701873   0.186988  
  0.189035  0.0718589   0.196997  
  0.275725  0.0764057   0.145755  
  0.230705   0.080505   0.149501  
  0.253278  0.0704084   0.187268  
  0.189272  0.0719208   0.197123  
  0.276131  0.0767055   0.146158  
  0.231018  0.0805942   0.149692  
  0.238943  0.0766335   0.169199  
  0.239289  0.0768013   0.169454  
  0.213811  0.0683645   0.218484  
  0.281221  0.0682787   0.159258  
  0.274302   0.080974   0.130419  
  0.169912   0.072378    0.16957  
  0.251779  0.0693672   0.185983  
  0.188278  0.0713674   0.196291  
   0.27381  0.0749437   0.143485  
  0.229221  0.0795344   0.147698  
  0.252358   0.069849   0.186441  
  0.188667  0.0716968   0.196632  
  0.274914  0.0758874   0.144742  
  0.230093  0.0802378   0.148742  
  0.237603  0.0757118   0.167802  
  0.238335   0.076313   0.168529  
  0.213574   0.067783   0.218312  
  0.280414  0.0669151   0.158528  
  0.272361  0.0775326   0.127416  
  0.169582  0.0713452   0.168978  
  0.251875  0.0689025   0.186041  
  0.188369  0.0708996   0.196271  
  0.273602  0.0736441   0.143104  
  0.229139  0.0781727   0.147218  
  0.237624  0.0748723   0.167657  
  0.539288 -0.0393218  -0.154026  
  0.593082 -0.0354323 -0.0903531  
  0.539211 -0.0391541  -0.154072  
  0.593013 -0.0350586 -0.0902996  
  0.568793 -0.0384184   -0.12454  
  0.568725 -0.0381543  -0.124544  
  0.538901 -0.0395942  -0.154327  
   0.59275  -0.035607 -0.0907197  
  0.539107 -0.0394909   -0.15415  
  0.592909 -0.0355931 -0.0905455  
  0.568416 -0.0386666  -0.124891  
  0.568605 -0.0385959  -0.124704  
  0.538595  -0.039657  -0.154341  
   0.59252 -0.0354794 -0.0905444  
  0.538743 -0.0396362  -0.154406  
  0.592645 -0.0355553 -0.0907293  
  0.568141 -0.0386494  -0.124822  
  0.568281 -0.0386693  -0.124943  
  0.538306 -0.0395655  -0.154043  
  0.592077 -0.0351459 -0.0898618  
  0.538429 -0.0396514  -0.154171  
  0.592313 -0.0353638 -0.0901797  
  0.567777 -0.0384568  -0.124347  
  0.567952  -0.038599  -0.124561  
  0.538435 -0.0393516  -0.154083  
  0.592134 -0.0348451 -0.0899316  
  0.567884 -0.0381971  -0.124403  
   0.14961  -0.055668  -0.202693  
  0.206766 -0.0486845  -0.240971  
  0.149741 -0.0554034  -0.202654  
  0.206902 -0.0485548   -0.24096  
  0.176114 -0.0530103   -0.22557  
  0.176244 -0.0528303  -0.225552  
  0.149897 -0.0559572  -0.202989  
  0.206984 -0.0489063   -0.24116  
   0.14973 -0.0558638  -0.202829  
  0.206836 -0.0488141  -0.241046  
  0.176371 -0.0532686  -0.225809  
  0.176211 -0.0531711  -0.225672  
  0.150205 -0.0559581  -0.202867  
    0.2073 -0.0489801  -0.241143  
  0.150045 -0.0559762  -0.203025  
  0.207143 -0.0489565  -0.241213  
  0.176689 -0.0533177  -0.225751  
  0.176528 -0.0533087  -0.225858  
  0.150609 -0.0557032  -0.202263  
  0.207559 -0.0488333  -0.240789  
  0.150413 -0.0558851  -0.202537  
  0.207453 -0.0489517  -0.240957  
  0.177005 -0.0531356  -0.225303  
  0.176866  -0.053275  -0.225508  
  0.150535 -0.0554344  -0.202317  
  0.207483 -0.0486484  -0.240792  
  0.176919 -0.0529182  -0.225331  
  0.560656  0.0800079    0.29499  
  0.499881  0.0729215   0.329179  
  0.560731  0.0797403   0.295044  
  0.499961  0.0727221    0.32918  
  0.531999  0.0775372   0.316199  
  0.532086  0.0773123   0.316227  
  0.561059  0.0802607    0.29559  
  0.500153  0.0730748   0.329549  
  0.560851  0.0801884   0.295262  
  0.499992  0.0730474   0.329355  
  0.532322  0.0777227   0.316657  
  0.532141  0.0776805   0.316408  
  0.561366  0.0802591   0.295711  
  0.500485  0.0729887   0.329563  
  0.561219  0.0802784   0.295747  
  0.500318  0.0730457   0.329621  
  0.532648  0.0776677   0.316714  
  0.532487  0.0777112   0.316765  
  0.561653  0.0799704   0.295417  
  0.500717  0.0727513   0.329364  
  0.561533  0.0801656   0.295552  
  0.500642   0.072889   0.329442  
  0.532914  0.0774007   0.316469  
  0.532814  0.0775662   0.316572  
  0.561522  0.0797076   0.295378  
  0.500574  0.0726146   0.329353  
   0.53278  0.0772167    0.31645  
  0.171512  0.0636214   0.247685  
  0.118858  0.0593644   0.182474  
  0.171387  0.0634149   0.247725  
  0.118801  0.0590665   0.182544  
  0.142499  0.0625278   0.217345  
  0.142394  0.0622738   0.217401  
  0.171231  0.0637112   0.247976  
  0.118419  0.0596956   0.183152  
  0.171393  0.0637047    0.24781  
  0.118624  0.0595806   0.182789  
  0.142142  0.0627172   0.217812  
  0.142328  0.0626671   0.217555  
  0.170933  0.0636531   0.247964  
   0.11819  0.0598232   0.183326  
  0.171087  0.0636925    0.24804  
  0.118294  0.0597713   0.183335  
  0.141872  0.0627362   0.217881  
  0.142005  0.0627378   0.217931  
  0.170558  0.0633894   0.247672  
  0.117862  0.0596499   0.182962  
  0.170734  0.0635536   0.247792  
  0.118033  0.0598096   0.183153  
  0.141503  0.0624931   0.217537  
  0.141687  0.0626674   0.217698  
  0.170633  0.0632262   0.247716  
   0.11793  0.0592791    0.18291  
   0.14157  0.0622337   0.217541  
  0.295356 -0.000534077  0.0294654  
  0.311744 -0.0418181 -0.000692839  
  0.295749 -0.000328491  0.0293925  
  0.309666 -0.0363458 0.00522128  
  0.302737 -0.0234116  0.0126049  
  0.301607 -0.0201769  0.0157175  
  0.294745  0.0010935  0.0310669  
  0.310932 -0.0424244 -0.00220699  
  0.294839 0.000262688  0.0302331  
  0.310771 -0.0424703 -0.00187082  
   0.30195 -0.0227284  0.0127384  
  0.301871 -0.0231508  0.0124912  
    0.2947 0.00265028  0.0328465  
  0.310807 -0.0413005 -0.000835605  
  0.294671 0.00185705  0.0318982  
  0.310839 -0.0418865 -0.00179413  
  0.301848 -0.0213016  0.0143984  
  0.301852 -0.0220167  0.0134012  
  0.295308 0.00506934  0.0355506  
  0.310985 -0.0377516 0.00383013  
    0.2948 0.00372591  0.0340124  
  0.311163 -0.0398099 0.00118059  
   0.30225 -0.0182822  0.0182041  
  0.302111 -0.0199483  0.0160506  
  0.296485 0.00694406  0.0375502  
  0.314952  -0.030543  0.0120407  
  0.305007 -0.0133717  0.0235825  
  0.354848  0.0106438 -0.0104924  
  0.359114  0.0112716 0.00967874  
  0.354722  0.0105185 -0.0107731  
  0.358554  0.0109801 0.00871533  
  0.357118  0.0113023 -0.000894189  
  0.356757  0.0111079 -0.00151814  
  0.355095  0.0103833 -0.0103173  
  0.359164  0.0110448    0.01007  
  0.354968  0.0105851 -0.0103152  
  0.359168   0.011311  0.0100555  
  0.357292  0.0110899 -0.000579315  
   0.35722  0.0113123 -0.000605695  
  0.355337 0.00983171 -0.0105508  
  0.359251  0.0103257 0.00964945  
  0.355201  0.0101032 -0.0104323  
  0.359154  0.0106799  0.0098843  
  0.357465  0.0104866 -0.000874963  
  0.357344   0.010783 -0.000712062  
  0.355752 0.00967821 -0.0104935  
  0.359585 0.00998641 0.00927231  
  0.355517 0.00966115 -0.0105766  
  0.359423   0.010016 0.00939878  
  0.357849  0.0102619 -0.00101761  
  0.357638  0.0102496 -0.00100693  
  0.355886 0.00981253 -0.0104642  
  0.359343 0.00953694 0.00848491  
   0.35778  0.0100348 -0.0014561  
  0.416023  0.0192734  0.0568501  
  0.400346  0.0620934  0.0885705  
  0.414845  0.0173979    0.05485  
  0.396377  0.0548832   0.080359  
   0.40908  0.0426247  0.0741967  
  0.406323  0.0377131  0.0688177  
   0.41663   0.021693  0.0595546  
  0.400525  0.0656428   0.093237  
   0.41653  0.0206172  0.0583885  
  0.400168  0.0641522  0.0912206  
  0.409482  0.0456447   0.078003  
   0.40922  0.0442913  0.0763506  
  0.416585  0.0232498  0.0613343  
  0.400399  0.0667666  0.0946085  
   0.41666  0.0224863  0.0605029  
  0.400493  0.0662289  0.0941956  
  0.409381  0.0470715  0.0796631  
  0.409479  0.0463598  0.0790003  
  0.415974  0.0248771  0.0629356  
  0.399588    0.06616  0.0930939  
  0.416492  0.0240805  0.0621681  
  0.400561  0.0668124  0.0942723  
  0.408594  0.0477543  0.0797963  
   0.40946  0.0474937  0.0799102  
  0.415581   0.024671  0.0630082  
  0.401666  0.0606868  0.0871793  
  0.409724  0.0445189  0.0766832  
  0.368057  0.0273641   0.133286  
  0.360063  0.0183372   0.127708  
  0.368837  0.0251163   0.181326  
  0.361941  0.0221483  0.0924814  
  0.369329  0.0271635   0.157295  
  0.359558  0.0186047  0.0876961  
  0.363923  0.0218647   0.154792  
  0.361361  0.0209666  0.0909673  
  0.369035  0.0263753   0.156726  
  0.359035  0.0177274  0.0865195  
  0.363685  0.0212783    0.15439  
  0.363202  0.0224328   0.122181  
  0.362768  0.0215295   0.121278  
  0.368671  0.0286463   0.134704  
  0.360606  0.0190195   0.128477  
  0.369256  0.0258461   0.181967  
  0.362204   0.022034  0.0929647  
  0.369721  0.0272669   0.157839  
  0.359894  0.0184978  0.0880956  
  0.364355  0.0218996   0.155184  
  0.362121  0.0222087   0.092851  
  0.369545  0.0273819   0.157724  
  0.359761  0.0186514  0.0879869  
  0.364175   0.022009   0.155106  
  0.363573  0.0224268   0.122663  
   0.36342  0.0225714   0.122568  
  0.368976  0.0281648   0.134709  
  0.360933  0.0186276   0.128451  
  0.369617  0.0255454   0.182016  
  0.362512  0.0212502  0.0925161  
  0.370122  0.0267064   0.157579  
  0.360191  0.0178214  0.0877545  
  0.364699  0.0213974   0.154976  
   0.36231   0.021653  0.0927973  
  0.369899  0.0270035   0.157769  
  0.360011  0.0181675  0.0879607  
   0.36452  0.0216606   0.155116  
   0.36393  0.0218028    0.12236  
  0.363723    0.02213   0.122568  
  0.369486  0.0274739   0.134162  
  0.361278  0.0181232    0.12822  
  0.369992  0.0250905    0.18177  
  0.362892  0.0206037  0.0919395  
   0.37045  0.0262639   0.157255  
  0.360508  0.0173181  0.0874141  
   0.36497  0.0210387   0.154845  
   0.36275  0.0209301  0.0922093  
  0.370353  0.0264432   0.157392  
  0.360402  0.0175614  0.0875653  
  0.364879  0.0211763   0.154875  
  0.364279  0.0213315   0.122023  
  0.364147  0.0215317   0.122175  
  0.369114  0.0270156   0.133763  
  0.361169  0.0179553   0.128199  
  0.369762  0.0248238   0.181715  
  0.362377  0.0205898   0.091539  
  0.370063  0.0260809   0.157191  
  0.360229  0.0173438  0.0871417  
  0.364692   0.020949    0.15483  
  0.363865   0.021233   0.121871  
  0.382193  0.0415754   0.156654  
   0.37475  0.0349213   0.147157  
  0.368465  0.0326563  0.0991505  
   0.37447  0.0339079   0.146528  
  0.367778  0.0309711  0.0973157  
  0.365177   0.027191   0.097332  
  0.364483  0.0256709  0.0955279  
  0.382516  0.0430154   0.157871  
  0.375078  0.0350959    0.14794  
  0.368413   0.032467  0.0996862  
  0.374946   0.035275   0.147831  
  0.368394  0.0327489   0.099608  
  0.365275  0.0270296  0.0978356  
  0.365225  0.0272355  0.0977299  
  0.382877  0.0425264   0.157973  
  0.375537  0.0343995   0.147554  
  0.368714  0.0313929  0.0989063  
  0.375271  0.0347793   0.147866  
  0.368466  0.0319529  0.0994212  
  0.365586  0.0260967    0.09723  
  0.365355  0.0265764  0.0976195  
  0.383562  0.0417202   0.157174  
  0.376012  0.0337895   0.146863  
  0.369412   0.030338   0.097626  
  0.375865  0.0340275     0.1472  
  0.369078  0.0308636  0.0982594  
  0.366099  0.0252574  0.0963496  
  0.365872  0.0256894  0.0967717  
  0.383313  0.0409979   0.156745  
  0.375532  0.0334321   0.146806  
  0.368648   0.030172  0.0972487  
  0.365376  0.0252195  0.0959131  
  0.372892   0.054885  0.0918734  
  0.366521  0.0388587  0.0754313  
  0.368078  0.0598183  0.0886706  
  0.366177   0.036734  0.0737771  
  0.365073  0.0540951  0.0825855  
  0.363335  0.0395715  0.0715905  
  0.361719  0.0364835  0.0685297  
  0.374081  0.0590728  0.0962196  
   0.36608  0.0380631  0.0757546  
  0.367443  0.0601705  0.0904305  
  0.366354  0.0387513  0.0761042  
  0.367404  0.0602475  0.0900192  
   0.36242   0.038532  0.0713679  
  0.362523  0.0390931  0.0716638  
  0.373993  0.0581599  0.0961278  
   0.36611  0.0363883  0.0742128  
  0.367296  0.0587219   0.089076  
  0.366009   0.037318  0.0752089  
  0.367336  0.0594924  0.0901037  
  0.362212  0.0367363  0.0696201  
  0.362231  0.0376477  0.0706956  
  0.374505  0.0561722  0.0934761  
  0.367428  0.0336972  0.0702917  
  0.367399  0.0553544  0.0838339  
  0.366388  0.0353132   0.072737  
  0.367567  0.0572195  0.0870976  
  0.362612  0.0338538  0.0654095  
   0.36232  0.0353824  0.0679687  
  0.376791  0.0508911  0.0878608  
  0.367564  0.0323702  0.0689634  
  0.370368  0.0487743   0.077221  
  0.363935  0.0303018  0.0614839  
  0.344357  0.0470402  0.0822568  
  0.349836   0.055364  0.0826616  
  0.348712  0.0308613   0.065027  
   0.35184  0.0500337  0.0778885  
  0.348751  0.0304165  0.0655255  
  0.352064  0.0354791  0.0661553  
    0.3533  0.0331664  0.0645645  
  0.344103  0.0494146  0.0839927  
  0.350085  0.0552641  0.0836649  
  0.348733  0.0298818   0.064187  
  0.350359  0.0554161   0.083504  
  0.348674  0.0307282  0.0649553  
  0.352395  0.0343031  0.0653374  
  0.352572    0.03495  0.0658788  
  0.343805  0.0482502  0.0832836  
  0.349685  0.0537199  0.0822005  
   0.34823  0.0281965  0.0625684  
  0.349931   0.054524  0.0832245  
  0.348579  0.0291257  0.0635009  
  0.352017  0.0324863  0.0635554  
   0.35229  0.0334097  0.0645915  
  0.342742  0.0462666  0.0808793  
  0.348746  0.0503898  0.0773784  
  0.346305  0.0257632  0.0595622  
  0.349049   0.052243   0.080309  
   0.34768  0.0271424  0.0613969  
  0.350892  0.0296886  0.0598803  
  0.351549  0.0311491   0.062035  
  0.339947   0.042259  0.0768687  
  0.345043  0.0444887  0.0710238  
  0.345988  0.0249135   0.059549  
  0.349052  0.0264571  0.0563981  
  0.371055 -0.0176521  0.0161967  
  0.362339 -0.0259537  0.0151655  
  0.364927 -0.00130688  0.0330611  
  0.366055 -0.0200163  0.0216125  
  0.365254 -0.000441765  0.0331012  
  0.360369 -0.00529402  0.0325863  
  0.362214 -0.00204305  0.0360989  
  0.368206 -0.0217652  0.0120352  
  0.361429 -0.0292957  0.0103426  
  0.363006 -0.00374948  0.0300413  
  0.362063 -0.0278135  0.0122414  
  0.363551 -0.00269359  0.0312125  
  0.359255 -0.00809132  0.0289111  
  0.359721 -0.00675226  0.0304323  
  0.367154 -0.0237639 0.00961847  
  0.361036 -0.0308429 0.00887468  
  0.362504 -0.00544019  0.0284174  
  0.361188 -0.0301004 0.00931867  
  0.362656 -0.00468154  0.0291042  
  0.358878 -0.00990911  0.0271271  
  0.358982 -0.00901464  0.0278745  
  0.366859 -0.0249333 0.00889797  
  0.361299 -0.0309354 0.00987173  
   0.36253 -0.00643202  0.0275688  
   0.36076 -0.0309956 0.00903719  
  0.362561 -0.00628908  0.0276419  
  0.359209  -0.011086  0.0263043  
    0.3587 -0.0105575  0.0265849  
  0.366572 -0.0224981  0.0107038  
  0.359278 -0.0256088  0.0146977  
  0.362476 -0.00598038  0.0270681  
  0.357969 -0.00878594  0.0278996  
  0.334752 -0.0263094 0.00492764  
  0.343964 -0.00922745  0.0222836  
  0.344027 -0.0308942 0.00869969  
  0.343836 -0.00791261  0.0236166  
  0.341069 -0.0243255  0.0153244  
  0.348744 -0.00944993  0.0270578  
  0.347428 -0.00590606  0.0309854  
  0.337037 -0.0316001 -0.000713994  
  0.345276 -0.0119181   0.018365  
   0.34412 -0.0342639 0.00346369  
     0.345 -0.0108435  0.0198378  
  0.343849   -0.03276  0.0054454  
  0.349138   -0.01233  0.0228523  
  0.349031 -0.0109758  0.0245036  
  0.337542 -0.0335931 -0.00336915  
  0.345303 -0.0135951  0.0168202  
  0.343969 -0.0357149 0.00210593  
  0.345376 -0.0128488  0.0173668  
  0.344077  -0.035035  0.0024362  
  0.348929 -0.0141262  0.0211032  
  0.349119 -0.0132413  0.0217769  
  0.337447 -0.0345122 -0.00347383  
  0.344855 -0.0143969  0.0171311  
  0.343325  -0.035364 0.00385126  
  0.345028 -0.0142852  0.0164648  
  0.344008 -0.0357943  0.0025153  
  0.348011 -0.0151671  0.0208728  
  0.348826 -0.0146885  0.0208058  
  0.338633 -0.0303266 0.000875526  
  0.345201 -0.0122773  0.0187835  
  0.346324 -0.0296578 0.00993571  
  0.349625 -0.0120887  0.0239276  
   0.30611  0.0751028  0.0968879  
   0.29104  0.0623421  0.0811334  
  0.335248  0.0829492   0.100617  
  0.296097  0.0768594  0.0948196  
  0.322905  0.0667593  0.0844876  
  0.338776  0.0733812  0.0904036  
  0.298016  0.0706176  0.0904505  
  0.325966  0.0587647  0.0758712  
  0.328669  0.0786226  0.0952659  
  0.332387  0.0690787  0.0852665  
  0.303355  0.0836751   0.105358  
  0.287948  0.0703931  0.0893577  
  0.335531  0.0860786   0.105481  
  0.294813  0.0799833   0.100314  
  0.323029   0.070347  0.0894516  
  0.335936  0.0849396    0.10363  
  0.295036  0.0790802  0.0989651  
  0.323374  0.0688972  0.0874436  
  0.329006  0.0820605   0.100401  
  0.329463  0.0806751   0.098381  
  0.302763  0.0847304   0.107455  
  0.287468  0.0720568  0.0918718  
  0.335305  0.0860287   0.105614  
  0.294197  0.0805409   0.101057  
   0.32297  0.0713397  0.0906719  
  0.335418  0.0861123   0.106014  
  0.294513   0.080464   0.101312  
  0.322964  0.0708428  0.0903607  
  0.328922  0.0825757   0.101142  
  0.328953  0.0823246   0.101161  
  0.302097  0.0841438   0.106114  
  0.287166  0.0724127  0.0916703  
  0.335219  0.0829522   0.100845  
  0.293106  0.0790677  0.0971873  
  0.323431  0.0704534  0.0886045  
  0.334763   0.085083   0.104036  
  0.294056  0.0803622   0.100546  
  0.322584  0.0711207  0.0899746  
  0.329229  0.0806346  0.0976567  
  0.328391  0.0819037  0.0998924  
  0.298228  0.0761675  0.0974433  
  0.284782  0.0664531  0.0848581  
  0.330263  0.0741927  0.0903852  
   0.29089  0.0732729  0.0926143  
  0.319766  0.0636428  0.0806548  
  0.324471  0.0720033  0.0876403  
  0.336549 -0.0121235 -0.0294513  
  0.342783 -0.00268037 -0.0351412  
  0.344108 -0.00257825 0.00856719  
  0.338922 -0.00771992 -0.0333102  
  0.348558 0.00380931 0.00314601  
   0.34486 -0.00249935 0.00907529  
  0.339502 -0.00741713 -0.0331676  
  0.349074 0.00379192 0.00357312  
   0.34615 0.000454864 0.00498913  
  0.346872 0.00046727 0.00550059  
  0.336223 -0.0129056 -0.0301969  
  0.342402 -0.00314891 -0.0355937  
  0.344777 -0.00372926   0.007155  
  0.339457 -0.00844556 -0.0341732  
  0.348936 0.00313673 0.00254189  
  0.344425 -0.00316558 0.00786102  
  0.339115 -0.00802647  -0.033746  
  0.348697 0.00345756 0.00286006  
  0.346652 -0.000432953 0.00402874  
   0.34637 -6.11043e-06 0.00452286  
   0.33691  -0.013911 -0.0312619  
   0.34292 -0.0038722 -0.0361841  
  0.344993 -0.00489866 0.00626218  
  0.339874 -0.00925631 -0.0346702  
  0.349232 0.00233248 0.00207437  
  0.344991 -0.00433376 0.00659564  
  0.339717 -0.00888147 -0.0345506  
  0.349137 0.00272375 0.00225196  
  0.346922 -0.0014148 0.00336712  
   0.34687 -0.000935903 0.00361468  
  0.337126 -0.0145855 -0.0313114  
  0.343204 -0.00438165 -0.0361944  
  0.344824 -0.0052332 0.00665603  
  0.340113 -0.00917905 -0.0339162  
  0.349472 0.00220381 0.00254847  
  0.344942 -0.00523581 0.00628552  
  0.339966 -0.0094714 -0.0345827  
  0.349312 0.00215681 0.00219178  
  0.346964 -0.00162611 0.00383422  
  0.346939 -0.00164665 0.00345467  
  0.337592 -0.0128403 -0.0294869  
  0.343834 -0.00303559 -0.0346723  
  0.345549 -0.00351681 0.00877042  
  0.340522 -0.00791855 -0.0328977  
  0.350093 0.00341721 0.00414497  
  0.347706 -9.77901e-05 0.00579356  
  0.412939 -0.0518189 -0.00499608  
  0.426493 -0.0421135 0.00754502  
  0.376033 -0.0586169  -0.008445  
  0.418097 -0.0547337 -0.00477826  
  0.387871  -0.046115 0.00379188  
     0.381 -0.0498415  0.0020358  
  0.420319 -0.0489277 -0.000191962  
  0.391536 -0.0393051  0.0117439  
  0.382042 -0.0562966 -0.00525965  
  0.386802 -0.0476644 0.00476317  
  0.409063 -0.0598085 -0.0136907  
  0.424107 -0.0480759 0.000728624  
  0.375952 -0.0616912  -0.013214  
  0.417007 -0.0562068 -0.00865068  
  0.388332 -0.0470021 0.00172397  
  0.376495 -0.0607437 -0.0116334  
  0.417149 -0.0560268 -0.00813816  
  0.388718 -0.0467832 0.00242158  
   0.38235 -0.0582395 -0.00874629  
  0.382881 -0.0575676 -0.00749535  
  0.408397 -0.0603965 -0.0150327  
  0.423804 -0.0477201 0.000526432  
  0.375727 -0.0617413 -0.0130805  
  0.416391 -0.0556493 -0.00790732  
  0.388273 -0.0460096 0.00294406  
  0.375839 -0.0617741 -0.0136134  
  0.416691 -0.0561295 -0.0089059  
  0.388338 -0.0465052 0.00203513  
  0.382266 -0.0577245 -0.00800552  
  0.382319 -0.0579885 -0.0087647  
  0.407806 -0.0593406 -0.0129358  
  0.423325 -0.0460564 0.00304101  
  0.376018 -0.0586131 -0.0082162  
   0.41511 -0.0525246 -0.00241016  
  0.388397 -0.0424214 0.00790859  
  0.375321  -0.060601 -0.0112296  
  0.416168 -0.0547451 -0.00655802  
  0.387928 -0.0445596 0.00495244  
  0.382605 -0.0542844 -0.00286846  
  0.381809 -0.0563391 -0.00598488  
  0.405042 -0.0507458 -0.00443848  
  0.420231 -0.0380004  0.0112721  
  0.372472 -0.0490288 0.00201661  
  0.413182 -0.0462673 0.00197474  
  0.385335 -0.0344249  0.0165281  
  0.378883 -0.0447382 0.00713798  
  0.397468 -0.0351979 -0.0261509  
   0.40216 -0.0239305 -0.0758993  
  0.383783 -0.0241522 -0.0144235  
  0.385046 -0.0190677 -0.0318469  
  0.411325 -0.0403349 -0.0436205  
  0.416382 -0.0341073 -0.0717095  
  0.383789 -0.0235924  -0.014572  
  0.384789 -0.0190173  -0.032283  
  0.411435 -0.0394319 -0.0435066  
  0.416255 -0.0338171 -0.0719122  
  0.397578 -0.0300528 -0.0401861  
  0.397501 -0.0296241 -0.0403688  
  0.395903 -0.0374998 -0.0278188  
  0.401924 -0.0243535 -0.0757295  
  0.381774  -0.025989 -0.0165074  
   0.38369  -0.020299 -0.0328405  
  0.409369 -0.0419319 -0.0457311  
  0.415099 -0.0351389 -0.0727507  
  0.382634 -0.0251794 -0.0154509  
  0.384358 -0.0196836 -0.0321821  
  0.410228 -0.0412835 -0.0447011  
  0.415741 -0.0346593  -0.072138  
  0.395894 -0.0314808 -0.0417336  
  0.396679 -0.0308304  -0.040877  
   0.39454 -0.0388425 -0.0296815  
  0.401057 -0.0251638 -0.0765163  
  0.381111 -0.0271642 -0.0175266  
  0.383092 -0.0213173 -0.0336795  
  0.408616 -0.0427098 -0.0463454  
  0.414412 -0.0358158 -0.0732656  
  0.381353 -0.0266309 -0.0172135  
  0.383305 -0.0208377 -0.0333734  
  0.408928 -0.0423816 -0.0462632  
  0.414695 -0.0355111 -0.0731577  
  0.395191 -0.0324025  -0.042491  
  0.395464 -0.0319858 -0.0422827  
  0.393854 -0.0394425 -0.0295799  
  0.400678 -0.0257174 -0.0767579  
  0.380643 -0.0274228  -0.017485  
  0.382896 -0.0217019 -0.0340197  
  0.407793 -0.0424449 -0.0455181  
  0.413964 -0.0358519 -0.0730587  
  0.380872 -0.0275152 -0.0175976  
  0.382952 -0.0216492 -0.0338381  
  0.408201  -0.042834 -0.0460187  
  0.414138  -0.035986 -0.0731684  
  0.394699 -0.0325156 -0.0423241  
   0.39491 -0.0326511 -0.0424384  
  0.393811  -0.037436 -0.0284162  
  0.400837 -0.0253493 -0.0768756  
  0.380927  -0.026369  -0.017223  
  0.383035 -0.0212326 -0.0340437  
  0.408196 -0.0411042 -0.0450841  
  0.414281 -0.0351823 -0.0729636  
  0.395026 -0.0316246  -0.042114  
  0.409812  0.0766228   0.140258  
  0.470733  0.0889488   0.159459  
  0.404095  0.0818875   0.127807  
  0.426168  0.0889622   0.136087  
   0.42718  0.0829735   0.160434  
  0.462173  0.0905776   0.173799  
  0.403185  0.0779963   0.125479  
  0.424813  0.0848147   0.133628  
  0.427089  0.0809351   0.159595  
  0.461906  0.0886651   0.173133  
  0.429053  0.0872346   0.148721  
  0.428524   0.084364   0.147322  
  0.410905  0.0802224   0.143223  
  0.472708  0.0927077    0.16252  
  0.405631  0.0834852   0.131559  
  0.428066  0.0911054    0.14049  
  0.428499  0.0840933    0.16285  
  0.463758  0.0919668   0.176532  
  0.405267  0.0832558   0.130377  
  0.427577     0.0906   0.138996  
  0.427991  0.0839242   0.161862  
  0.463169  0.0916292   0.175356  
  0.430751  0.0888271   0.152071  
  0.430206  0.0885048   0.150799  
  0.411557  0.0800915   0.144341  
  0.473557  0.0933898   0.164471  
  0.406067  0.0828249   0.131172  
  0.428512  0.0909076   0.140598  
  0.429072  0.0835595   0.162639  
  0.464294  0.0918166   0.176709  
  0.405816  0.0833073   0.131714  
   0.42828  0.0911629   0.140905  
  0.428749  0.0839171   0.163071  
  0.464017  0.0919828   0.176938  
  0.431257  0.0884431      0.152  
   0.43098  0.0887544   0.152378  
  0.412569  0.0788724   0.142416  
  0.474277  0.0930203   0.163493  
     0.408  0.0801609    0.12672  
  0.430215  0.0886616   0.136564  
  0.430685  0.0818186   0.160085  
  0.465674  0.0904098   0.174544  
  0.406661  0.0819741   0.129566  
  0.429031  0.0902868    0.13925  
   0.42976  0.0829495    0.16151  
  0.464878  0.0914023   0.175805  
  0.433026  0.0864103   0.148707  
  0.431912  0.0878093   0.150711  
  0.413832  0.0753077   0.139545  
  0.474987  0.0895385   0.160845  
  0.408704   0.076503   0.124595  
  0.430802  0.0846453   0.134242  
  0.430622  0.0801037   0.159431  
  0.465528  0.0885918   0.173813  
    0.4332  0.0837382   0.147422  
  0.298765 -0.0505517 -0.0454627  
  0.236721 -0.0651798 -0.0681181  
  0.303999 -0.0556234 -0.0336568  
  0.281259  -0.064311 -0.0440456  
  0.281924 -0.0572933 -0.0660233  
  0.246545 -0.0660543 -0.0811929  
  0.303275 -0.0519256  -0.031495  
  0.280668 -0.0602846 -0.0417146  
  0.281973 -0.0555352 -0.0653418  
  0.246684 -0.0642061 -0.0804436  
  0.279094 -0.0619683 -0.0555254  
  0.278906 -0.0592592 -0.0542127  
  0.300066 -0.0541909 -0.0484226  
  0.237437  -0.068681 -0.0707863  
  0.305928 -0.0583064 -0.0381469  
  0.282959 -0.0665596 -0.0480861  
  0.283556 -0.0590659  -0.068639  
  0.247936 -0.0674774 -0.0833917  
   0.30534 -0.0574497 -0.0365338  
  0.282441 -0.0659383 -0.0467371  
  0.282864 -0.0584454 -0.0674885  
   0.24735 -0.0670587 -0.0824768  
  0.280869 -0.0640197 -0.0588572  
  0.280215 -0.0633803 -0.0575579  
  0.301073 -0.0554316 -0.0503782  
  0.238156  -0.069052 -0.0717678  
  0.306361 -0.0589745 -0.0385442  
  0.283405 -0.0667575 -0.0479791  
  0.284124 -0.0596097 -0.0688622  
   0.24847 -0.0676295 -0.0832176  
  0.306178  -0.058794 -0.0386954  
  0.283191 -0.0668152  -0.048394  
  0.283876 -0.0594301 -0.0690782  
  0.248212 -0.0676457 -0.0836241  
  0.281372 -0.0644088 -0.0589343  
  0.281145 -0.0643347 -0.0592392  
  0.301712 -0.0555726 -0.0492707  
  0.239004 -0.0683676 -0.0698138  
  0.307884 -0.0573766   -0.03478  
  0.285299 -0.0646121 -0.0435718  
   0.28545 -0.0584775 -0.0664109  
  0.250065 -0.0662259 -0.0804549  
  0.306716 -0.0587475 -0.0373678  
  0.283891 -0.0662514 -0.0464854  
  0.284629 -0.0594407 -0.0678677  
   0.24906 -0.0672889 -0.0820334  
   0.28307 -0.0628077 -0.0555613  
  0.281913 -0.0640858 -0.0576608  
  0.302827 -0.0519096 -0.0462314  
  0.240989 -0.0645884 -0.0667309  
  0.308812 -0.0534463 -0.0324142  
  0.286659 -0.0604551  -0.041103  
  0.285555 -0.0563909 -0.0655372  
  0.250344 -0.0642819 -0.0797676  
  0.283615  -0.059898 -0.0541298  
  0.315787   0.061983   0.123483  
   0.32908  0.0518965   0.113702  
  0.301577  0.0668178   0.140702  
  0.293096  0.0603559   0.172841  
  0.328793  0.0509243   0.113489  
  0.301175  0.0655409   0.140306  
  0.292789  0.0597393   0.172768  
  0.313964  0.0570216   0.140194  
   0.31364  0.0561965   0.140017  
  0.315771  0.0638934   0.124556  
  0.328635  0.0516427   0.113713  
  0.300777  0.0670704   0.141489  
  0.292672  0.0603228   0.173036  
   0.32887  0.0519797   0.113789  
  0.301188   0.067191   0.141172  
  0.292937  0.0604807    0.17294  
  0.313497  0.0569127   0.140341  
  0.313771  0.0571486   0.140289  
  0.315083  0.0633084   0.124664  
  0.327967  0.0505056   0.112737  
  0.300026  0.0663136   0.140897  
     0.292  0.0596938   0.172565  
   0.32839  0.0511256   0.113423  
  0.300465  0.0667504   0.141415  
  0.292393  0.0600396   0.172942  
  0.312797  0.0560356   0.139629  
  0.313223  0.0565155   0.140149  
   0.31373  0.0620057   0.122859  
  0.326051  0.0487776    0.11083  
  0.298133  0.0647809   0.138893  
  0.290811  0.0587447    0.17163  
  0.327128  0.0497344   0.111748  
  0.299185  0.0656881   0.139907  
  0.291396  0.0592494   0.172005  
  0.311212  0.0547049   0.138223  
  0.312044   0.055423   0.138833  
  0.312265  0.0598381   0.121341  
  0.326096  0.0483064   0.111041  
  0.298052  0.0639377   0.138815  
  0.290946  0.0584879   0.171835  
  0.311312  0.0543306   0.138428  
   0.14695 -0.0602631   -0.11728  
  0.128787 -0.0513272  -0.081093  
  0.232857 -0.0646781  -0.053082  
  0.196478 -0.0666478 -0.0917396  
   0.12912  -0.050241 -0.0806632  
  0.232862   -0.06153 -0.0514381  
  0.196742 -0.0650727 -0.0911155  
   0.18573 -0.0606004 -0.0676444  
  0.186042  -0.058657 -0.0667552  
  0.146944 -0.0615467  -0.117975  
  0.129024 -0.0514446 -0.0815238  
  0.233928 -0.0658262 -0.0555035  
  0.197369 -0.0674806 -0.0931387  
  0.128905 -0.0515677 -0.0814145  
  0.233573 -0.0656607 -0.0547892  
  0.196982 -0.0673212 -0.0925966  
  0.186385  -0.061148 -0.0688943  
  0.186124 -0.0611631 -0.0685124  
  0.147312 -0.0615098  -0.118205  
  0.129228 -0.0509053 -0.0808166  
  0.234292 -0.0654077 -0.0547821  
  0.197785 -0.0672612  -0.092631  
  0.129091 -0.0512208 -0.0813407  
  0.234089 -0.0657414 -0.0554717  
  0.197561 -0.0674444 -0.0931522  
  0.186685 -0.0606132 -0.0681009  
  0.186504 -0.0609617 -0.0687449  
  0.147899 -0.0610136  -0.116926  
  0.130372 -0.0496249  -0.078774  
  0.236318 -0.0630498 -0.0505787  
  0.199315 -0.0658296 -0.0900301  
  0.129625 -0.0504125 -0.0798379  
   0.23487 -0.0646805 -0.0531988  
  0.198342 -0.0668163 -0.0914486  
  0.188384  -0.058748 -0.0649742  
  0.187233 -0.0599741 -0.0667482  
  0.148693 -0.0596276  -0.116047  
  0.130802 -0.0488018 -0.0787122  
   0.23767 -0.0599637  -0.049028  
  0.199696 -0.0643524 -0.0896563  
   0.18919 -0.0570062  -0.064378  
  0.562826  0.0839547   0.208715  
  0.581088  0.0739687   0.171303  
  0.475269  0.0873959   0.143133  
   0.51232   0.090164   0.182728  
  0.580659  0.0731471   0.171242  
  0.473923  0.0843211   0.141593  
  0.511943  0.0886946   0.182359  
  0.523153  0.0830922   0.157518  
   0.52235  0.0813555   0.156926  
  0.563617   0.085335   0.209589  
  0.582231   0.075247   0.173343  
  0.477296  0.0897502   0.147329  
  0.513847    0.09159   0.185319  
  0.581834   0.074755   0.172365  
  0.476716  0.0890241   0.145747  
   0.51329  0.0911467    0.18414  
  0.524851  0.0849543   0.160639  
  0.524303  0.0843162   0.159288  
  0.564203  0.0858291   0.210864  
  0.582435  0.0757853   0.174049  
  0.477659  0.0901681    0.14805  
  0.514262  0.0918083   0.185826  
  0.582368   0.075562   0.173866  
  0.477499  0.0900834   0.148019  
  0.514071  0.0917724    0.18584  
  0.525151  0.0854881   0.161432  
  0.525032  0.0853021   0.161283  
  0.564571  0.0858653   0.210636  
  0.582672  0.0756677   0.173619  
  0.478731  0.0890226   0.145636  
  0.515152  0.0909783   0.184434  
  0.582555  0.0759081    0.17394  
  0.478015  0.0900031   0.147337  
   0.51465  0.0916492   0.185286  
  0.525806  0.0849415   0.160185  
  0.525412  0.0855032    0.16105  
  0.564565  0.0845864   0.209944  
   0.58234  0.0745834    0.17319  
  0.478722  0.0858853      0.144  
  0.514887  0.0894113   0.183815  
  0.525493  0.0830031   0.159299  
  0.446441 -0.0303798  -0.161382  
  0.414407 -0.0203409  -0.174802  
  0.387919 -0.0133209 -0.0737567  
  0.421308 -0.0272147  -0.114196  
  0.414327 -0.0203823  -0.174942  
  0.387675  -0.013474 -0.0741582  
  0.421149 -0.0271927  -0.114434  
  0.400237 -0.0160243  -0.119093  
  0.400087 -0.0161189  -0.119355  
  0.446373  -0.030584  -0.161277  
  0.414153 -0.0206229  -0.174855  
  0.387293 -0.0139851 -0.0739602  
  0.420608 -0.0278149  -0.114578  
  0.414315 -0.0204653  -0.174769  
  0.387661 -0.0136092 -0.0737041  
  0.421003 -0.0275034  -0.114287  
  0.399807 -0.0164924  -0.119204  
  0.400072 -0.0162263  -0.119046  
  0.445884 -0.0309278  -0.161602  
  0.413907 -0.0208803  -0.175044  
  0.386868 -0.0146903 -0.0744822  
   0.42009 -0.0283073  -0.114937  
  0.414002 -0.0207607  -0.174971  
  0.387018 -0.0143511 -0.0742649  
  0.420302 -0.0280786  -0.114832  
  0.399448 -0.0169709  -0.119545  
  0.399582 -0.0167433  -0.119409  
    0.4456 -0.0311373  -0.161636  
  0.413931  -0.020977  -0.175128  
  0.386879 -0.0150262 -0.0748512  
  0.419908 -0.0284491  -0.114991  
  0.413885 -0.0209593   -0.17508  
  0.386829 -0.0149297 -0.0746367  
  0.419945 -0.0284573  -0.114949  
   0.39946 -0.0171824  -0.119753  
   0.39941 -0.0171295  -0.119634  
  0.445723 -0.0309327  -0.161671  
   0.41402 -0.0208742  -0.175159  
   0.38695 -0.0148832 -0.0749831  
  0.420106 -0.0281488  -0.115016  
  0.399567 -0.0170379  -0.119826  
  0.386271   0.058091    0.12104  
  0.370756  0.0386912  0.0932992  
  0.380193  0.0599157   0.106413  
  0.370269  0.0367455  0.0915067  
  0.380039  0.0572733   0.104833  
  0.369379  0.0395283  0.0835471  
   0.36891  0.0373241  0.0815915  
  0.386646  0.0607326   0.123249  
  0.370564  0.0383501  0.0938476  
  0.380762  0.0603195   0.108366  
  0.370623  0.0387534  0.0938443  
  0.380682   0.060613   0.107925  
  0.369014  0.0389138  0.0839308  
  0.369129  0.0394297  0.0839915  
  0.386972  0.0600386   0.123542  
  0.370807  0.0370378  0.0927927  
  0.381046  0.0590751   0.107323  
  0.370575  0.0377309  0.0935012  
  0.380847   0.059805   0.108108  
  0.369112  0.0373961   0.082599  
  0.368944  0.0381973  0.0834266  
  0.387944   0.058582   0.121555  
  0.371931  0.0354733  0.0907301  
  0.382798  0.0565555    0.10338  
  0.371272  0.0362932  0.0917643  
  0.381696   0.058064   0.105702  
  0.370496  0.0352885  0.0796522  
  0.369573  0.0364533  0.0812504  
  0.388761  0.0562135   0.119631  
  0.371183  0.0351141  0.0902395  
  0.383257  0.0544717   0.102318  
  0.370035  0.0345892  0.0788803  
  0.323502  0.0689725   0.105381  
  0.335189  0.0797489   0.100929  
  0.336598   0.061841  0.0961843  
  0.338123  0.0715115  0.0935726  
  0.336001  0.0591961   0.095191  
  0.344029  0.0701258  0.0942737  
  0.346887  0.0627239  0.0876339  
  0.322576   0.073685   0.109251  
  0.335078  0.0817579   0.105002  
  0.335445   0.062488  0.0982588  
  0.335474  0.0811238   0.103806  
  0.335549  0.0628441  0.0981734  
   0.34424  0.0710727  0.0969335  
  0.344639  0.0707935  0.0961879  
  0.321924  0.0734052   0.109852  
   0.33463  0.0812132   0.104604  
  0.334576  0.0612559  0.0971193  
  0.334882   0.081534   0.105278  
  0.335082  0.0620946   0.098104  
  0.343834  0.0699729  0.0959454  
  0.344083  0.0705618  0.0968422  
  0.320763  0.0719518   0.107649  
  0.333767  0.0782909   0.099429  
  0.331856   0.058011   0.092038  
  0.334002  0.0799059   0.102746  
  0.333952  0.0603159  0.0957277  
  0.342976  0.0666918  0.0906964  
  0.343146  0.0684987  0.0939595  
  0.317439  0.0668118   0.102552  
  0.328932  0.0694034  0.0905142  
  0.330775  0.0555904    0.09101  
  0.338246  0.0587497   0.082494  
   0.39323 -0.0423013 -0.00942713  
   0.37707 -0.0539176 -0.0069219  
  0.378904 -0.0335761 0.000957319  
  0.381928 -0.0449906 0.00210147  
  0.380071 -0.0310369  0.0021026  
  0.367993 -0.0422899 0.00183385  
   0.37274 -0.0343044  0.0101459  
  0.389831 -0.0475795 -0.0146937  
  0.376231 -0.0568627  -0.012106  
  0.376208 -0.0368418 -0.00417215  
  0.376856  -0.055549 -0.0102404  
  0.376824 -0.0358886 -0.00278063  
  0.367163 -0.0455894 -0.00342044  
  0.367847 -0.0441088 -0.00142628  
  0.388677 -0.0490495 -0.0169123  
  0.375789   -0.05741 -0.0125057  
  0.375343 -0.0380812 -0.0053223  
  0.375982 -0.0571843 -0.0127809  
  0.375704 -0.0376844 -0.00517134  
  0.366763 -0.0466927 -0.00441159  
  0.366917  -0.046179 -0.00431776  
  0.388031  -0.049328 -0.0163108  
  0.375702 -0.0553865 -0.00842747  
  0.374208 -0.0374433 -0.00323336  
  0.375393 -0.0567734 -0.0113074  
  0.375243 -0.0384369 -0.00524646  
  0.366993 -0.0457352 -0.00175156  
  0.366364 -0.0464116 -0.00366323  
   0.38706   -0.04451 -0.0123159  
  0.372738 -0.0471095 -0.000978905  
  0.374749 -0.0347029 -0.00215895  
  0.364114 -0.0383096 0.00496797  
  0.324153  -0.030745 -0.0239829  
  0.339779  -0.010558 0.00319675  
  0.329382 -0.0314796 -0.00943966  
   0.34054 -0.0102236 0.00370324  
  0.328909 -0.0293775 -0.00834585  
  0.341059 -0.0105488  0.0134819  
  0.341524 -0.00986399  0.0142673  
  0.324992 -0.0331531 -0.0259892  
  0.340904 -0.0121385 0.00110952  
  0.331123 -0.0340198 -0.0134263  
  0.340443 -0.0113892 0.00214342  
  0.330486 -0.0329989 -0.0117968  
  0.342433  -0.012662  0.0105269  
  0.341979 -0.0117163  0.0118766  
   0.32595 -0.0346455 -0.0280199  
  0.341133 -0.0134643 3.59846e-05  
  0.331396 -0.0352825 -0.0144923  
  0.341131 -0.0128385 0.000393699  
  0.331317 -0.0347597 -0.0142214  
  0.342525 -0.0141867 0.00918494  
  0.342599  -0.013466 0.00969661  
  0.326243 -0.0353749 -0.0277728  
  0.340911 -0.0138326 0.000550444  
  0.331928 -0.0349105 -0.0125664  
  0.341065 -0.0138779 2.70278e-05  
  0.331459  -0.035591 -0.0140764  
  0.342142 -0.0148212 0.00954044  
  0.342402 -0.0147092 0.00911313  
   0.32662  -0.032698 -0.0255024  
   0.34142 -0.0118752 0.00239194  
  0.332101 -0.0322481 -0.0109595  
  0.342612   -0.01262  0.0115101  
  0.544882  0.0871524   0.235067  
  0.611081  0.0752608   0.238727  
  0.544875  0.0864978   0.235083  
  0.611036  0.0749259   0.238811  
  0.589025  0.0790749   0.270167  
  0.589054  0.0787766   0.270239  
  0.545738  0.0878208   0.236418  
  0.611626  0.0757546   0.239673  
  0.545362  0.0876171   0.235723  
  0.611395  0.0755656   0.239175  
  0.589495  0.0794224   0.270922  
  0.589275  0.0793033   0.270515  
  0.546138  0.0878888    0.23671  
  0.611829   0.075958    0.23998  
   0.54595  0.0878929   0.236747  
  0.611747  0.0758786   0.239937  
  0.589752  0.0795098   0.271125  
  0.589635  0.0794863   0.271129  
  0.546682  0.0873711   0.236046  
  0.612026  0.0757677   0.239696  
  0.546418  0.0877558   0.236397  
  0.611937  0.0759539   0.239858  
  0.590009  0.0792478   0.270819  
  0.589895  0.0794498   0.270974  
  0.546466   0.086681   0.235865  
  0.611881  0.0753101   0.239573  
  0.589879  0.0788961   0.270745  
  0.256898  0.0564906    0.26397  
  0.233437  0.0630774   0.244315  
   0.22707  0.0597851   0.303761  
  0.233253  0.0628062    0.24434  
  0.226988  0.0596979   0.303772  
  0.197033  0.0619021   0.278481  
  0.196925  0.0617659   0.278504  
  0.257007  0.0566806   0.263948  
  0.233154  0.0630917   0.244498  
  0.226974  0.0597859   0.303813  
  0.233337  0.0631447   0.244389  
  0.227046  0.0598023   0.303779  
  0.196852  0.0619283   0.278621  
  0.196968  0.0619411   0.278537  
  0.256737  0.0565079   0.263936  
  0.232713  0.0628611   0.244351  
  0.226753  0.0597049   0.303738  
  0.232956  0.0629906   0.244503  
  0.226876  0.0597529   0.303806  
  0.196584  0.0618475   0.278565  
  0.196727  0.0618965    0.27864  
   0.25629  0.0562109   0.263645  
  0.232162  0.0624499   0.243993  
  0.226527  0.0595293   0.303617  
  0.232409  0.0626711   0.244117  
  0.226617  0.0596227   0.303649  
  0.196282   0.061627   0.278369  
  0.196414  0.0617523   0.278437  
   0.25623   0.056019   0.263729  
  0.232277  0.0623286   0.244109  
  0.226593  0.0594957   0.303674  
  0.196357  0.0615473   0.278426  
  0.473123 -0.0378657  -0.146444  
  0.479148 -0.0346125   -0.20549  
  0.473003 -0.0377399   -0.14657  
  0.479076 -0.0345806  -0.205558  
   0.51104 -0.0374187  -0.183073  
  0.510962 -0.0373364  -0.183137  
  0.472532 -0.0383093  -0.146828  
  0.478896 -0.0348113   -0.20562  
  0.472857 -0.0381029  -0.146577  
  0.479047 -0.0347162  -0.205522  
  0.510717 -0.0376567  -0.183281  
  0.510899 -0.0375527  -0.183145  
  0.472068 -0.0385675  -0.146995  
  0.478652 -0.0349152  -0.205709  
  0.472276 -0.0384536  -0.146993  
   0.47876 -0.0348713  -0.205697  
  0.510431 -0.0377515  -0.183345  
  0.510563 -0.0377132  -0.183363  
  0.471776 -0.0385584  -0.146813  
  0.478549 -0.0349231  -0.205661  
  0.471878 -0.0386284  -0.146886  
  0.478573 -0.0349393  -0.205677  
  0.510241  -0.037728  -0.183202  
  0.510309 -0.0377685  -0.183259  
  0.471971  -0.038267  -0.146835  
  0.478641 -0.0348239  -0.205675  
  0.510355 -0.0375804  -0.183226  
  0.164706 -0.0630673  -0.143212  
  0.099419 -0.0514599  -0.147132  
  0.164922 -0.0623723  -0.143029  
 0.0995643 -0.0510008  -0.147008  
  0.121365 -0.0549416  -0.178141  
  0.121495 -0.0545882  -0.178067  
  0.165251 -0.0635859  -0.143879  
  0.099616 -0.0516505  -0.147417  
  0.164971 -0.0634532  -0.143565  
 0.0995076 -0.0516465  -0.147295  
  0.121623  -0.055204  -0.178449  
  0.121479 -0.0551442  -0.178297  
  0.165651 -0.0635161  -0.143585  
 0.0998189 -0.0514464  -0.147109  
  0.165439 -0.0635892  -0.143915  
 0.0996985 -0.0515708  -0.147374  
   0.12188 -0.0551159  -0.178245  
  0.121739 -0.0551803  -0.178453  
   0.16651 -0.0628426  -0.142226  
  0.100366 -0.0509508   -0.14616  
  0.166027 -0.0633105  -0.142886  
   0.10005 -0.0512568   -0.14661  
  0.122351 -0.0547664  -0.177486  
    0.1221 -0.0549961  -0.177836  
  0.166519 -0.0621844  -0.142242  
  0.100411 -0.0506148  -0.146244  
  0.122322 -0.0544668  -0.177559  
  0.371079 -0.00173603 -0.0381632  
  0.370676 -0.00202459 -0.0387802  
  0.363457 0.00596745 -0.0165225  
  0.362942 0.00564632 -0.0173107  
   0.37065 -0.0023269  -0.038091  
   0.37092 -0.00195754  -0.037919  
  0.363282  0.0055543  -0.016235  
  0.363409 0.00586568 -0.0161621  
  0.370397 -0.00314329 -0.0386759  
  0.370456 -0.0027405 -0.0383878  
  0.363213 0.00476867 -0.0167474  
  0.363183 0.00516052 -0.0164657  
  0.370583 -0.00357366 -0.0392435  
  0.370462 -0.00343175 -0.0389132  
  0.363518 0.00437451 -0.0172624  
  0.363337 0.00447718 -0.0169909  
  0.370441 -0.00372715 -0.0396234  
  0.363243 0.00401012 -0.0178895  
  0.265072 -0.0598373 -0.0292854  
  0.264222 -0.0547209 -0.0259009  
  0.285085 -0.0520937 -0.0142914  
  0.283589 -0.0458072 -0.00940704  
  0.265748 -0.0610576 -0.0323432  
  0.265575 -0.0609023 -0.0317022  
  0.285019 -0.0527865 -0.0167328  
   0.28496  -0.052651 -0.0163403  
  0.266049 -0.0604324 -0.0314249  
   0.26587 -0.0609008 -0.0322863  
  0.285189 -0.0518694 -0.0155515  
  0.285069 -0.0524007  -0.016585  
  0.267791 -0.0574346  -0.026129  
  0.266453 -0.0594425 -0.0297262  
   0.28624  -0.048656 -0.0103126  
   0.28549 -0.0505804 -0.0138173  
  0.270648 -0.0520502 -0.0222644  
  0.290026 -0.0416738 -0.00419956  
  0.443564  0.0817785   0.118545  
  0.440707  0.0763945   0.114683  
  0.425105  0.0729993   0.102719  
  0.421318  0.0660162  0.0966075  
  0.445308  0.0847767   0.123842  
  0.444904   0.083787   0.122143  
  0.426158  0.0762132    0.10796  
  0.425856  0.0749242   0.106225  
  0.445609  0.0854015   0.124761  
  0.445487   0.085245   0.124704  
  0.426328    0.07713   0.109141  
  0.426277  0.0767445   0.108993  
  0.446287  0.0841808   0.121702  
  0.445782   0.085246   0.124119  
  0.426264  0.0764369   0.106699  
  0.426387  0.0769945   0.108748  
  0.447136  0.0790656    0.11832  
   0.42776  0.0701505   0.101815  
  0.306051  0.0453207   0.299978  
  0.284793  0.0535819   0.219339  
  0.279415  0.0507945   0.286822  
  0.319293  0.0368866   0.247689  
  0.284604  0.0533076   0.219365  
  0.279326  0.0506982   0.286841  
  0.319227  0.0368034   0.247738  
  0.300655  0.0448266   0.237341  
  0.300541  0.0446832   0.237388  
  0.306172  0.0453851   0.299949  
  0.284618  0.0534637   0.219308  
  0.279395  0.0507367   0.286785  
  0.319412  0.0367577    0.24756  
  0.284758  0.0535939   0.219309  
  0.279436  0.0507908   0.286798  
  0.319384  0.0368554   0.247619  
  0.300644  0.0446763   0.237209  
  0.300692  0.0447966   0.237264  
  0.306149  0.0452783   0.299884  
  0.284126  0.0530311   0.218996  
  0.279152  0.0505489   0.286637  
  0.319236  0.0364427   0.247346  
  0.284414  0.0532635   0.219221  
  0.279296  0.0506514   0.286735  
  0.319355  0.0366087   0.247466  
  0.300307  0.0443032   0.236941  
  0.300512  0.0445009   0.237108  
  0.305983  0.0450942   0.299768  
  0.283496  0.0524959    0.21866  
  0.278907  0.0503115   0.286559  
  0.319048  0.0361477   0.247363  
  0.283767  0.0527532   0.218738  
  0.278998  0.0504212   0.286552  
  0.319109  0.0362698   0.247286  
   0.29993  0.0439147   0.236832  
  0.300074  0.0440848   0.236806  
  0.305968  0.0450308    0.29988  
  0.283645  0.0524733   0.218874  
  0.278982  0.0503264   0.286666  
  0.319113  0.0362246   0.247529  
  0.300049  0.0439759   0.237034  
  0.395989 -0.0413486 -0.0181784  
   0.37306 -0.0159239 0.00921856  
  0.396706 -0.0393418 -0.0172269  
  0.373318 -0.0151124 0.00939383  
  0.382694 -0.0293948 -0.00608114  
  0.383194 -0.0279264 -0.00547293  
  0.393391 -0.0438263 -0.0219596  
  0.370848 -0.0182208 0.00650306  
   0.39431 -0.0429544 -0.0204273  
  0.371704 -0.0172376 0.00783731  
  0.380194 -0.0318608 -0.00945072  
  0.381111 -0.0308868 -0.00796031  
  0.392643 -0.0447582 -0.0227536  
  0.370282 -0.0196745 0.00517394  
  0.392956  -0.044401 -0.0225716  
  0.370481  -0.018997 0.00575637  
  0.379513 -0.0330768 -0.0105427  
  0.379774 -0.0325509 -0.0101543  
  0.391482 -0.0441123 -0.0210034  
  0.369922 -0.0202013 0.00494988  
  0.392219 -0.0448697 -0.0221954  
  0.370142  -0.020155 0.00502081  
  0.378723 -0.0330404 -0.00975781  
  0.379208 -0.0333915 -0.0103478  
  0.391853 -0.0416661 -0.0198495  
  0.370103 -0.0189833 0.00539181  
  0.379101 -0.0311252 -0.00890345  
  0.397495  0.0703536   0.133541  
  0.383064  0.0726172   0.107211  
  0.397436   0.068113   0.132419  
  0.381722  0.0679854   0.104179  
   0.39117  0.0721913   0.119143  
  0.390683  0.0689051   0.117158  
  0.398423  0.0711303   0.135646  
  0.384003  0.0739435   0.110953  
  0.398098  0.0711809   0.134934  
  0.384038   0.073979   0.110403  
  0.392263   0.073197   0.121997  
  0.392006  0.0732132   0.121122  
  0.398907  0.0701957   0.134994  
  0.384409  0.0729013   0.110142  
  0.398605  0.0707561   0.135643  
  0.384178  0.0736469   0.111101  
  0.392644   0.072204   0.121245  
  0.392398  0.0728263   0.121908  
  0.400647  0.0681247   0.131931  
   0.38611  0.0695628   0.104539  
  0.399623  0.0693967   0.133644  
  0.384716  0.0718786    0.10856  
  0.394587  0.0695217   0.116963  
  0.393286  0.0712464   0.119553  
  0.400701  0.0664406   0.131266  
  0.387437  0.0650144   0.101525  
  0.395175  0.0666355   0.115348  
  0.312236 -0.0430701  -0.037106  
  0.325389 -0.0451305 -0.0119606  
  0.312157 -0.0413459 -0.0364043  
  0.324051 -0.0405676 -0.00893068  
  0.317579 -0.0447358 -0.0234585  
  0.316969 -0.0418154 -0.0218062  
   0.31399 -0.0451825 -0.0402506  
  0.327079 -0.0484689 -0.0175662  
  0.313275 -0.0443664 -0.0388716  
  0.326772 -0.0474437 -0.0159851  
  0.319515 -0.0474416 -0.0277873  
  0.318882 -0.0464756 -0.0260861  
  0.314459 -0.0461411 -0.0409325  
  0.327481 -0.0495139 -0.0183821  
  0.314286 -0.0457561 -0.0409114  
  0.327307 -0.0492155 -0.0185294  
   0.31989  -0.048449 -0.0285573  
  0.319758 -0.0480725 -0.0284605  
  0.315368 -0.0453791 -0.0388173  
  0.328407 -0.0481916 -0.0146512  
  0.314771 -0.0462034 -0.0402295  
  0.327444 -0.0495503 -0.0178362  
   0.32096 -0.0474558 -0.0257046  
  0.320133 -0.0484734  -0.027697  
  0.315443 -0.0430827 -0.0376446  
  0.329758 -0.0435533 -0.0116005  
  0.321466 -0.0441351 -0.0236841  
  0.318553  0.0685614   0.114839  
  0.340505  0.0448558   0.089568  
  0.318161   0.066206   0.113744  
  0.340313  0.0437011  0.0891589  
  0.331418  0.0575602   0.104054  
  0.331025  0.0557331   0.103254  
  0.317401  0.0691956   0.116535  
  0.340148  0.0443459  0.0893268  
  0.317832  0.0693046   0.115977  
  0.340299  0.0448093  0.0894665  
  0.330637  0.0575936   0.104791  
  0.330953  0.0578998   0.104592  
  0.316654    0.06828   0.115758  
  0.339581  0.0429216  0.0880331  
  0.317088  0.0688421   0.116358  
  0.339949  0.0436793  0.0887625  
  0.329958   0.056401   0.103725  
  0.330377  0.0570746   0.104413  
  0.314082   0.065862   0.112093  
  0.337407  0.0407117  0.0854736  
  0.315728  0.0674218   0.114248  
  0.338716  0.0419635  0.0867372  
  0.327491  0.0540147   0.100504  
   0.32903  0.0554466   0.102267  
  0.313429  0.0639509   0.111218  
  0.337222  0.0399984   0.085384  
  0.327065  0.0526521  0.0999838  
  0.360431  0.0406823   0.311953  
  0.354072  0.0228828   0.211874  
  0.342097  0.0258839   0.211454  
  0.333251  0.0426158   0.312517  
  0.355856  0.0296534   0.259045  
   0.34206  0.0258212   0.211526  
  0.333211   0.042552   0.312513  
  0.355802  0.0295134   0.259024  
  0.337494  0.0321017   0.258613  
  0.337445  0.0320185   0.258636  
   0.36059   0.040834   0.312045  
  0.354337  0.0230697   0.211927  
  0.342364  0.0257401   0.211327  
  0.333412  0.0426177    0.31254  
  0.356154  0.0296584    0.25913  
  0.342257  0.0258554   0.211388  
  0.333347  0.0426359   0.312534  
  0.356022  0.0297035   0.259107  
  0.337713  0.0320364   0.258572  
  0.337626  0.0321024   0.258597  
  0.360764  0.0407755   0.312067  
  0.354577  0.0228154   0.211853  
  0.342346  0.0253488   0.211106  
  0.333415  0.0425025   0.312457  
  0.356286   0.029422   0.259018  
  0.342385  0.0255512   0.211219  
  0.333429   0.042567   0.312508  
  0.356234  0.0295485   0.259086  
  0.337699  0.0317825   0.258422  
  0.337729  0.0319171   0.258504  
  0.360846  0.0406324      0.312  
  0.354677  0.0224678   0.211753  
  0.342306  0.0250517   0.211226  
  0.333382  0.0423564   0.312466  
   0.35634  0.0292078   0.259058  
  0.342303  0.0251636   0.211087  
  0.333396  0.0424243   0.312435  
  0.356326   0.029298      0.259  
  0.337654  0.0315528    0.25848  
  0.337665  0.0316469     0.2584  
  0.360749  0.0405346   0.312038  
  0.354632  0.0224057   0.211971  
  0.342336  0.0251589    0.21142  
  0.333349  0.0423572   0.312511  
  0.356235  0.0292071   0.259117  
  0.337638  0.0316003   0.258589  
  0.611523 0.00557131  0.0555094  
  0.605514  0.0313129  0.0963345  
  0.661533  0.0151481  0.0703003  
  0.639105  0.0528211   0.154399  
  0.604935  0.0311527  0.0964449  
  0.661298  0.0153004  0.0704492  
  0.638819  0.0525339   0.154496  
  0.657087   0.034121   0.115287  
  0.656814  0.0340619   0.115412  
  0.612237 0.00566626  0.0555439  
  0.606302  0.0326279  0.0977983  
  0.661834  0.0157654  0.0708126  
  0.639745  0.0537087   0.155615  
  0.606065  0.0320194  0.0970676  
  0.661737  0.0154376  0.0705241  
  0.639523  0.0533169      0.155  
  0.657553   0.034898   0.116154  
  0.657398  0.0345244   0.115701  
  0.612376 0.00658795  0.0563607  
  0.606324  0.0335144  0.0987492  
  0.661823  0.0163107  0.0713438  
  0.639822  0.0542462   0.156202  
  0.606361   0.033092  0.0983169  
  0.661862  0.0160426  0.0710693  
  0.639818  0.0539997    0.15599  
  0.657579  0.0354628   0.116723  
    0.6576  0.0351932   0.116472  
  0.612082  0.0075033  0.0574677  
   0.60587  0.0342702  0.0994793  
  0.661448  0.0168683  0.0719829  
   0.63971  0.0544746   0.156295  
  0.606187  0.0339666  0.0991743  
  0.661697    0.01661  0.0716905  
  0.639799  0.0544593   0.156303  
  0.657307  0.0358945   0.117112  
  0.657493  0.0357369   0.116959  
  0.611131 0.00797663  0.0579374  
   0.60536  0.0337171  0.0991762  
  0.661206  0.0167362  0.0718348  
  0.639452  0.0539044   0.156062  
  0.657047  0.0355439   0.116924  
  0.362903  0.0560454   0.363895  
  0.291627  0.0564897   0.345935  
  0.362884  0.0559964   0.363873  
  0.291593  0.0564556   0.345929  
  0.327161   0.056214   0.360096  
  0.327137  0.0561813   0.360082  
  0.363042  0.0560993   0.363989  
  0.291674  0.0565052   0.345953  
  0.362977  0.0560829   0.363949  
  0.291664  0.0565032   0.345944  
  0.327259  0.0562491   0.360144  
  0.327218  0.0562374   0.360123  
   0.36312  0.0560804   0.363965  
  0.291608  0.0564702   0.345899  
  0.363088  0.0560956   0.363989  
  0.291652  0.0564934   0.345937  
  0.327267  0.0562319   0.360109  
  0.327272  0.0562459   0.360136  
  0.363137  0.0559991   0.363937  
  0.291535  0.0563747   0.345867  
  0.363141  0.0560461   0.363943  
  0.291561  0.0564258   0.345867  
  0.327247  0.0561549   0.360086  
  0.327258  0.0561987   0.360086  
  0.363074   0.055964    0.36393  
  0.291545  0.0563609   0.345891  
   0.32722   0.056132   0.360091  
  0.335078  -0.015733  -0.212827  
  0.362593 -0.0116155  -0.198707  
  0.335977 -0.0307017  -0.268192  
  0.404135 -0.0251511  -0.233537  
  0.362663 -0.0116146  -0.198754  
  0.336057 -0.0306616  -0.268182  
  0.404129 -0.0251499  -0.233581  
  0.372594 -0.0272664  -0.256152  
  0.372636 -0.0272444  -0.256163  
  0.334945 -0.0158619  -0.212813  
  0.362602   -0.01179  -0.198681  
  0.336008 -0.0307909  -0.268224  
  0.404055 -0.0252828  -0.233552  
  0.362591 -0.0116936  -0.198663  
  0.335976 -0.0307524  -0.268199  
  0.404107 -0.0252152   -0.23352  
  0.372584 -0.0273608  -0.256166  
  0.372586 -0.0273169  -0.256146  
  0.335104 -0.0160267  -0.212895  
  0.362672 -0.0119526  -0.198773  
  0.336114 -0.0308184  -0.268247  
  0.403985 -0.0253666  -0.233632  
  0.362622 -0.0118789  -0.198737  
  0.336055 -0.0308109  -0.268249  
  0.404005 -0.0253312  -0.233602  
  0.372614 -0.0274008  -0.256209  
  0.372589 -0.0273867  -0.256198  
  0.335335 -0.0160934  -0.212838  
  0.362902 -0.0119467  -0.198718  
  0.336271 -0.0307572  -0.268131  
  0.404069 -0.0253689  -0.233629  
  0.362772   -0.01198  -0.198756  
   0.33619 -0.0308021  -0.268197  
   0.40401 -0.0253798  -0.233632  
  0.372744 -0.0273661  -0.256152  
   0.37267  -0.027394  -0.256186  
  0.335506 -0.0158713  -0.212687  
  0.362944 -0.0118497  -0.198708  
  0.336288 -0.0306963  -0.268106  
  0.404112 -0.0253202  -0.233629  
  0.372771 -0.0273199  -0.256138  
   0.10018  0.0163671  0.0344685  
  0.105459 -0.00992002 -0.00706344  
  0.049871 0.00747247  0.0204199  
 0.0716219 -0.0301301  -0.063876  
   0.10597 -0.00936716 -0.00676036  
  0.050112 0.00760456  0.0205679  
 0.0718803 -0.0295599  -0.063643  
 0.0540206  -0.011551  -0.024703  
 0.0542809 -0.0112004 -0.0245145  
 0.0992293  0.0168403   0.034938  
  0.105005 -0.00916416 -0.00633321  
 0.0494953 0.00802984  0.0210588  
   0.07151 -0.0299017 -0.0637831  
  0.105143 -0.00961632 -0.00675839  
 0.0496214  0.0077306  0.0207122  
 0.0715331 -0.0301148 -0.0638846  
 0.0537493 -0.0111193 -0.0243136  
 0.0538346 -0.0113934 -0.0245494  
  0.098935  0.0177554  0.0360448  
  0.105028 -0.00827769 -0.00538234  
 0.0494851 0.00857499  0.0215898  
 0.0715875  -0.029364 -0.0631955  
  0.104968 -0.0087417 -0.00590083  
 0.0494571 0.00829793  0.0213333  
 0.0715145  -0.029655 -0.0635711  
 0.0537749 -0.0105544 -0.0237449  
 0.0537276 -0.0108497 -0.0240628  
 0.0990742  0.0186768  0.0368612  
  0.105815 -0.00696307 -0.00391902  
 0.0497854 0.00919199  0.0221019  
 0.0722268 -0.0284765 -0.0619804  
  0.105264 -0.00766928 -0.00465191  
  0.049582 0.00890272  0.0218782  
 0.0718091 -0.0289722 -0.0625806  
 0.0542406 -0.00977769 -0.0228782  
 0.0539297 -0.0101809 -0.0232918  
 0.0997875  0.0187715  0.0368955  
  0.106394 -0.00680315 -0.00402945  
 0.0500209 0.00903972   0.021953  
 0.0725133 -0.0281893 -0.0620767  
 0.0545138 -0.00971864 -0.0230031  
  0.124708  0.0539961    0.10908  
  0.104746   0.036842  0.0722575  
 0.0717907   0.039224    0.10676  
  0.105105  0.0365325  0.0723159  
 0.0719029  0.0390325   0.106856  
 0.0552021  0.0238938  0.0638547  
 0.0553875  0.0238465  0.0639722  
  0.123939  0.0551597   0.109881  
  0.103936  0.0378821  0.0737337  
 0.0713276  0.0397773   0.107612  
  0.104215  0.0374207  0.0730036  
 0.0715054  0.0395312   0.107169  
 0.0547783  0.0244739  0.0646299  
  0.054929  0.0241915  0.0642232  
  0.123472  0.0558275   0.111077  
  0.103824  0.0385744  0.0744686  
 0.0712315  0.0401598   0.107999  
  0.103841    0.03824  0.0741887  
 0.0712546  0.0399761   0.107878  
 0.0547331  0.0249494  0.0650916  
 0.0547263  0.0247139  0.0649032  
  0.123272  0.0562537   0.111131  
  0.103874  0.0391016  0.0745747  
 0.0711952    0.04035    0.10792  
  0.103826  0.0389305  0.0746073  
  0.071206  0.0403268   0.107999  
 0.0548691  0.0253581  0.0652822  
 0.0547735  0.0252028  0.0652268  
  0.123272  0.0553611   0.110507  
  0.104154  0.0384619  0.0742493  
 0.0713203  0.0399446   0.107775  
 0.0550475  0.0250563  0.0651291  
  0.587998 -0.0310274 -0.0180712  
  0.607411 -0.0147627  0.0178404  
  0.640101 -0.0160173 -0.0154991  
  0.607131 -0.0141227  0.0181659  
  0.639975 -0.0156116 -0.0153545  
  0.656435 -0.00102135  0.0271254  
  0.656257 -0.000719507  0.0272785  
  0.587998 -0.0319207 -0.0186958  
  0.607461  -0.014235  0.0179467  
  0.640064 -0.0158269 -0.0155786  
   0.60746 -0.0145913  0.0178079  
   0.64009  -0.015994 -0.0155789  
  0.656571 -0.000612348  0.0273162  
  0.656531 -0.000865912  0.0271809  
  0.587798 -0.0314941 -0.0186422  
  0.607349 -0.0135424   0.018682  
  0.639968 -0.0154442 -0.0151916  
  0.607445 -0.0139004  0.0182268  
  0.640041 -0.0156431  -0.015457  
  0.656526 -0.000136722  0.0277781  
  0.656578 -0.000376811  0.0275047  
  0.587331 -0.0308259 -0.0174444  
  0.606539 -0.0125016  0.0201592  
  0.639504 -0.0148904 -0.0143378  
   0.60707 -0.0130807  0.0194126  
   0.63979  -0.015198 -0.0147478  
  0.656102 0.000443823  0.0285539  
  0.656375 0.000145841  0.0281851  
   0.58656 -0.0296606 -0.0166422  
  0.606179 -0.0121917  0.0201009  
  0.639392 -0.0146986 -0.0144338  
  0.655916 0.000491198  0.0284363  
  0.283219 -0.0300641  -0.212318  
  0.308162 -0.0226034  -0.219139  
  0.267027 -0.0387965  -0.266645  
  0.308341 -0.0225224  -0.219129  
  0.267148 -0.0387259  -0.266627  
  0.300801 -0.0347481  -0.272678  
  0.300903 -0.0346941  -0.272661  
  0.283058 -0.0303118  -0.212381  
  0.308292 -0.0227925  -0.219219  
  0.267131 -0.0389233  -0.266735  
  0.308181 -0.0226973  -0.219158  
  0.267044 -0.0388681  -0.266678  
  0.300863 -0.0348447  -0.272735  
  0.300805 -0.0348036  -0.272698  
   0.28341 -0.0305403  -0.212566  
  0.308572 -0.0229377  -0.219268  
  0.267353 -0.0389713  -0.266745  
  0.308431 -0.0228752  -0.219276  
  0.267242 -0.0389559  -0.266771  
  0.301026 -0.0348744  -0.272749  
  0.300942 -0.0348665  -0.272762  
  0.283758 -0.0306149  -0.212385  
  0.308846 -0.0228248  -0.219009  
  0.267537 -0.0388716  -0.266529  
  0.308715 -0.0229351  -0.219162  
  0.267458 -0.0389494  -0.266645  
  0.301193 -0.0347935  -0.272585  
  0.301114 -0.0348535  -0.272676  
   0.28386 -0.0302106  -0.212124  
  0.308857 -0.0226342  -0.218949  
  0.267517 -0.0387621  -0.266499  
  0.301196 -0.0347145  -0.272554  
  0.257461  0.0579893   0.328886  
  0.257409  0.0579405   0.328887  
  0.257444  0.0579925   0.328903  
  0.257471  0.0579997   0.328892  
  0.257302  0.0579378   0.328836  
  0.257385  0.0579714   0.328886  
  0.257164  0.0578145   0.328772  
  0.257215  0.0578789   0.328782  
  0.257206  0.0578002   0.328813  
 0.0792417 -0.0426943  -0.107537  
 0.0794284 -0.0421494  -0.107356  
 0.0793048 -0.0427141  -0.107692  
 0.0792578 -0.0428068  -0.107655  
 0.0794391 -0.0423519  -0.107256  
 0.0793453 -0.0425562  -0.107576  
 0.0800392  -0.041665  -0.106147  
 0.0796671 -0.0420665  -0.106687  
 0.0801953 -0.0413287  -0.106236  
  0.631362  0.0659942   0.198629  
  0.631206  0.0656584   0.198718  
  0.631961  0.0666801   0.199736  
  0.631734  0.0663952   0.199168  
  0.632096  0.0670418   0.200172  
  0.632055  0.0668841   0.200056  
  0.632159  0.0670219   0.200016  
  0.632143  0.0671343   0.200134  
  0.631972  0.0664778   0.199836  
  0.441912  -0.030334   -0.22583  
  0.441866  -0.030329  -0.225887  
  0.441754 -0.0304864  -0.225888  
  0.441854 -0.0304094  -0.225831  
  0.441593 -0.0305772  -0.225977  
  0.441658 -0.0305387   -0.22595  
  0.441587 -0.0305902  -0.225978  
  0.441568 -0.0305967  -0.225975  
  0.441647   -0.03053  -0.225983  
  0.267619  0.0625131   0.205384  
  0.267359  0.0620636   0.205371  
  0.267246  0.0625182   0.205597  
  0.267485   0.062619   0.205477  
  0.266655  0.0620931   0.205305  
   0.26699  0.0623282   0.205564  
  0.265781  0.0614242    0.20468  
  0.266192  0.0617794   0.204914  
   0.26592  0.0612354   0.204848  
  0.498688  0.0908462   0.201556  
  0.498589  0.0896406   0.201328  
   0.49996  0.0919015   0.203602  
  0.499441  0.0916125    0.20263  
  0.500467  0.0918861   0.203889  
  0.500217  0.0919564   0.204006  
  0.501422  0.0909713   0.202582  
  0.500915  0.0916296   0.203309  
  0.501173  0.0897848   0.202187  
  0.210469 -0.0666735  -0.109436  
  0.210718 -0.0654724  -0.109034  
   0.21143 -0.0675957  -0.110759  
   0.21098 -0.0673376  -0.110174  
  0.211938 -0.0676103  -0.110471  
   0.21168 -0.0676663  -0.110877  
  0.213218 -0.0665444  -0.108407  
  0.212459 -0.0673184  -0.109493  
  0.213323 -0.0653243   -0.10817  
  0.440561 -0.0368181  -0.105506  
  0.440422 -0.0366136  -0.105681  
  0.439624 -0.0375402  -0.106189  
  0.440117  -0.037202  -0.105766  
  0.439011 -0.0380025  -0.106512  
  0.439275 -0.0377955  -0.106469  
  0.438622 -0.0380008  -0.106294  
  0.438764 -0.0381129  -0.106391  
  0.438895 -0.0375171  -0.106271  
  0.407812  0.0464208   0.273486  
  0.389405    0.04218   0.300526  
  0.430461  0.0579583   0.340435  
  0.389379  0.0419907   0.300463  
  0.430478  0.0578121   0.340395  
  0.400614  0.0563795   0.358431  
  0.400606  0.0562964   0.358399  
  0.407968  0.0469426   0.273832  
  0.389692  0.0422802   0.300762  
  0.430684  0.0580691   0.340682  
  0.389547  0.0422846   0.300669  
   0.43056  0.0580533    0.34057  
  0.400791  0.0564588    0.35859  
  0.400699  0.0564406    0.35852  
  0.408348  0.0468134      0.274  
  0.389952  0.0421197   0.300702  
  0.430947  0.0579811   0.340658  
  0.389825  0.0422097   0.300759  
  0.430816  0.0580347   0.340704  
  0.400953  0.0564191   0.358571  
  0.400876   0.056446     0.3586  
  0.408742  0.0465114   0.273778  
  0.390067  0.0419291   0.300645  
  0.431073  0.0578215   0.340561  
  0.390052  0.0420208   0.300651  
  0.431052  0.0579069   0.340593  
  0.401013  0.0563169   0.358521  
   0.40101  0.0563741   0.358536  
  0.408544  0.0462256    0.27371  
   0.38989  0.0418573   0.300641  
  0.430924  0.0577421   0.340546  
  0.400907  0.0562646   0.358506  
    0.5078 -0.0116097  0.0359921  
  0.558225 -0.0045854  0.0435527  
   0.49623 0.00870937  0.0560458  
  0.557668 -0.00390371  0.0440088  
  0.495234 0.00875052  0.0560603  
  0.550081   0.019916  0.0727225  
  0.549163   0.019774  0.0727562  
  0.508401 -0.0123879  0.0351458  
  0.558572 -0.00348207  0.0442344  
  0.496947   0.010508  0.0577171  
  0.558479 -0.00409212  0.0437834  
  0.496766 0.00965846  0.0568816  
  0.550942  0.0215908  0.0744625  
  0.550704  0.0208109  0.0736149  
  0.508423 -0.0111719  0.0361405  
  0.558474 -0.00241601   0.045397  
  0.496879  0.0118726  0.0592473  
  0.558572 -0.0029597  0.0447522  
  0.496962  0.0111937  0.0584694  
  0.550927  0.0227586  0.0757493  
  0.550986  0.0221922  0.0751283  
   0.50795 -0.00967134  0.0381131  
  0.557433 -0.000885242  0.0474147  
  0.495959  0.0136417   0.061338  
  0.558157 -0.00172472  0.0463332  
   0.49663  0.0126958  0.0602027  
  0.550197  0.0239993  0.0770857  
  0.550712  0.0234082  0.0764476  
  0.505871 -0.00726913  0.0405224  
   0.55664 -0.000524034  0.0475128  
  0.494852  0.0138349  0.0616103  
  0.549384  0.0235763  0.0768683  
  0.341819 -0.000573171  -0.108038  
  0.337523 -0.00601006  -0.157337  
  0.350738 0.00434605 -0.0903785  
  0.337725 -0.00594333  -0.157352  
  0.350882 0.00434934 -0.0904654  
  0.353328 -0.00116198  -0.142436  
  0.353444 -0.00116536  -0.142511  
  0.341623 -0.000790425  -0.108032  
  0.337666 -0.00625771  -0.157373  
  0.350913 0.00405734   -0.09033  
  0.337554 -0.00611804  -0.157323  
  0.350806 0.00423932 -0.0902998  
  0.353413 -0.00140431  -0.142384  
  0.353356 -0.00126006  -0.142365  
  0.341945 -0.00118724  -0.108219  
  0.337942 -0.00652882  -0.157478  
  0.351157 0.00364321 -0.0904994  
    0.3378 -0.00640374  -0.157451  
  0.351026 0.00384146 -0.0904285  
  0.353575 -0.00169907  -0.142515  
   0.35348 -0.00156016  -0.142461  
  0.342295 -0.00144413  -0.108176  
  0.338299 -0.00644625  -0.157231  
   0.35157 0.00362879 -0.0903272  
  0.338111 -0.00656466  -0.157397  
  0.351336 0.00354774 -0.0904658  
  0.353913 -0.00170441  -0.142418  
  0.353725 -0.00176056  -0.142492  
  0.342659 -0.000872616  -0.107715  
  0.338367 -0.0061793   -0.15713  
   0.35169 0.00390418 -0.0902176  
  0.353978 -0.00153136  -0.142384  
  0.205438  0.0316135  0.0518808  
  0.153877  0.0252295  0.0449896  
   0.21536  0.0107038  0.0310649  
   0.15467  0.0248684  0.0448916  
  0.216467  0.0105103  0.0307925  
  0.161128 0.000349184   0.015322  
  0.161941 0.000771759  0.0155394  
   0.20336  0.0340151  0.0542894  
  0.152837  0.0267599  0.0470068  
   0.21444  0.0124728  0.0331556  
  0.153154  0.0260688  0.0460708  
  0.214689  0.0116497  0.0322003  
  0.160398 0.00158985  0.0166586  
  0.160613 0.000940251  0.0159602  
  0.202886  0.0355156  0.0562617  
  0.152738  0.0278258  0.0481692  
  0.214373  0.0138374  0.0346856  
  0.152738  0.0273036  0.0476515  
  0.214357  0.0131517  0.0339335  
  0.160384 0.00275762  0.0179452  
  0.160339 0.00215627  0.0172795  
  0.202909  0.0367312  0.0572563  
  0.153085  0.0289286  0.0488505  
  0.215089  0.0156353  0.0363564  
  0.152831  0.0284356    0.04862  
  0.214553  0.0146867   0.035521  
  0.161244 0.00443179  0.0196846  
  0.160621 0.00353728  0.0187925  
  0.203509  0.0359526  0.0564097  
  0.153642  0.0282469  0.0483943  
  0.216085  0.0155936  0.0363415  
  0.162162 0.00457334  0.0196507  
  0.383344  0.0347536   0.227828  
  0.363294  0.0230955   0.199525  
   0.38326   0.034303   0.227627  
  0.363177  0.0227832   0.199391  
  0.372489  0.0306249   0.248112  
   0.37242   0.030358   0.248013  
  0.383731  0.0349099   0.228251  
    0.3637  0.0231256   0.199752  
  0.383541  0.0349555   0.228116  
   0.36352  0.0232028   0.199697  
  0.372846  0.0307046   0.248357  
  0.372678  0.0307419   0.248276  
  0.384131   0.034542   0.228107  
   0.36397  0.0227445     0.1996  
  0.383923  0.0347408   0.228229  
   0.36384   0.022945   0.199696  
  0.373122  0.0304299   0.248251  
  0.372988  0.0305776   0.248329  
  0.384377   0.034203   0.227931  
  0.364145  0.0224583   0.199603  
  0.384319  0.0343531   0.227986  
  0.364088  0.0225699   0.199557  
  0.373264  0.0301811   0.248216  
  0.373234  0.0302889     0.2482  
  0.384081  0.0340558   0.227922  
  0.363953    0.02242   0.199652  
  0.373062  0.0301158   0.248233  
  0.374569  0.0748898   0.100978  
  0.370165  0.0668188  0.0923443  
  0.374096  0.0764012   0.104303  
  0.373854  0.0759367   0.103209  
  0.373979  0.0754105   0.103461  
  0.374004  0.0759445   0.104322  
  0.373884  0.0719335  0.0979053  
    0.3743  0.0739258   0.101428  
  0.377578  0.0632436  0.0891756  
  0.346441  0.0275914  0.0676249  
    0.3469  0.0275397  0.0683031  
  0.346685  0.0266406  0.0665155  
  0.346673    0.02735  0.0671504  
   0.34631  0.0251081  0.0651171  
  0.346627  0.0259031  0.0658362  
  0.344624  0.0234482   0.063524  
  0.345678  0.0242163  0.0641762  
  0.345032  0.0233615  0.0643624  
  0.366541 0.00120079  0.0297916  
   0.36616 0.00131074  0.0289692  
  0.364842 -0.000489962  0.0281485  
  0.365473 0.000413292  0.0291038  
  0.364469 -0.00203513   0.026733  
  0.364526 -0.00129255  0.0274215  
  0.364717 -0.00300555  0.0256021  
  0.364483 -0.00275819  0.0260848  
  0.364256 -0.00295778  0.0249165  
  0.337519 -0.0475449 -0.00544639  
  0.333837 -0.0388658   0.003288  
  0.337419 -0.0510277 -0.0110007  
  0.337097 -0.0495424 -0.00896474  
  0.337299   -0.05202 -0.0118455  
  0.337392 -0.0515624 -0.0118618  
   0.33682 -0.0505067 -0.00852582  
  0.337542 -0.0515565  -0.010751  
  0.341217 -0.0424459 0.000106874  
  0.568904 -0.0419347 -0.0500608  
    0.5688 -0.0411354 -0.0498058  
  0.620439 -0.0268844 -0.0548888  
  0.620353 -0.0264721 -0.0547849  
  0.568355  -0.042124 -0.0507215  
  0.568595  -0.042166 -0.0504594  
  0.620248  -0.026897 -0.0551464  
  0.620339 -0.0269689 -0.0550448  
   0.56805 -0.0418313 -0.0503325  
  0.568222 -0.0420028 -0.0506851  
  0.620092 -0.0266409 -0.0548661  
  0.620188 -0.0267792 -0.0550943  
  0.567193 -0.0410331 -0.0489284  
  0.567696 -0.0415497 -0.0496342  
  0.619638 -0.0261936 -0.0540775  
    0.6199 -0.0264597 -0.0544518  
  0.567151  -0.040386 -0.0489241  
  0.619614 -0.0259301 -0.0541596  
  0.437253  0.0598864   0.281578  
  0.437318  0.0595175   0.281499  
  0.465928  0.0660635   0.340453  
  0.465978  0.0658989    0.34043  
  0.437607  0.0600922   0.282055  
  0.437403  0.0600905   0.281835  
  0.466158  0.0661899   0.340746  
  0.466022  0.0661698   0.340603  
  0.438074  0.0598338   0.281983  
  0.437831  0.0599806     0.2821  
  0.466457  0.0661014   0.340735  
  0.466306  0.0661569   0.340788  
  0.438398  0.0594681   0.281707  
  0.438303  0.0596587   0.281807  
  0.466629   0.065913   0.340594  
  0.466586  0.0660171   0.340646  
  0.438156   0.059289   0.281699  
  0.466483  0.0658146   0.340582  
  0.258186 -0.0391866  -0.205839  
  0.258399 -0.0390259  -0.205834  
  0.234933 -0.0438414  -0.258051  
  0.235061 -0.0437516  -0.258037  
  0.258483 -0.0395107  -0.206087  
  0.258274 -0.0393589  -0.205929  
  0.235085 -0.0440046  -0.258181  
  0.234971  -0.043934  -0.258101  
  0.258917  -0.039715   -0.20613  
  0.258707 -0.0396294  -0.206184  
  0.235353 -0.0440664  -0.258183  
   0.23522 -0.0440459  -0.258226  
   0.25925 -0.0395278  -0.205687  
  0.259111 -0.0397059  -0.205917  
  0.235559 -0.0439498  -0.257916  
  0.235476 -0.0440431  -0.258051  
  0.259177 -0.0392176  -0.205641  
  0.235511 -0.0438121  -0.257899  
  0.143741  0.0652874   0.141474  
  0.143782  0.0646447   0.141471  
 0.0914573    0.05046   0.146555  
 0.0914806  0.0501982   0.146637  
  0.142889  0.0660817   0.142871  
  0.143241  0.0658012   0.142176  
 0.0910055  0.0509056    0.14734  
 0.0911968   0.050725   0.146927  
  0.142585  0.0663739   0.143259  
  0.142717  0.0662528   0.143223  
 0.0908503  0.0511612   0.147619  
 0.0909098  0.0510436   0.147567  
  0.142039   0.066186   0.142603  
  0.142346  0.0664161   0.142999  
 0.0906607  0.0511488   0.147363  
 0.0907598   0.051233   0.147518  
  0.142143  0.0653911    0.14235  
 0.0907461  0.0507383   0.147259  
  0.496901 -0.0442949 -0.00678542  
  0.539522 -0.0409956 -0.0126995  
   0.50698 -0.0321575  0.0127206  
  0.539421 -0.0395226 -0.0119705  
  0.506936 -0.0301377  0.0139723  
  0.554612 -0.0249463  0.0147189  
  0.554318  -0.023758  0.0153768  
  0.496019 -0.0471558 -0.00944555  
  0.538883 -0.0410245 -0.0136181  
  0.506595 -0.0317708  0.0119783  
  0.539121  -0.041217 -0.0133739  
  0.506704 -0.0321691  0.0119903  
  0.554458  -0.024417  0.0145206  
  0.554521 -0.0248285  0.0144337  
  0.495549 -0.0467584 -0.00967683  
  0.538581 -0.0404051 -0.0128718  
   0.50633 -0.0307883  0.0131073  
  0.538763 -0.0407603 -0.0134323  
    0.5065 -0.0313401  0.0123657  
  0.554269 -0.0235431  0.0154969  
  0.554406 -0.0240114  0.0148771  
  0.494813 -0.0456282 -0.00764384  
  0.537238  -0.038862 -0.0104013  
  0.504834 -0.0286128  0.0164347  
  0.538113 -0.0398429 -0.0117661  
  0.505892 -0.0299699  0.0144452  
  0.553037 -0.0219362  0.0178598  
  0.553871 -0.0228916  0.0165619  
  0.492947 -0.0419485 -0.00449756  
  0.536823 -0.0376281 -0.0100438  
    0.5038 -0.0267133  0.0174175  
  0.552397 -0.0210535  0.0181242  
  0.319021 -0.0168651  -0.114851  
  0.303288 -0.0226657  -0.160152  
  0.330383 -0.00804424  -0.115071  
  0.303578 -0.0224843  -0.160139  
  0.330714 -0.00787957  -0.115047  
  0.320294  -0.013587   -0.16354  
  0.320551 -0.0134653  -0.163532  
  0.318764 -0.0173342  -0.115042  
  0.303595 -0.0230456  -0.160418  
  0.330664 -0.00842384  -0.115296  
  0.303368 -0.0228503  -0.160246  
  0.330455 -0.00820952  -0.115146  
  0.320502 -0.0138782  -0.163676  
  0.320337 -0.0137211  -0.163576  
  0.319315 -0.0178649  -0.115484  
   0.30406 -0.0233848  -0.160544  
  0.331082 -0.00885441  -0.115475  
   0.30384 -0.0232324  -0.160551  
  0.330886 -0.00865484  -0.115438  
  0.320874 -0.0141686  -0.163783  
  0.320692 -0.0140365  -0.163773  
  0.319744 -0.0181504  -0.115311  
  0.304429 -0.0231792   -0.16006  
  0.331483 -0.00869323     -0.115  
   0.30426 -0.0234062  -0.160353  
  0.331274 -0.00891574  -0.115331  
  0.321233 -0.0140213  -0.163417  
  0.321056 -0.0141936   -0.16365  
  0.320013 -0.0171878   -0.11458  
  0.304431 -0.0227305  -0.159899  
  0.331607 -0.00814366  -0.114713  
  0.321279 -0.0136686  -0.163278  
  0.218307    0.06629  0.0969162  
  0.174023   0.063199   0.102826  
  0.206446  0.0529529  0.0759709  
  0.174436  0.0619669    0.10247  
  0.207478  0.0510553  0.0749893  
  0.158244  0.0462771  0.0745504  
  0.158884  0.0453953  0.0742865  
  0.216444  0.0699651   0.100058  
  0.172682  0.0647408   0.105294  
  0.204951  0.0551276  0.0792965  
  0.173149   0.064179   0.104189  
  0.205389  0.0543094  0.0779591  
  0.157014  0.0478832  0.0769119  
  0.157411  0.0472319  0.0758474  
  0.215708   0.071095    0.10209  
  0.172379  0.0653601    0.10604  
  0.204685    0.05611  0.0804254  
  0.172499   0.065096   0.105854  
  0.204781  0.0556794   0.080038  
  0.156824  0.0487568  0.0778879  
  0.156877  0.0483514  0.0775315  
  0.215239  0.0714923   0.101859  
  0.171742  0.0653309   0.105122  
  0.204301  0.0564961  0.0796835  
  0.172142  0.0655524   0.105796  
  0.204577  0.0565081  0.0804134  
  0.156671  0.0492856  0.0776897  
  0.156761  0.0491681  0.0779748  
  0.214358  0.0686337  0.0992016  
  0.171842  0.0638592   0.104394  
  0.204345  0.0544775  0.0784323  
  0.156965  0.0480979   0.077032  
   0.35344  0.0159227   0.123596  
   0.35015  0.0177576   0.122652  
  0.353259  0.0187463   0.165895  
  0.350253  0.0179649   0.123037  
  0.353203  0.0186612   0.165958  
  0.346738   0.021303   0.164926  
  0.346753   0.021337   0.165115  
  0.353675  0.0158592   0.123348  
  0.350489  0.0174707   0.122332  
  0.353643  0.0186254   0.165868  
  0.350336   0.017686   0.122468  
  0.353479  0.0187571   0.165901  
  0.347051  0.0210782   0.164698  
  0.346921  0.0212446     0.1648  
  0.353953  0.0154016   0.123127  
  0.350531  0.0168275   0.121968  
  0.353786  0.0181591    0.16565  
  0.350551  0.0171484   0.122121  
  0.353736  0.0183977   0.165757  
  0.347052  0.0205494   0.164401  
  0.347087  0.0208178   0.164543  
  0.354066  0.0149078   0.123017  
  0.350556  0.0165022   0.122281  
  0.353903  0.0178689   0.165819  
  0.350504  0.0165829   0.121951  
  0.353836   0.017965   0.165647  
  0.347038  0.0202108   0.164611  
  0.347011  0.0203253   0.164387  
  0.354335  0.0150108   0.123653  
  0.350864  0.0167553   0.122814  
   0.35391  0.0179678   0.166032  
  0.347171  0.0203918   0.164937  
  0.469146 -0.0567554 -0.0280677  
    0.4696 -0.0541668  -0.026677  
  0.513733  -0.052079 -0.0385444  
  0.513754 -0.0505608 -0.0378886  
  0.467474 -0.0578722 -0.0306863  
  0.468042 -0.0576673  -0.029816  
  0.512605 -0.0526486 -0.0400298  
  0.513046 -0.0525964 -0.0394803  
  0.466909 -0.0576727 -0.0303053  
  0.467192 -0.0578688  -0.030787  
  0.512147 -0.0523658 -0.0395914  
  0.512389 -0.0525619   -0.04004  
  0.465223 -0.0558358 -0.0270316  
   0.46632 -0.0571586 -0.0290321  
  0.510791 -0.0510403 -0.0372924  
  0.511622 -0.0519517 -0.0385609  
  0.464884 -0.0532645 -0.0259452  
  0.510668 -0.0496238 -0.0369138  
  0.396715  0.0545134   0.172848  
  0.394647  0.0445346   0.209364  
   0.39673   0.053415   0.172356  
  0.394599  0.0438738   0.209044  
  0.414639  0.0572697    0.22107  
   0.41469  0.0565822   0.220835  
  0.397152  0.0548498   0.173794  
  0.395043  0.0447856   0.209984  
  0.396937  0.0549392   0.173474  
  0.394835  0.0448423   0.209762  
  0.415078  0.0575823   0.221796  
  0.414833  0.0576115   0.221495  
  0.397743  0.0541251   0.173389  
  0.395559  0.0442879   0.209757  
  0.397403  0.0545221   0.173755  
  0.395275  0.0445583   0.209956  
  0.415661  0.0570993   0.221591  
  0.415341  0.0573676   0.221818  
  0.398516  0.0532287   0.172376  
  0.395972   0.043773   0.209322  
  0.398204  0.0536852   0.172816  
  0.395848  0.0440175   0.209489  
  0.416207  0.0564793   0.221007  
  0.416011  0.0567985   0.221243  
  0.398116  0.0527574   0.172295  
  0.395609  0.0435196   0.209293  
  0.415872  0.0561579   0.220984  
  0.306745 -0.0295326  -0.100238  
  0.307132 -0.0291392  -0.100198  
  0.285936  -0.034279  -0.147975  
  0.286241  -0.034003  -0.147963  
  0.307404 -0.0302857  -0.101029  
  0.306998 -0.0299148  -0.100575  
  0.286419 -0.0348184  -0.148456  
  0.286102 -0.0345585  -0.148164  
  0.307998 -0.0308984  -0.101338  
   0.30774 -0.0306232  -0.101328  
   0.28698 -0.0352231  -0.148605  
  0.286721  -0.035045  -0.148645  
  0.308435 -0.0305636    -0.1005  
  0.308233 -0.0309591  -0.101026  
  0.287407 -0.0349356  -0.147949  
  0.287221 -0.0352364  -0.148319  
  0.308427 -0.0296669  -0.100122  
  0.287341 -0.0343535  -0.147784  
  0.245997  0.0801691   0.119467  
  0.246334  0.0776031   0.118385  
  0.200311  0.0753534   0.129775  
  0.200433  0.0739424   0.129399  
  0.244314  0.0820048   0.122737  
  0.244903  0.0814907   0.121464  
  0.198959  0.0766762   0.132068  
  0.199483  0.0762627   0.131039  
  0.243749  0.0822047   0.123118  
  0.244031  0.0822011   0.123218  
  0.198501  0.0769592   0.132506  
  0.198717  0.0768723   0.132516  
  0.242079  0.0810891   0.120503  
  0.243183  0.0820002   0.122249  
  0.197377  0.0763913   0.131025  
  0.198061  0.0769073   0.131958  
  0.241628  0.0785041   0.119115  
  0.197357  0.0748778   0.130372  
  0.355097  0.0137113  0.0851313  
  0.354987  0.0136433  0.0851795  
  0.353078  0.0135923  0.0836668  
  0.353203  0.0138858  0.0842205  
   0.35549  0.0135195   0.085148  
  0.355311  0.0137098  0.0851958  
   0.35344    0.01332  0.0834452  
  0.353266  0.0135812  0.0836171  
  0.355733  0.0129478  0.0849029  
  0.355629  0.0132369  0.0850193  
    0.3536   0.012681  0.0831163  
  0.353561  0.0130051  0.0832618  
  0.355996  0.0127149  0.0851204  
  0.355865  0.0127473  0.0849137  
  0.353767  0.0124826  0.0834783  
  0.353661  0.0124512  0.0831504  
  0.356222   0.012895  0.0854931  
  0.354202  0.0127396  0.0842383  
  0.379772  0.0349551   0.184995  
   0.37961  0.0342223   0.184557  
  0.380165  0.0351454   0.185586  
  0.379977  0.0352309   0.185416  
  0.380626    0.03461   0.185335  
  0.380371  0.0348965   0.185528  
  0.380986   0.034134   0.184954  
  0.380885  0.0343426   0.185103  
  0.380597   0.033906   0.184906  
  0.253984  0.0686199  0.0897647  
  0.287095  0.0822955   0.112907  
  0.255367  0.0647809  0.0873715  
  0.287879  0.0781934   0.110723  
  0.269458  0.0789749   0.104436  
  0.270477  0.0747919    0.10198  
  0.252357  0.0712885  0.0942131  
  0.285456  0.0844242   0.116991  
  0.252783  0.0703975  0.0926606  
  0.285989  0.0839353   0.115686  
  0.267725  0.0814663   0.108876  
   0.26821  0.0807352   0.107354  
  0.251924  0.0720838  0.0951861  
  0.284786  0.0843656   0.117119  
  0.252122  0.0717986  0.0949791  
  0.285148  0.0845492   0.117396  
  0.267161  0.0818481   0.109437  
  0.267441  0.0817884   0.109471  
  0.250968  0.0716232  0.0929133  
  0.282686  0.0824541   0.113099  
  0.251702  0.0721963  0.0947532  
  0.284173  0.0838818   0.115864  
  0.265576  0.0805754   0.106099  
  0.266733  0.0816402   0.108538  
  0.250104  0.0679139  0.0903254  
  0.281307  0.0783231   0.110375  
  0.264369  0.0764364   0.103299  
  0.460299 -0.0472858 -0.00050724  
  0.428503 -0.0581169 -0.0206451  
  0.461164 -0.0435731 0.00208312  
  0.429888 -0.0539803 -0.0179135  
   0.44564 -0.0562414 -0.0136752  
  0.446851 -0.0520968 -0.0108696  
  0.459342  -0.047746 -0.00278158  
  0.426401 -0.0600317 -0.0246728  
  0.459565 -0.0478584 -0.00234827  
  0.427015 -0.0595468 -0.0234154  
  0.444054 -0.0575151 -0.0170179  
  0.444482 -0.0573067 -0.0161177  
  0.458909 -0.0469507 -0.00180852  
  0.425731 -0.0600909 -0.0245457  
  0.459144 -0.0474608 -0.00257465  
  0.426039 -0.0602159 -0.0249505  
   0.44349 -0.0571336 -0.0164569  
  0.443774 -0.0574556 -0.0170516  
  0.457282 -0.0442811 0.00264246  
  0.424091 -0.0579602 -0.0204555  
  0.458483 -0.0460594 -0.00025552  
  0.425199 -0.0596023 -0.0232394  
  0.441756 -0.0546407 -0.0120125  
  0.443005 -0.0564022 -0.0149339  
  0.455896 -0.0404371 0.00503958  
  0.423302 -0.0538475 -0.0182603  
  0.440732 -0.0504478 -0.00954743  
  0.332862 -0.00948935 -0.0739443  
  0.320726 -0.0261459 -0.0575969  
  0.333316 -0.00923467 -0.0738696  
  0.321189 -0.0256121 -0.0574781  
  0.325934  -0.018114 -0.0676793  
  0.326423 -0.0177559 -0.0675993  
   0.33328 -0.0100331 -0.0744475  
  0.321625 -0.0271977 -0.0588926  
  0.332993 -0.00972486 -0.0741598  
  0.321124 -0.0266763 -0.0581907  
  0.326544 -0.0188644 -0.0685064  
  0.326163 -0.0184649 -0.0680426  
  0.333748 -0.0106477 -0.0747601  
  0.322171  -0.028055 -0.0594349  
  0.333546 -0.0103626 -0.0746861  
  0.321957 -0.0276659 -0.0593434  
  0.327067 -0.0195973 -0.0689291  
  0.326854 -0.0192605 -0.0688413  
  0.334117 -0.0104665 -0.0741037  
  0.322537 -0.0277605 -0.0584303  
   0.33392  -0.010762 -0.0745953  
   0.32235 -0.0282012 -0.0591379  
  0.327404 -0.0193609 -0.0681262  
  0.327235   -0.01973 -0.0687065  
  0.334348 -0.00957458 -0.0735129  
   0.32262 -0.0264316 -0.0577066  
  0.327573 -0.0182849 -0.0674612  
   0.27676  0.0381235  0.0584628  
  0.313317  0.0257208  0.0512951  
  0.240575  0.0375677  0.0571844  
  0.314432  0.0227343  0.0478761  
  0.242159  0.0352368   0.055515  
  0.265655  0.0184465   0.041712  
  0.267001  0.0169764  0.0402237  
  0.274108  0.0435345  0.0642681  
  0.312907  0.0283545  0.0544544  
  0.239394  0.0399749  0.0606594  
  0.313037   0.027187  0.0530997  
  0.239709  0.0389832  0.0593518  
  0.264849  0.0206289  0.0444077  
  0.265063  0.0196428  0.0432692  
  0.273702  0.0453947  0.0666935  
  0.312832  0.0298812  0.0562017  
  0.239192  0.0412724  0.0621314  
  0.312822  0.0291281  0.0554345  
  0.239255  0.0406671  0.0615592  
  0.264748  0.0221182  0.0460876  
  0.264757  0.0213807  0.0453169  
  0.273618  0.0465281  0.0675555  
  0.313286  0.0311712  0.0571945  
  0.239327   0.042318  0.0622456  
  0.312782  0.0306354  0.0568486  
  0.239228  0.0418745  0.0625228  
  0.265304  0.0238562  0.0475094  
  0.264848  0.0229496  0.0468838  
  0.273059  0.0439639  0.0645167  
  0.312777  0.0302751  0.0561047  
  0.239363  0.0403542  0.0608136  
  0.265815  0.0234247   0.047233  
  0.348109  0.0043953 -0.0395378  
  0.352904 0.00958302 0.00251222  
  0.344912 0.00216386 -0.0727598  
  0.352944 0.00951834  0.0025068  
  0.345204 0.00225911 -0.0727442  
  0.351457 0.00751305 -0.0426117  
  0.351577 0.00749944 -0.0426876  
  0.347909 0.00416821 -0.0396892  
  0.353197 0.00924145 0.00245973  
  0.345179 0.00180827  -0.072891  
  0.353018 0.00945593 0.00252937  
  0.345001 0.00202502 -0.0727902  
  0.351709  0.0071964 -0.0425964  
  0.351562 0.00740236 -0.0425506  
  0.348293 0.00363556 -0.0399815  
  0.353488 0.00866353 0.00221391  
  0.345529 0.00132452 -0.0730913  
  0.353348 0.00894501 0.00231839  
  0.345363 0.00155365 -0.0730283  
  0.351996 0.00668824 -0.0428034  
   0.35185 0.00693383 -0.0427175  
  0.348623 0.00323963   -0.03998  
  0.353892 0.00855869  0.0024819  
  0.345956 0.00138085 -0.0727013  
  0.353655 0.00850629 0.00226203  
  0.345715 0.00122394 -0.0730047  
  0.352431 0.00663759  -0.042573  
  0.352179 0.00655924  -0.042766  
  0.349208 0.00408552 -0.0390065  
  0.354225 0.00902152 0.00303274  
  0.346185 0.00194237 -0.0723226  
  0.352654 0.00702855 -0.0422892  
  0.438254 -0.0196229  0.0278827  
  0.398036 -0.00683084  0.0352036  
  0.471985 -0.0179759  0.0301548  
  0.398544 -0.00593539  0.0362932  
  0.471949 -0.0160121  0.0315868  
  0.446017 0.000486193  0.0448904  
  0.445505 0.000917131  0.0451665  
  0.437695 -0.0221866  0.0248439  
  0.398489 -0.00554052  0.0361965  
  0.472119 -0.0169297  0.0302692  
  0.398539 -0.00629494  0.0355495  
  0.472083  -0.017532  0.0298777  
  0.446573 0.00222482  0.0463126  
  0.446472 0.00139324  0.0455163  
  0.437611  -0.021053  0.0257058  
  0.398413 -0.00401379  0.0379437  
  0.471917 -0.0156321  0.0317413  
  0.398499 -0.00478738  0.0369636  
  0.472057 -0.0163243  0.0308414  
  0.446472  0.0037142  0.0479926  
  0.446563 0.00296244  0.0470833  
  0.437205 -0.0191928  0.0281314  
  0.398004 -0.00138037  0.0411029  
  0.470736 -0.0132246  0.0352168  
  0.398284 -0.00284632  0.0392985  
  0.471602 -0.0146403   0.033049  
  0.445665 0.00589655  0.0506883  
  0.446257  0.0047003  0.0491311  
  0.434552 -0.0137811  0.0339376  
  0.396888 0.00160622  0.0445224  
  0.469151 -0.0108932  0.0368868  
  0.444319 0.00736646  0.0521766  
  0.270472 -0.0652538 -0.0394179  
  0.269756 -0.0604751 -0.0364614  
  0.271758 -0.0670937 -0.0431801  
  0.271414 -0.0666784 -0.0421167  
  0.272149 -0.0668791 -0.0426598  
  0.271943 -0.0671499 -0.0432994  
  0.274096 -0.0642291 -0.0376018  
  0.272612 -0.0661205 -0.0410009  
  0.276254 -0.0593508 -0.0344456  
  0.437332   0.088573   0.130062  
  0.435177  0.0837011   0.126913  
  0.439282  0.0912222   0.135119  
  0.438817  0.0904641   0.133459  
  0.439673  0.0914365   0.135639  
  0.439489  0.0914928   0.135758  
  0.440962  0.0895978    0.13188  
  0.440019  0.0910214   0.134576  
  0.441676  0.0848258    0.12893  
  0.378425 -0.0100358 -0.0368746  
  0.378048 -0.0102459 -0.0374529  
  0.377584 -0.0108999  -0.037207  
  0.378046 -0.0104158 -0.0368354  
  0.377142 -0.0118306 -0.0379323  
  0.377283 -0.0113794 -0.0376198  
  0.377176 -0.0122925 -0.0384934  
  0.377118 -0.0121535 -0.0381716  
  0.377138 -0.0122131 -0.0387365  
   0.30387  0.0776164   0.118249  
  0.303906  0.0744977   0.116645  
   0.31499  0.0819424   0.105945  
  0.316575   0.075414   0.101644  
   0.30242  0.0789411   0.121047  
  0.302949  0.0788034   0.120096  
  0.313834  0.0839857   0.110371  
  0.314193  0.0834084   0.109198  
  0.301678  0.0783461   0.120605  
  0.302099  0.0788003   0.121113  
  0.313136  0.0836901   0.110234  
  0.313513   0.083961   0.110796  
  0.299198  0.0758943   0.116469  
  0.300844  0.0776828   0.119173  
  0.311342  0.0813243    0.10525  
  0.312588  0.0828188    0.10881  
  0.298093  0.0733619   0.115056  
  0.308287  0.0745958   0.100108  
  0.313075 -0.0371668 -0.0491917  
  0.313285 -0.0361963 -0.0489376  
   0.33195 -0.0193272 -0.0243977  
  0.332583 -0.0188031 -0.0241604  
   0.31443 -0.0387216 -0.0513249  
   0.31377 -0.0380474  -0.050274  
  0.333019 -0.0206391 -0.0261443  
  0.332506 -0.0199888 -0.0252571  
  0.314968 -0.0396473 -0.0519522  
  0.314761 -0.0392466 -0.0518946  
  0.333431  -0.021725 -0.0269461  
  0.333312 -0.0212272  -0.026739  
  0.315569 -0.0391496 -0.0504982  
  0.315232  -0.039757 -0.0514427  
  0.333549 -0.0216659 -0.0260412  
  0.333509 -0.0220044 -0.0267687  
  0.315545 -0.0374653  -0.049666  
  0.333877 -0.0199637  -0.024782  
  0.398425  0.0642969   0.148517  
  0.398462  0.0626988   0.147753  
  0.380808  0.0479567   0.128164  
  0.380534  0.0463783   0.127067  
  0.399039   0.064805   0.149936  
  0.398762  0.0648965   0.149421  
  0.381005  0.0481064   0.129113  
  0.380888  0.0483428    0.12889  
  0.399602  0.0639236   0.149361  
  0.399261  0.0644244     0.1499  
  0.381465  0.0470965   0.128397  
  0.381155  0.0476463   0.128946  
   0.40091  0.0624438   0.147372  
  0.400248  0.0632819   0.148366  
  0.382485  0.0458725   0.126798  
  0.381977  0.0464887   0.127574  
  0.400676  0.0615269   0.147147  
  0.381899  0.0453381   0.126628  
  0.411604 -0.0515512 -0.0236541  
  0.412744 -0.0489551 -0.0221946  
  0.399633 -0.0569759 -0.0127292  
  0.402706 -0.0502222 -0.0075423  
  0.409122 -0.0540142 -0.0278241  
  0.409955 -0.0533439 -0.0263844  
  0.397844 -0.0593538 -0.0177301  
  0.398389  -0.058479  -0.016304  
   0.40838 -0.0546116 -0.0282691  
  0.408701   -0.05447 -0.0283351  
  0.397146 -0.0596513 -0.0178695  
  0.397466 -0.0596256 -0.0182946  
  0.406927 -0.0532809  -0.025448  
  0.407853 -0.0544723 -0.0273154  
  0.395998 -0.0576046 -0.0134336  
  0.396789  -0.059072 -0.0166949  
  0.406878 -0.0501156 -0.0238066  
  0.394392 -0.0510349 -0.00908305  
  0.356879  0.0163396   0.127585  
  0.356728   0.016109   0.127505  
  0.359161  0.0191062     0.1628  
  0.359016  0.0188069    0.16266  
  0.357313  0.0162512   0.127736  
  0.357134  0.0164024   0.127746  
  0.359589  0.0190783    0.16299  
  0.359406  0.0191902   0.162959  
  0.357566  0.0157406   0.127526  
  0.357451  0.0160044   0.127645  
  0.359848   0.018624   0.162804  
  0.359726  0.0188599    0.16291  
  0.357799  0.0154561   0.127623  
  0.357693  0.0155368   0.127513  
  0.360053  0.0183267   0.162852  
  0.359969  0.0184313   0.162771  
   0.35778  0.0155098   0.127812  
  0.359917  0.0183307   0.162948  
  0.357218   0.015607  0.0876056  
  0.356876   0.015112  0.0870146  
  0.357612  0.0154727  0.0878368  
  0.357442    0.01562  0.0877806  
    0.3579  0.0148871  0.0875874  
   0.35775  0.0151844  0.0877244  
  0.358196  0.0145393  0.0875541  
  0.358077  0.0146794  0.0875191  
  0.358172  0.0146468  0.0875566  
  0.300781  0.0730973   0.129023  
  0.300434  0.0710663     0.1282  
  0.299607  0.0738143   0.130686  
  0.300112  0.0738135   0.130058  
  0.298854  0.0731312   0.130163  
   0.29928  0.0735539   0.130676  
  0.296555  0.0712004   0.127191  
  0.297943  0.0724304   0.128882  
  0.296127   0.069558   0.126577  
  0.412551  0.0745252   0.156937  
  0.412598  0.0727749   0.156197  
  0.413506  0.0753129   0.158793  
  0.413104  0.0752845    0.15805  
  0.414094  0.0745834   0.158378  
  0.413749  0.0750232   0.158879  
  0.415589  0.0729491   0.156111  
  0.414778  0.0739435   0.157299  
  0.415444  0.0716814   0.155711  
  0.298011 -0.0480542 -0.0599644  
  0.298135 -0.0467279 -0.0595274  
  0.299546 -0.0497484 -0.0623432  
  0.298854  -0.049086 -0.0612208  
  0.300122 -0.0505056 -0.0627896  
  0.299886 -0.0502043 -0.0628628  
  0.301079 -0.0497106 -0.0608894  
  0.300516 -0.0504839 -0.0620417  
  0.301047 -0.0478842 -0.0600925  
   0.41346 -0.0467728 -0.0333478  
  0.413927 -0.0450685 -0.0326873  
  0.411128 -0.0487503 -0.0364056  
  0.412043 -0.0480371 -0.0351011  
  0.410374  -0.049446 -0.0369418  
  0.410701 -0.0491821 -0.0369269  
  0.409187 -0.0487151  -0.035236  
  0.409869 -0.0494456 -0.0363071  
  0.409522 -0.0466188 -0.0343698  
  0.280723  0.0566933   0.074557  
  0.282997  0.0515938  0.0705752  
  0.244883  0.0549493   0.074429  
  0.246472  0.0516976  0.0722698  
  0.279754  0.0596542  0.0792221  
  0.280026  0.0585081  0.0777596  
  0.243461  0.0575678  0.0785295  
  0.243834   0.056593  0.0770557  
  0.279418  0.0607785   0.080548  
  0.279579  0.0603148  0.0802888  
  0.243148  0.0586459  0.0797807  
  0.243274  0.0581887  0.0793887  
  0.279222  0.0608621  0.0790718  
  0.279391  0.0610826  0.0806329  
  0.242763  0.0589356  0.0786309  
  0.243066  0.0590139  0.0797649  
  0.277854  0.0566923  0.0755728  
  0.242251  0.0559201  0.0764811  
  0.345004 0.000941016 -0.0383949  
  0.345437 0.00109005 -0.0382709  
  0.338904 -0.0031416 -0.0753212  
  0.339293 -0.00296701 -0.0752637  
  0.345359 0.000462326 -0.0387806  
  0.345126 0.000747556 -0.0385817  
  0.339228 -0.00357373 -0.0756228  
  0.339001 -0.0033201 -0.0754418  
  0.345734 -0.000160893  -0.039087  
  0.345576 0.000133598 -0.0390047  
   0.33964 -0.0041093 -0.0758665  
  0.339454 -0.00385848 -0.0758021  
  0.346098 -0.000126198   -0.03854  
   0.34589 -0.000307275 -0.0389985  
  0.340042 -0.00398729 -0.0753349  
   0.33982 -0.00421219 -0.0757401  
  0.346516 0.000799368 -0.0377297  
  0.340288 -0.00324987 -0.0748325  
  0.432068 -0.0365239  0.0133259  
  0.433438 -0.0323526   0.016827  
  0.468523 -0.0345967  0.0137698  
  0.469035 -0.0315797  0.0159207  
  0.431872 -0.0364399  0.0118494  
    0.4319 -0.0367439  0.0117648  
  0.468138 -0.0343065  0.0126195  
   0.46822 -0.0346747  0.0126354  
  0.431536 -0.0353156  0.0131753  
  0.431711  -0.035976  0.0121085  
  0.467825 -0.0332284  0.0138708  
  0.468011 -0.0338493  0.0130114  
  0.430567 -0.0323541  0.0178412  
  0.431264 -0.0341693  0.0146382  
  0.466402 -0.0306091  0.0179728  
  0.467451 -0.0322534  0.0153449  
  0.428292  -0.027252  0.0218263  
  0.464811  -0.027355   0.020134  
  0.317255  0.0485354  0.0693495  
  0.319408  0.0427849  0.0630062  
  0.317116  0.0518207  0.0736063  
  0.317369   0.050447  0.0718403  
  0.317066  0.0531582  0.0751661  
  0.317049  0.0524911  0.0745959  
  0.317568  0.0533733  0.0746296  
  0.316835  0.0534313  0.0751332  
  0.315355  0.0492921  0.0698297  
   0.35076 0.00688237 0.00180819  
  0.351035 0.00684942 0.00206347  
  0.351079 0.00639451 0.00150057  
   0.35087 0.00664715 0.00167866  
  0.351384 0.00573203 0.00117591  
  0.351259 0.00605418 0.00130204  
  0.351739 0.00563903 0.00157874  
  0.351518 0.00558048 0.00127792  
  0.352227  0.0064781  0.0026769  
  0.393743 -0.0290343   0.017767  
  0.395955 -0.0249538  0.0225676  
  0.394243 -0.0288193  0.0172302  
  0.394475 -0.0290927  0.0172633  
  0.394193 -0.0274819  0.0187899  
  0.394261 -0.0281522  0.0178005  
  0.394055 -0.0241963  0.0230471  
  0.393941 -0.0261082  0.0205561  
  0.391902 -0.0184455  0.0293916  
  0.123984  0.0283773   0.152325  
  0.123944  0.0284409   0.152381  
  0.123935  0.0285571   0.152436  
  0.123951  0.0285847    0.15243  
  0.593981 -0.00677951 -0.0747854  
  0.593993 -0.0067555 -0.0747979  
  0.593982 -0.00664041 -0.0747448  
  0.593941 -0.00657366 -0.0746839  
  0.218786 -0.0365448  -0.219275  
  0.218789 -0.0365445   -0.21931  
  0.218825 -0.0364571  -0.219276  
  0.218858 -0.0363951  -0.219214  
  0.500963  0.0659544   0.340617  
  0.500996  0.0660187   0.340686  
  0.501035  0.0661015   0.340716  
  0.501041  0.0660968   0.340672  
  0.440317 -0.0315006  -0.204189  
  0.440316  -0.031495  -0.204216  
  0.440321 -0.0314128  -0.204189  
  0.440322 -0.0313646  -0.204144  
  0.267201  0.0568336   0.303147  
  0.267202   0.056882   0.303192  
  0.267207  0.0569632   0.303218  
  0.267205  0.0569678   0.303189  
  0.613367  0.0390476   0.182674  
   0.61343  0.0391255   0.182749  
   0.61346  0.0392487   0.182814  
  0.613435   0.039273   0.182807  
 0.0946479 -0.0161249 -0.0969491  
 0.0946235 -0.0161021 -0.0969587  
 0.0946547  -0.015979 -0.0968936  
 0.0947197 -0.0158994 -0.0968162  
  0.607335  0.0500647   0.245225  
  0.607398  0.0501483   0.245313  
  0.607437  0.0502619   0.245369  
  0.607426  0.0502707   0.245338  
  0.529072  0.0378276   0.180553  
  0.529113  0.0378876   0.180604  
   0.52914  0.0379975   0.180657  
  0.529126  0.0380188   0.180653  
  0.526542  0.0198529  0.0795576  
  0.526576  0.0199013   0.079589  
  0.526591  0.0200162  0.0796463  
  0.526567  0.0200529  0.0796643  
  0.456714  0.0230238   0.101524  
  0.456737  0.0230676   0.101552  
  0.456754  0.0231735   0.101602  
  0.456744  0.0232033   0.101613  
  0.465732 0.00492448 -0.000708336  
  0.465749 0.00495786 -0.000695642  
  0.465758 0.00506382 -0.000646464  
  0.465745 0.00510439 -0.000620883  
  0.411634   0.012823  0.0469339  
  0.411647  0.0128589  0.0469522  
   0.41166  0.0129621  0.0469998  
  0.411657  0.0129963   0.047017  
  0.349988  0.0247665    0.11768  
  0.349994  0.0248063   0.117705  
  0.350008  0.0249063    0.11775  
  0.350012  0.0249335   0.117758  
  0.290509 0.00654432  0.0189966  
  0.290504 0.00657615  0.0190106  
  0.290519 0.00667971  0.0190586  
  0.290534 0.00671857  0.0190807  
  0.354692 -0.00503517 -0.0498981  
  0.354695 -0.00501067  -0.049894  
  0.354709 -0.00491209 -0.0498505  
  0.354717 -0.00487048 -0.0498229  
  0.274762  0.0252165   0.124812  
  0.274754  0.0252579   0.124839  
  0.274763  0.0253598   0.124885  
  0.274775  0.0253881   0.124892  
  0.235029  0.0146627  0.0679826  
  0.235014  0.0147017  0.0680057  
  0.235024  0.0148096  0.0680568  
  0.235045  0.0148467  0.0680742  
   0.34708  0.0443147   0.227643  
  0.347089  0.0443605   0.227679  
  0.347103  0.0444513   0.227715  
  0.347105  0.0444659   0.227705  
  0.445264  0.0340145    0.16394  
  0.445288  0.0340625   0.163975  
  0.445309  0.0341639   0.164021  
  0.445303   0.034186   0.164022  
  0.424614 -0.00523019 -0.0552604  
  0.424623  -0.005205 -0.0552572  
  0.424632 -0.0051053 -0.0552136  
  0.424628 -0.0050629 -0.0551845  
  0.362831 -0.0226563  -0.149454  
  0.362833 -0.0226435  -0.149467  
  0.362848 -0.0225544  -0.149432  
  0.362858  -0.022508  -0.149395  
  0.259935 -0.0184646  -0.119728  
  0.259931 -0.0184488  -0.119737  
  0.259956 -0.0183512  -0.119694  
  0.259982 -0.0182995  -0.119653  
  0.245435 -0.00377601 -0.0362675  
  0.245425 -0.00374918 -0.0362611  
  0.245444 -0.00364355 -0.0362113  
   0.24547 -0.00359639 -0.0361786  
  0.517158 -0.00577543 -0.0641258  
  0.517171 -0.00574924  -0.064127  
   0.51717 -0.00564256 -0.0640793  
  0.517147 -0.00559187 -0.0640394  
  0.172086 -0.0173902  -0.108574  
  0.172073 -0.0173721  -0.108584  
  0.172103 -0.0172629  -0.108532  
  0.172148 -0.0171992  -0.108475  
  0.183035  0.0220039   0.112536  
  0.183008  0.0220525   0.112572  
  0.183011  0.0221645   0.112625  
  0.183031  0.0221983   0.112634  
  0.248315   0.037477   0.195395  
  0.248305  0.0375241   0.195431  
  0.248308  0.0376216   0.195472  
  0.248315  0.0376412   0.195465  
  0.353004  0.0612204   0.322379  
  0.353017  0.0612686   0.322426  
  0.353035  0.0613462    0.32245  
  0.353037  0.0613489   0.322422  
  0.170791  0.0429075   0.231145  
  0.170768   0.042966   0.231199  
  0.170759  0.0430652   0.231238  
   0.17076  0.0430778   0.231213  
  0.619912  0.0234228  0.0941212  
  0.619966  0.0234868  0.0941706  
   0.61998   0.023617  0.0942415  
  0.619938  0.0236627  0.0942669  
  0.172954 -0.00046562 -0.0132884  
   0.17293 -0.000431686 -0.0132749  
  0.172948 -0.000315637 -0.0132163  
  0.172987 -0.000262376 -0.0131782  
 0.0878906 -0.000956028 -0.0108659  
 0.0878489 -0.000911795 -0.0108431  
 0.0878645 -0.000781192 -0.0107717  
 0.0879213 -0.000714714 -0.0107185  
  0.153109 -0.0315602  -0.187498  
  0.153106 -0.0315572  -0.187534  
  0.153147 -0.0314567  -0.187489  
  0.153195 -0.0313832  -0.187413  
    0.5359  0.0546623   0.275028  
  0.535943  0.0547306   0.275096  
  0.535981  0.0548291   0.275139  
  0.535979  0.0548338   0.275108  
  0.433917 -0.0159801  -0.116305  
  0.433922 -0.0159625  -0.116313  
  0.433928 -0.0158682  -0.116275  
  0.433924 -0.0158224   -0.11624  
  0.359354 -0.0375052  -0.232882  
  0.359356  -0.037503  -0.232912  
  0.359373 -0.0374259  -0.232887  
  0.359387 -0.0373776  -0.232841  
  0.515414 -0.0239817  -0.166746  
  0.515412  -0.023973  -0.166773  
  0.515406 -0.0238807   -0.16674  
  0.515392 -0.0238256  -0.166689  
  0.557186 0.00783352  0.0100345  
  0.557215 0.00787421  0.0100517  
  0.557219 0.00799217  0.0101104  
  0.557186 0.00804177   0.010146  
  0.148446  0.0124096  0.0607182  
  0.148413  0.0124572  0.0607505  
  0.148419   0.012577  0.0608112  
  0.148452   0.012622  0.0608345  
 0.0967201 -0.0265712  -0.156161  
 0.0967092 -0.0265634  -0.156194  
 0.0967492 -0.0264493  -0.156137  
 0.0968144 -0.0263632  -0.156046  
  0.436779  0.0491412   0.249465  
  0.436803  0.0491933    0.24951  
  0.436829  0.0492853   0.249548  
  0.436828  0.0492961   0.249532  
  0.613524 0.00768619 0.00568842  
  0.613558 0.00772975 0.00570492  
  0.613556 0.00785642 0.00577066  
  0.613508 0.00791788 0.00582089  
 0.0957671  0.0142051  0.0742056  
 0.0957187   0.014265  0.0742532  
 0.0957192  0.0143928  0.0743203  
 0.0957561  0.0144395  0.0743416  
   0.30669 -0.0270474  -0.170785  
  0.306691 -0.0270379  -0.170803  
  0.306713 -0.0269497  -0.170768  
  0.306732 -0.0268999  -0.170726  
  0.284758 -0.0388177  -0.235827  
  0.284762 -0.0388173   -0.23586  
   0.28479 -0.0387378  -0.235832  
  0.284813 -0.0386842  -0.235779  
  0.569422 -0.0188784  -0.141573  
  0.569419 -0.0188681  -0.141605  
  0.569406 -0.0187666  -0.141565  
  0.569378 -0.0187017  -0.141503  
  0.208595  0.0543284   0.293002  
  0.208587   0.054382   0.293054  
  0.208582  0.0544675   0.293081  
  0.208577  0.0544713   0.293046  
  0.439707    0.06424   0.334306  
  0.439732  0.0642952   0.334362  
  0.439762  0.0643745   0.334389  
  0.439766  0.0643736   0.334353  
  0.353007  0.0612312   0.322373  
  0.267201  0.0568451   0.303141  
  0.248319  0.0374982     0.1954  
  0.347083  0.0443338   0.227646  
    0.3101  0.0590342   0.312754  
  0.350042   0.052773   0.275021  
  0.257762  0.0471616   0.249283  
  0.297693  0.0409014   0.211513  
  0.310102  0.0590458   0.312748  
  0.350046   0.052788   0.275019  
  0.257763  0.0471779   0.249283  
  0.297696  0.0409217   0.211517  
  0.303898  0.0499738   0.262144  
  0.303901  0.0499898   0.262143  
  0.353008  0.0612351     0.3224  
  0.267201  0.0568479   0.303167  
  0.248309  0.0374879   0.195408  
  0.347082  0.0443257   0.227657  
  0.310108  0.0590816   0.312798  
  0.350053  0.0528203   0.275061  
  0.257757  0.0472099   0.249324  
  0.297693  0.0409467   0.211547  
  0.310103  0.0590482   0.312773  
  0.350046  0.0527859   0.275037  
  0.257759  0.0471744     0.2493  
  0.297691  0.0409118   0.211525  
  0.303902  0.0500205   0.262183  
  0.303899  0.0499862    0.26216  
  0.353027    0.06131   0.322445  
  0.267205  0.0569249   0.303212  
  0.248305  0.0375741   0.195456  
  0.347097  0.0444076   0.227702  
  0.310119  0.0591604   0.312823  
   0.35007  0.0529051   0.275092  
   0.25776  0.0472998   0.249357  
  0.297701  0.0410399   0.211585  
  0.310114  0.0591234   0.312817  
  0.350062  0.0528648   0.275082  
  0.257758  0.0472566   0.249346  
  0.297697  0.0409947    0.21157  
  0.303911  0.0501071   0.262215  
  0.303907  0.0500658   0.262204  
  0.353039  0.0613617   0.322441  
  0.267207  0.0569803   0.303209  
  0.248312  0.0376474   0.195475  
  0.347107  0.0444737   0.227716  
  0.310119  0.0591644   0.312795  
  0.350071  0.0529137   0.275073  
  0.257762  0.0473118    0.24934  
  0.297706  0.0410569   0.211577  
  0.310121  0.0591767   0.312814  
  0.350073   0.052924   0.275088  
  0.257761  0.0473213   0.249355  
  0.297705  0.0410638   0.211587  
  0.303913  0.0501176   0.262197  
  0.303914  0.0501273   0.262211  
  0.353028  0.0613116   0.322399  
  0.267202  0.0569291   0.303167  
  0.248318  0.0376016   0.195444  
  0.347099  0.0444284   0.227685  
  0.310114  0.0591271   0.312773  
  0.350064  0.0528761   0.275052  
  0.257762  0.0472722   0.249318  
  0.297704  0.0410192   0.211557  
  0.303909  0.0500798   0.262176  
  0.360154  0.0703361   0.373297  
   0.27087  0.0654149   0.351302  
  0.360157   0.070342   0.373284  
  0.270869  0.0654221    0.35129  
  0.315357  0.0681623   0.363863  
  0.315359  0.0681692   0.363851  
   0.36017  0.0703849    0.37335  
  0.270877  0.0654629   0.351352  
   0.36016  0.0703524   0.373323  
  0.270873  0.0654301   0.351325  
  0.315369  0.0682097   0.363913  
  0.315362  0.0681775   0.363887  
  0.360191  0.0704537   0.373369  
  0.270883  0.0655354   0.351371  
  0.360182  0.0704222   0.373368  
  0.270881  0.0655018    0.35137  
  0.315383  0.0682795   0.363931  
  0.315377  0.0682473   0.363931  
  0.360193  0.0704499   0.373328  
  0.270879  0.0655335   0.351331  
  0.360196  0.0704653   0.373353  
  0.270883  0.0655485   0.351355  
  0.315382   0.068277   0.363892  
  0.315385  0.0682918   0.363916  
  0.360184  0.0704136   0.373304  
  0.270874  0.0654963   0.351308  
  0.315375   0.068241   0.363869  
  0.359362  -0.037468   -0.23286  
   0.44032 -0.0314619  -0.204167  
  0.433917 -0.0159417  -0.116285  
  0.362838 -0.0226187  -0.149434  
   0.39984  -0.034507  -0.218527  
  0.361092 -0.0300858  -0.191176  
   0.43711 -0.0237472  -0.160255  
  0.398378 -0.0193201  -0.132876  
  0.399846 -0.0344697  -0.218505  
  0.361099 -0.0300481  -0.191155  
  0.437111 -0.0237084  -0.160234  
  0.398382 -0.0192825  -0.132855  
  0.399106 -0.0269196   -0.17571  
   0.39911 -0.0268818  -0.175689  
  0.359352 -0.0375182  -0.232902  
  0.440316 -0.0315126  -0.204207  
  0.433919 -0.0159869  -0.116315  
   0.36283 -0.0226649  -0.149466  
   0.39984 -0.0345029  -0.218554  
  0.361094 -0.0300782  -0.191197  
  0.437112 -0.0237356  -0.160272  
  0.398381 -0.0193049  -0.132886  
  0.399838 -0.0345192  -0.218546  
   0.36109 -0.0300966  -0.191192  
   0.43711 -0.0237567  -0.160269  
  0.398378 -0.0193277  -0.132887  
  0.399107 -0.0269099  -0.175728  
  0.399105 -0.0269295  -0.175724  
  0.359363  -0.037467  -0.232907  
  0.440318 -0.0314561  -0.204209  
  0.433926 -0.0159168  -0.116298  
   0.36284 -0.0226008  -0.149454  
  0.399852 -0.0344237  -0.218529  
   0.36111 -0.0299947  -0.191167  
  0.437117 -0.0236468  -0.160239  
  0.398392 -0.0192137   -0.13285  
  0.399845 -0.0344656  -0.218549  
  0.361101 -0.0300387  -0.191188  
  0.437115  -0.023693  -0.160261  
  0.398387 -0.0192609  -0.132872  
  0.399118 -0.0268242  -0.175697  
  0.399112  -0.026869  -0.175718  
  0.359382 -0.0373923  -0.232862  
  0.440322 -0.0313786  -0.204164  
  0.433928  -0.015833  -0.116252  
  0.362855 -0.0225197  -0.149409  
  0.399859 -0.0343763  -0.218485  
  0.361121 -0.0299471  -0.191125  
  0.437116 -0.0235994  -0.160199  
  0.398395 -0.0191682  -0.132814  
  0.399857 -0.0343903  -0.218504  
  0.361118 -0.0299604  -0.191143  
  0.437118 -0.0236119  -0.160215  
  0.398395  -0.019179  -0.132827  
  0.399123 -0.0267774  -0.175657  
  0.399122 -0.0267899  -0.175673  
  0.359384 -0.0373881  -0.232834  
  0.440322 -0.0313768  -0.204139  
  0.433921 -0.0158427  -0.116244  
  0.362854 -0.0225259  -0.149397  
  0.399858  -0.034388  -0.218479  
  0.361118 -0.0299614  -0.191123  
  0.437114 -0.0236158  -0.160199  
  0.398392 -0.0191874  -0.132817  
  0.399121 -0.0267929  -0.175656  
  0.218803 -0.0364988  -0.219245  
  0.259949 -0.0184236  -0.119705  
  0.172108 -0.0173416  -0.108545  
  0.153132 -0.0315056  -0.187463  
  0.239377 -0.0275154  -0.169504  
   0.18594 -0.0340527  -0.203389  
  0.216006 -0.0179283  -0.114149  
  0.162607 -0.0244814  -0.148038  
  0.239393 -0.0274718  -0.169478  
   0.18596 -0.0340027  -0.203357  
  0.216024  -0.017884  -0.114123  
   0.16263 -0.0244297  -0.148006  
  0.200986  -0.025999   -0.15877  
  0.201005 -0.0259518  -0.158742  
  0.218782 -0.0365611  -0.219299  
  0.259929 -0.0184729   -0.11974  
  0.172074 -0.0173995  -0.108588  
  0.153101 -0.0315776  -0.187524  
  0.239375 -0.0275068  -0.169524  
  0.185941 -0.0340512  -0.203424  
  0.215998 -0.0179116  -0.114159  
  0.162599 -0.0244705   -0.14806  
  0.239371 -0.0275274  -0.169521  
  0.185934 -0.0340695  -0.203414  
  0.215997 -0.0179371  -0.114162  
  0.162597 -0.0244946  -0.148057  
  0.200982 -0.0259895  -0.158792  
  0.200978 -0.0260117  -0.158789  
  0.218804 -0.0365042  -0.219302  
  0.259941 -0.0184021  -0.119721  
  0.172084 -0.0173201  -0.108564  
  0.153122 -0.0315106  -0.187522  
  0.239405 -0.0274135  -0.169485  
  0.185979 -0.0339576  -0.203385  
  0.216026 -0.0178088  -0.114111  
  0.162635  -0.024365   -0.14801  
  0.239388 -0.0274629  -0.169512  
  0.185957 -0.0340079  -0.203414  
  0.216009 -0.0178625   -0.11414  
  0.162613 -0.0244209  -0.148043  
  0.201015 -0.0258905  -0.158748  
  0.200995  -0.025943  -0.158777  
  0.218845 -0.0364166  -0.219242  
  0.259972 -0.0183129  -0.119668  
  0.172127 -0.0172179  -0.108497  
  0.153174 -0.0314096  -0.187446  
  0.239436 -0.0273567  -0.169434  
  0.186019 -0.0338904  -0.203317  
  0.216061  -0.017752  -0.114064  
  0.162682 -0.0242963  -0.147945  
  0.239424  -0.027374  -0.169455  
  0.186003  -0.033914  -0.203347  
  0.216046 -0.0177676  -0.114081  
  0.162661 -0.0243188  -0.147972  
  0.201053 -0.0258284   -0.15869  
  0.201037  -0.025848  -0.158714  
  0.218852 -0.0364034  -0.219206  
   0.25998 -0.0183195  -0.119657  
   0.17215 -0.0172191  -0.108481  
  0.153192 -0.0313914  -0.187408  
  0.239432 -0.0273714  -0.169433  
  0.186015 -0.0338987   -0.20331  
  0.216061  -0.017772  -0.114069  
  0.162682 -0.0243106  -0.147945  
  0.201051 -0.0258431   -0.15869  
   0.50097  0.0659586   0.340605  
  0.535903  0.0546727   0.275024  
  0.575881  0.0613678   0.310772  
  0.522524  0.0711397   0.368766  
  0.518436  0.0603106   0.307831  
  0.575886  0.0613695    0.31076  
  0.522533  0.0711385   0.368748  
  0.518441  0.0603178   0.307823  
  0.550182  0.0665124   0.341185  
   0.55019  0.0665123   0.341169  
  0.500975   0.065978   0.340649  
  0.535918  0.0546859   0.275057  
  0.575932  0.0614474    0.31086  
  0.522559  0.0712088   0.368846  
  0.518474   0.060377   0.307899  
  0.575902  0.0613987   0.310812  
  0.522537  0.0711668   0.368805  
  0.518451  0.0603343   0.307862  
  0.550225  0.0665868   0.341269  
  0.550199  0.0665415   0.341224  
  0.501018  0.0660638   0.340712  
  0.535966  0.0547833   0.275126  
  0.575976  0.0615442   0.310902  
  0.522601  0.0712876   0.368873  
  0.518512  0.0604677   0.307936  
  0.575958  0.0615001   0.310893  
  0.522583  0.0712523   0.368872  
  0.518496  0.0604259   0.307928  
  0.550269  0.0666742   0.341302  
   0.55025  0.0666348   0.341298  
  0.501044  0.0661155     0.3407  
  0.535986  0.0548495   0.275131  
  0.575979  0.0615398   0.310852  
  0.522611  0.0712768   0.368815  
  0.518515  0.0604674   0.307898  
  0.575985  0.0615615   0.310885  
  0.522612   0.071299   0.368851  
   0.51852  0.0604848   0.307924  
  0.550276  0.0666659   0.341248  
  0.550279  0.0666882   0.341282  
  0.501023  0.0660498    0.34064  
  0.535958  0.0547828   0.275076  
  0.575955  0.0614814   0.310812  
  0.522593  0.0712272    0.36878  
  0.518495  0.0604182   0.307866  
  0.550256  0.0666118    0.34121  
  0.123993  0.0283983   0.152332  
  0.170792  0.0429212   0.231144  
  0.147387  0.0356425   0.191745  
 0.0885974  0.0317827   0.173979  
  0.141369  0.0469748   0.256194  
  0.147391  0.0356595   0.191747  
 0.0886043  0.0317954    0.17398  
  0.141367   0.046982   0.256187  
  0.113801  0.0395108   0.215929  
  0.113802    0.03952   0.215926  
  0.123962  0.0283956   0.152346  
  0.170779  0.0429254   0.231167  
  0.147356  0.0357039     0.1918  
 0.0885489  0.0318587   0.174052  
  0.141344  0.0470406   0.256258  
  0.147371  0.0356607   0.191766  
 0.0885718  0.0318087   0.174009  
  0.141357  0.0469975   0.256222  
  0.113763  0.0395825   0.215999  
  0.113782  0.0395357   0.215959  
  0.123935  0.0285003   0.152414  
  0.170762  0.0430175   0.231226  
  0.147346  0.0358116   0.191846  
 0.0885342  0.0319766   0.174107  
   0.14133   0.047138   0.256294  
  0.147348  0.0357594    0.19183  
 0.0885373  0.0319196   0.174088  
  0.141335  0.0470918   0.256286  
  0.113748  0.0396902   0.216044  
  0.113753  0.0396386   0.216031  
  0.123941  0.0285903   0.152441  
  0.170758  0.0430893   0.231232  
  0.147353  0.0358311    0.19183  
 0.0885426  0.0319974   0.174086  
  0.141322  0.0471436   0.256255  
  0.147348  0.0358401   0.191846  
 0.0885356  0.0320081   0.174105  
  0.141325  0.0471596   0.256281  
  0.113747  0.0397023   0.216012  
  0.113745  0.0397164   0.216036  
  0.123966   0.028533   0.152401  
  0.170767    0.04303   0.231187  
  0.147364   0.035781   0.191803  
 0.0885597  0.0319367   0.174051  
   0.14133  0.0470905   0.256225  
  0.113759  0.0396446   0.215979  
   0.35167 -0.0463587  -0.282359  
  0.438542 -0.0406283  -0.255633  
  0.351679 -0.0463224  -0.282334  
  0.438547  -0.040591   -0.25561  
  0.395262 -0.0437783   -0.27056  
  0.395269 -0.0437423  -0.270536  
  0.351672 -0.0463627    -0.2824  
  0.438538 -0.0406297  -0.255672  
  0.351667 -0.0463742  -0.282384  
  0.438539 -0.0406431  -0.255657  
  0.395261 -0.0437808  -0.270599  
  0.395259 -0.0437932  -0.270584  
  0.351693 -0.0462942  -0.282382  
  0.438545 -0.0405566  -0.255653  
  0.351681 -0.0463314    -0.2824  
  0.438541 -0.0405957  -0.255671  
  0.395275 -0.0437108   -0.27058  
  0.395267 -0.0437486  -0.270598  
  0.351709 -0.0462454  -0.282328  
  0.438552 -0.0405085  -0.255603  
  0.351703 -0.0462618  -0.282354  
  0.438549 -0.0405237  -0.255626  
  0.395287 -0.0436634   -0.27053  
  0.395282 -0.0436786  -0.270554  
  0.351706 -0.0462512  -0.282315  
  0.438552 -0.0405161  -0.255592  
  0.395285 -0.0436704  -0.270518  
 0.0946782 -0.0160663 -0.0969114  
 0.0879187 -0.000908488 -0.0108363  
 0.0439405 -0.000475715 -0.00543837  
 0.0517886 -0.0165313 -0.0967533  
 0.0912823 -0.00854279 -0.0539116  
 0.0439736 -0.000426691 -0.00540691  
 0.0518242 -0.0164651 -0.0967094  
 0.0913121 -0.00848913 -0.0538775  
 0.0463678 -0.00859437  -0.051509  
 0.0464033 -0.00853555 -0.0514705  
 0.0946284 -0.0161343 -0.0969644  
 0.0878635 -0.000952992 -0.0108648  
  0.043887 -0.000422347 -0.00540546  
 0.0517581 -0.0165064 -0.0967647  
 0.0912487 -0.00850915 -0.0539047  
 0.0439065 -0.000468381 -0.00543266  
 0.0517652 -0.0165412 -0.0967705  
 0.0912586 -0.00854608 -0.0539187  
 0.0463248 -0.00855511  -0.051498  
 0.0463384 -0.00859585 -0.0515149  
 0.0946326 -0.0160435 -0.0969341  
 0.0878496 -0.000847922 -0.0108101  
 0.0438998 -0.000283948 -0.00532685  
 0.0517893 -0.0163761 -0.0966927  
 0.0912723 -0.00838138 -0.0538355  
 0.0438854 -0.000354447 -0.00536858  
 0.0517662 -0.0164445 -0.0967378  
 0.0912536 -0.00844747 -0.0538754  
 0.0463472 -0.00841934 -0.0514212  
  0.046328 -0.00848954 -0.0514656  
 0.0946874 -0.0159257 -0.0968473  
 0.0878909 -0.000731156 -0.0107359  
 0.0439652 -0.000210684 -0.00526543  
 0.0518675 -0.0162844 -0.0965973  
 0.0913346 -0.00830758 -0.0537692  
 0.0439288 -0.000230007 -0.00528663  
 0.0518271 -0.0163174 -0.0966376  
 0.0913025 -0.00832932 -0.0537938  
 0.0464214 -0.00833528 -0.0513406  
 0.0463816 -0.00836222 -0.0513724  
 0.0947298 -0.0159181 -0.0968217  
 0.0879394 -0.000749357 -0.0107363  
 0.0439903 -0.000248424 -0.00528532  
 0.0518831 -0.0162997 -0.0966005  
 0.0913491 -0.00833426 -0.0537811  
 0.0464426 -0.00836152 -0.0513523  
  0.290518 0.00657842  0.0190136  
  0.245449 -0.00373724 -0.0362465  
  0.354697 -0.0049994 -0.0498798  
  0.267975 0.00138237 -0.00863348  
  0.322596 0.000753659  -0.015453  
  0.252687 -0.0111227 -0.0780031  
  0.307324 -0.0117554 -0.0848065  
  0.267986 0.00141866 -0.00861457  
  0.322604 0.000788633 -0.0154353  
  0.252701 -0.0110825 -0.0779808  
  0.307334 -0.0117176 -0.0847862  
  0.287648 -0.00518779 -0.0467244  
  0.287659 -0.00515055 -0.0467047  
  0.290504  0.0065447  0.0189963  
  0.245426 -0.00377901  -0.036272  
  0.354691 -0.00503838 -0.0499029  
  0.267967 0.00141183 -0.00862296  
  0.322596 0.000781673  -0.015444  
   0.25268 -0.0111013 -0.0780041  
  0.307323 -0.0117352  -0.084808  
  0.267968 0.00138114 -0.00863571  
  0.322594 0.00075215 -0.0154555  
   0.25268 -0.0111284 -0.0780111  
   0.30732  -0.011761 -0.0848141  
  0.287644 -0.00516302   -0.04672  
  0.287642 -0.00519128 -0.0467294  
   0.29051 0.00662743  0.0190339  
  0.245431 -0.00369763 -0.0362386  
  0.354701 -0.00496234 -0.0498744  
  0.267984 0.00151645 -0.00857401  
  0.322612 0.000882754 -0.0153981  
  0.252703 -0.0109992 -0.0779574  
  0.307342 -0.0116377 -0.0847654  
  0.267973 0.00146326 -0.00860002  
  0.322603 0.000831479 -0.0154225  
  0.252689 -0.0110519 -0.0779843  
  0.307331 -0.0116879 -0.0847899  
  0.287662 -0.00506162 -0.0466738  
  0.287651 -0.00511351 -0.0466993  
  0.290528 0.00671412  0.0190767  
  0.245459 -0.00360549 -0.0361879  
  0.354715 -0.00487756 -0.0498306  
  0.268004 0.00155924 -0.00854701  
  0.322623 0.000922965 -0.0153733  
  0.252729 -0.0109494 -0.0779199  
  0.307358  -0.011592 -0.0847322  
  0.267996 0.00155262 -0.00855348  
  0.322619 0.000917216  -0.015379  
  0.252718 -0.0109607 -0.0779322  
  0.307352 -0.0116017 -0.0847429  
  0.287681 -0.00501714 -0.0466435  
  0.287673 -0.00502539 -0.0466521  
  0.290534 0.00668802  0.0190667  
  0.245472 -0.00362368 -0.0361899  
  0.354713 -0.00489617 -0.0498326  
  0.268005 0.00153017 -0.00855982  
  0.322621 0.000894882 -0.0153851  
  0.252729 -0.0109731 -0.0779281  
  0.307356  -0.011615 -0.0847395  
   0.28768 -0.00504321 -0.0466537  
   0.51541 -0.0239369  -0.166721  
  0.477872  -0.027742  -0.185463  
   0.51967 -0.0320278  -0.212556  
  0.477871 -0.0277009   -0.18544  
  0.519669  -0.031983   -0.21253  
  0.479655 -0.0365732  -0.235507  
  0.479657  -0.036533  -0.235483  
  0.515414 -0.0239941  -0.166765  
   0.47787 -0.0277347   -0.18549  
  0.519661 -0.0320271  -0.212598  
  0.477871  -0.027754  -0.185482  
  0.519666 -0.0320438  -0.212582  
  0.479649 -0.0365735  -0.235547  
  0.479651 -0.0365884  -0.235531  
   0.51541 -0.0239289  -0.166764  
  0.477869  -0.027648   -0.18546  
  0.519654 -0.0319429  -0.212572  
   0.47787 -0.0276935  -0.185482  
  0.519658 -0.0319875  -0.212594  
  0.479648 -0.0364956  -0.235525  
  0.479648 -0.0365371  -0.235544  
  0.515399 -0.0238423  -0.166711  
  0.477863 -0.0275972  -0.185414  
  0.519646 -0.0318868  -0.212516  
  0.477866 -0.0276121  -0.185433  
  0.519649 -0.0319054  -0.212541  
  0.479648 -0.0364447  -0.235473  
  0.479648  -0.036461  -0.235497  
  0.515392  -0.023838  -0.166686  
  0.477863 -0.0276099   -0.18541  
  0.519649 -0.0318938  -0.212506  
   0.47965 -0.0364523  -0.235463  
   0.23504  0.0146951  0.0679984  
  0.349992  0.0247939   0.117691  
  0.274768  0.0252438   0.124823  
  0.262771  0.0106055  0.0434867  
  0.254896  0.0199393  0.0963994  
   0.32025  0.0156552  0.0683406  
  0.312376  0.0249938   0.121244  
  0.262781  0.0106389  0.0435033  
  0.254905  0.0199691  0.0964128  
  0.320256  0.0156859  0.0683548  
  0.312381  0.0250211   0.121255  
  0.287574  0.0177994   0.082368  
  0.287582  0.0178297  0.0823818  
  0.235019  0.0146668  0.0679867  
  0.349989  0.0247723   0.117686  
  0.274756   0.025223   0.124819  
  0.262761  0.0106406  0.0435049  
  0.254885  0.0199796  0.0964247  
   0.32025  0.0156911  0.0683603  
  0.312375  0.0250338   0.121269  
  0.262763  0.0106075  0.0434884  
  0.254888  0.0199446   0.096405  
  0.320248  0.0156583  0.0683436  
  0.312374  0.0249997    0.12125  
  0.287569   0.017837    0.08239  
  0.287569  0.0178034  0.0823721  
  0.235017  0.0147556  0.0680318  
  0.350001   0.024857   0.117729  
  0.274757  0.0253094   0.124864  
  0.262774  0.0107463  0.0435545  
  0.254894  0.0200846  0.0964731  
  0.320263  0.0157931  0.0684069  
  0.312387  0.0251342   0.121314  
  0.262765  0.0106931  0.0435295  
  0.254887  0.0200323  0.0964502  
  0.320256  0.0157422   0.068384  
   0.31238  0.0250846   0.121293  
   0.28758  0.0179402  0.0824373  
  0.287573  0.0178888  0.0824144  
  0.235035  0.0148443   0.068073  
  0.350012  0.0249353   0.117761  
   0.27477  0.0253898   0.124895  
  0.262792  0.0107844  0.0435745  
  0.254909  0.0201171  0.0964851  
  0.320272  0.0158261  0.0684216  
  0.312395  0.0251618   0.121321  
  0.262784  0.0107808  0.0435718  
  0.254902  0.0201168  0.0964864  
  0.320269  0.0158249  0.0684213  
  0.312392  0.0251635   0.121325  
  0.287593  0.0179729  0.0824508  
  0.287588  0.0179721  0.0824511  
   0.23505  0.0148116  0.0680567  
  0.350007  0.0248986    0.11774  
  0.274776  0.0253518   0.124873  
  0.262794  0.0107517  0.0435589  
  0.254912  0.0200813  0.0964671  
   0.32027  0.0157932  0.0684057  
  0.312393  0.0251266   0.121304  
  0.287593  0.0179388   0.082434  
  0.411634   0.012855   0.046949  
  0.383165 0.00389284 -0.00148456  
  0.380811  0.0187951  0.0823085  
  0.383168 0.00392683 -0.00146779  
  0.380814  0.0188248  0.0823218  
  0.351706 0.00977372  0.0334276  
  0.351711  0.0098061  0.0334431  
  0.411639  0.0128258   0.046936  
  0.383173   0.003923 -0.00147335  
  0.380821   0.018833  0.0823302  
  0.383167 0.00389253 -0.00148591  
  0.380814  0.0187994  0.0823126  
   0.35171 0.00980669   0.033443  
  0.351706 0.00977506  0.0334284  
  0.411655  0.0129107  0.0469761  
  0.383186 0.00402414 -0.00142757  
  0.380836  0.0189346  0.0823766  
   0.38318 0.00397318 -0.00145152  
  0.380829  0.0188842  0.0823543  
  0.351724 0.00990832  0.0334894  
  0.351717 0.00985736  0.0334659  
  0.411661  0.0129944  0.0470155  
  0.383187  0.0040621 -0.00140518  
  0.380836  0.0189652   0.082389  
  0.383189 0.00405764 -0.0014097  
  0.380839  0.0189653  0.0823898  
   0.35173 0.00994372   0.033508  
  0.351729 0.00994093  0.0335056  
  0.411649  0.0129639  0.0470014  
  0.383182 0.00403302 -0.00141789  
   0.38083  0.0189315  0.0823724  
  0.351726 0.00991272  0.0334937  
  0.424614 -0.00519351 -0.0552417  
  0.465729 0.00496053 -0.000690208  
  0.389651 -0.00513385 -0.0525761  
  0.445175 -0.000152825 -0.0279861  
   0.43868 0.00887174  0.0231152  
  0.389654 -0.00509796 -0.0525578  
  0.445173 -0.000116411 -0.0279677  
  0.438678 0.00890556  0.0231317  
  0.414167 0.00186854  -0.014733  
  0.414168 0.00190349 -0.0147155  
  0.424618 -0.00523332 -0.0552656  
   0.46574 0.00492508 -0.000709377  
  0.389657 -0.00510912 -0.0525723  
  0.445187 -0.000123687 -0.0279783  
  0.438695 0.00890651   0.023131  
  0.389653 -0.00513698  -0.052581  
   0.44518 -0.000154185 -0.0279893  
  0.438686 0.00887351  0.0231159  
  0.414178 0.00189815 -0.0147233  
  0.414171 0.00186775 -0.0147351  
  0.424629 -0.00515598 -0.0552379  
  0.465756 0.00501066 -0.000672309  
  0.389669 -0.00501049 -0.0525291  
  0.445196 -2.08712e-05 -0.0279319  
  0.438707 0.00901103  0.0231795  
  0.389664 -0.00506068  -0.052553  
  0.445193 -7.27883e-05  -0.027957  
  0.438703 0.00895879  0.0231548  
  0.414189 0.00199982 -0.0146774  
  0.414184 0.00194855 -0.0147018  
  0.424632 -0.00507039 -0.0551929  
  0.465754 0.00509905 -0.000626523  
  0.389671 -0.00496897 -0.0525014  
  0.445187 2.06137e-05 -0.0279046  
  0.438698 0.00904812  0.0232005  
  0.389672 -0.00497604 -0.0525091  
  0.445193 1.41887e-05 -0.0279116  
  0.438705  0.0090447  0.0231972  
  0.414185 0.00203917  -0.014653  
  0.414189 0.00203391 -0.0146585  
  0.424622 -0.0050884 -0.0551939  
  0.465736 0.00507422 -0.000634671  
  0.389666 -0.00499456 -0.0525109  
  0.445179 -7.15264e-06 -0.0279161  
   0.43869 0.00901667  0.0231857  
  0.414179  0.0020107 -0.0146651  
  0.445265  0.0340388   0.163949  
  0.456712   0.023053   0.101537  
  0.397623  0.0293949   0.140806  
  0.450987  0.0285196   0.132734  
  0.434172  0.0179248  0.0742274  
  0.397625  0.0294208   0.140816  
  0.450987  0.0285464   0.132745  
  0.434172  0.0179555  0.0742416  
  0.415897  0.0236599   0.107519  
  0.415898  0.0236882   0.107531  
  0.445274  0.0340249   0.163951  
  0.456724  0.0230308   0.101531  
  0.397637  0.0294379   0.140835  
  0.451011  0.0285657   0.132766  
   0.43419  0.0179645  0.0742503  
  0.397628  0.0294026   0.140814  
  0.450997  0.0285283   0.132743  
   0.43418  0.0179295  0.0742318  
  0.415914  0.0237015   0.107545  
  0.415904  0.0236662   0.107525  
  0.445301  0.0341148   0.164002  
  0.456748  0.0231215   0.101579  
  0.397654  0.0295378    0.14088  
   0.45103  0.0286696   0.132814  
  0.434205  0.0180689  0.0742991  
  0.397647  0.0294889    0.14086  
  0.451023  0.0286189   0.132792  
    0.4342  0.0180172  0.0742755  
   0.41593  0.0238039   0.107592  
  0.415924  0.0237535    0.10757  
   0.44531  0.0341911   0.164029  
  0.456752  0.0232045   0.101615  
  0.397653  0.0295622   0.140884  
  0.451022  0.0286956    0.13282  
  0.434198   0.018101  0.0743132  
  0.397656  0.0295656   0.140889  
   0.45103  0.0286988   0.132824  
  0.434205  0.0181006  0.0743135  
  0.415926  0.0238321   0.107601  
  0.415931  0.0238337   0.107604  
   0.44529  0.0341468      0.164  
  0.456731  0.0231664   0.101594  
  0.397644  0.0295258   0.140865  
  0.451009  0.0286574   0.132799  
  0.434188  0.0180665  0.0742958  
  0.415917  0.0237964   0.107583  
  0.526534  0.0198862  0.0795739  
  0.496135  0.0123914  0.0394189  
  0.491628  0.0214378  0.0905442  
  0.496129  0.0124265  0.0394364  
  0.491624  0.0214688  0.0905587  
  0.465152  0.0151568  0.0568265  
  0.465149  0.0151894  0.0568421  
  0.526559   0.019861  0.0795652  
   0.49616  0.0124318  0.0394399  
  0.491657  0.0214838  0.0905739  
  0.496147  0.0123954  0.0394216  
  0.491642  0.0214454  0.0905515  
  0.465174  0.0151968  0.0568487  
  0.465162  0.0151612  0.0568301  
  0.526588  0.0199596  0.0796188  
  0.496171  0.0125423  0.0394933  
  0.491673  0.0215937  0.0906272  
  0.496169  0.0124874  0.0394664  
  0.491669  0.0215397   0.090602  
  0.465187  0.0153041  0.0568996  
  0.465183  0.0152509  0.0568745  
  0.526583  0.0200515  0.0796639  
  0.496152  0.0125813  0.0395158  
  0.491657  0.0216264   0.090641  
  0.496164  0.0125777  0.0395124  
  0.491669  0.0216266  0.0906422  
  0.465175  0.0153392  0.0569174  
  0.465184  0.0153375  0.0569161  
   0.52655  0.0200141  0.0796429  
  0.496139  0.0125472  0.0394984  
  0.491642  0.0215886  0.0906206  
  0.465163  0.0153048  0.0568999  
  0.529068  0.0378501   0.180561  
  0.487168  0.0359244   0.172244  
  0.527795  0.0288418   0.130056  
  0.487167  0.0359479   0.172252  
  0.527789    0.02887   0.130069  
  0.489392  0.0286819   0.131396  
  0.489389  0.0287093   0.131407  
  0.529091  0.0378439   0.180571  
    0.4872  0.0359776   0.172285  
  0.527833  0.0288965   0.130097  
  0.487182  0.0359373   0.172258  
  0.527813  0.0288541   0.130069  
  0.489423  0.0287318   0.131432  
  0.489406  0.0286922   0.131406  
  0.529131  0.0379448   0.180635  
  0.487224  0.0360826   0.172334  
  0.527854  0.0290099   0.130154  
  0.487216   0.036032   0.172314  
  0.527848  0.0289547   0.130129  
  0.489443  0.0288399   0.131483  
  0.489437  0.0287872    0.13146  
  0.529139  0.0380261   0.180663  
  0.487214  0.0361042   0.172333  
  0.527835  0.0290393   0.130161  
  0.487224  0.0361104   0.172341  
  0.527849  0.0290422   0.130166  
   0.48943  0.0288672    0.13149  
  0.489441  0.0288704   0.131495  
  0.529105  0.0379725   0.180625  
  0.487198   0.036062   0.172309  
  0.527815  0.0289963   0.130137  
  0.489414  0.0288269   0.131467  
  0.436782  0.0491578   0.249466  
   0.44102  0.0415808   0.206708  
  0.486336  0.0519096   0.262237  
  0.532475  0.0462501   0.227794  
  0.441022  0.0416013   0.206713  
   0.48634  0.0519238   0.262236  
  0.532475  0.0462668   0.227796  
  0.486746  0.0439208   0.217245  
  0.486747  0.0439398   0.217249  
  0.436788  0.0491558   0.249483  
  0.441044  0.0416311   0.206748  
  0.486369  0.0519684   0.262291  
  0.532518  0.0463146   0.227853  
  0.441029  0.0415933   0.206722  
   0.48635  0.0519278   0.262259  
  0.532494  0.0462701   0.227818  
  0.486779  0.0439771   0.217293  
   0.48676  0.0439364   0.217263  
  0.436818  0.0492416   0.249534  
  0.441068  0.0417284    0.20679  
  0.486401  0.0520631   0.262331  
  0.532551  0.0464196   0.227902  
  0.441058  0.0416817   0.206773  
  0.486388  0.0520186   0.262318  
  0.532539    0.04637   0.227885  
  0.486808  0.0440777   0.217338  
  0.486797  0.0440297   0.217321  
  0.436833  0.0493064   0.249546  
  0.441064  0.0417449   0.206783  
  0.486399  0.0520713   0.262309  
  0.532542  0.0464329   0.227886  
   0.44107  0.0417526   0.206793  
  0.486406  0.0520839   0.262327  
  0.532553  0.0464444   0.227902  
  0.486801  0.0440927   0.217327  
  0.486809  0.0441021    0.21734  
  0.436815  0.0492553   0.249508  
  0.441051  0.0417046    0.20676  
  0.486382  0.0520264   0.262282  
  0.532521  0.0463839   0.227855  
  0.486784  0.0440488   0.217301  
  0.613356  0.0390677   0.182681  
  0.619893  0.0234589    0.09414  
  0.665616  0.0237352  0.0931641  
  0.657839  0.0400287   0.185724  
  0.616624  0.0312355   0.138399  
  0.665591  0.0237739  0.0931847  
  0.657823   0.040045   0.185728  
  0.616609  0.0312636   0.138412  
  0.663222  0.0319696   0.139853  
  0.663201  0.0319968   0.139865  
  0.613398  0.0390728   0.182704  
  0.619941  0.0234377  0.0941366  
   0.66568  0.0238069   0.093223  
  0.657917  0.0401194   0.185817  
  0.616685  0.0313072   0.138462  
  0.665652  0.0237535  0.0931839  
  0.657879   0.040061   0.185763  
  0.616655  0.0312559   0.138422  
  0.663295  0.0320523   0.139931  
  0.663262  0.0319957   0.139884  
  0.613452  0.0391899   0.182789  
   0.61998  0.0235532  0.0942082  
  0.665692  0.0239451  0.0933013  
  0.657947  0.0402498   0.185889  
  0.616707  0.0314349   0.138531  
  0.665694  0.0238772  0.0932642  
  0.657939  0.0401878   0.185862  
  0.616703  0.0313731   0.138501  
  0.663317  0.0321881   0.140008  
  0.663314  0.0321224   0.139975  
  0.613455  0.0392815   0.182821  
  0.619965  0.0236586  0.0942644  
  0.665638  0.0239994  0.0933359  
  0.657916  0.0402756    0.18588  
  0.616673  0.0314701   0.138541  
  0.665672  0.0239914  0.0933292  
   0.65794  0.0402849   0.185896  
  0.616696  0.0314723   0.138546  
  0.663273  0.0322283   0.140021  
  0.663303  0.0322291   0.140026  
  0.613405  0.0392157    0.18277  
  0.619911  0.0236169  0.0942386  
  0.665606  0.0239515  0.0933052  
  0.657881  0.0402103   0.185836  
  0.616643  0.0314179   0.138508  
  0.663238  0.0321705   0.139983  
  0.348537  0.0345449   0.172668  
  0.261546  0.0313504   0.160104  
  0.348541  0.0345684   0.172676  
  0.261551  0.0313749   0.160112  
   0.30504  0.0329514   0.166382  
  0.305045  0.0329754    0.16639  
  0.348544  0.0345882   0.172699  
  0.261537  0.0313947   0.160136  
  0.348538  0.0345534   0.172678  
  0.261539  0.0313591   0.160114  
   0.30504  0.0329943   0.166412  
  0.305038  0.0329596   0.166391  
  0.348558  0.0346845    0.17274  
  0.261543  0.0314949   0.160179  
  0.348551  0.0346375   0.172722  
  0.261538  0.0314457    0.16016  
   0.30505  0.0330917   0.166454  
  0.305044  0.0330441   0.166436  
  0.348561  0.0347056   0.172739  
  0.261552  0.0315191    0.16018  
  0.348562  0.0347104   0.172746  
  0.261548   0.031523   0.160186  
  0.305056  0.0331143   0.166454  
  0.305054  0.0331186   0.166461  
  0.348556  0.0346691    0.17272  
  0.261554  0.0314811    0.16016  
  0.305055  0.0330776   0.166435  
  0.358759 -0.0138514 -0.0996836  
  0.429262 -0.0106078 -0.0857852  
  0.358764 -0.0138144  -0.099664  
  0.429262 -0.0105702 -0.0857656  
  0.394011  -0.012231 -0.0927304  
  0.394014  -0.012194 -0.0927112  
  0.358761 -0.0138325 -0.0996872  
  0.429269 -0.0105863 -0.0857873  
  0.358757 -0.0138573 -0.0996919  
  0.429265 -0.0106127 -0.0857928  
  0.394016 -0.0122109 -0.0927332  
  0.394012 -0.0122363 -0.0927382  
  0.358776 -0.0137379 -0.0996476  
  0.429277  -0.010489 -0.0857462  
  0.358768 -0.0137866 -0.0996708  
  0.429274 -0.0105388   -0.08577  
  0.394027 -0.0121154 -0.0926932  
  0.394022 -0.0121644 -0.0927164  
  0.358784 -0.0136936 -0.0996151  
  0.429273 -0.0104447 -0.0857138  
  0.358782  -0.013703  -0.099626  
  0.429276 -0.0104538 -0.0857244  
  0.394029 -0.0120717 -0.0926614  
   0.39403 -0.0120807 -0.0926718  
  0.358781 -0.0137155 -0.0996211  
  0.429268 -0.0104677 -0.0857208  
  0.394025 -0.0120942 -0.0926679  
  0.172973 -0.000423844 -0.0132645  
  0.209192 -0.00211934 -0.0247801  
   0.17253 -0.00893167  -0.060935  
  0.209209 -0.00207909 -0.0247577  
  0.172552 -0.0088861 -0.0609081  
  0.212605 -0.0100267 -0.0694695  
  0.212623 -0.00998413 -0.0694452  
  0.172937 -0.000466191 -0.0132905  
  0.209176 -0.00208952 -0.0247708  
  0.172512 -0.00890538 -0.0609327  
   0.20918 -0.0021214 -0.0247837  
  0.172516 -0.00893658 -0.0609427  
  0.212593 -0.0100034 -0.0694692  
  0.212594 -0.0100322 -0.0694775  
  0.172934 -0.000374936 -0.0132479  
  0.209195 -0.0019791 -0.0247169  
  0.172536 -0.00879178 -0.0608761  
  0.209181 -0.0020356 -0.0247463  
  0.172519 -0.0088505 -0.0609086  
  0.212617 -0.00989605  -0.069418  
  0.212601 -0.00995152 -0.0694475  
  0.172968 -0.000273281 -0.0131892  
  0.209227 -0.00192913 -0.0246817  
  0.172578 -0.00873287 -0.0608285  
  0.209212 -0.00193906 -0.0246918  
  0.172558 -0.00874779 -0.0608447  
  0.212651 -0.00984224 -0.0693762  
  0.212635 -0.00985513 -0.0693901  
  0.172995 -0.000293451 -0.0131929  
  0.209232 -0.00195806 -0.0246946  
  0.172584 -0.00875857  -0.060839  
  0.212653 -0.00986683 -0.0693854  
  0.124223 -0.0377283  -0.220853  
  0.192975 -0.0443371  -0.261918  
  0.124247 -0.0376675  -0.220812  
  0.192993 -0.0442879  -0.261884  
  0.157617 -0.0412896  -0.242796  
  0.157638 -0.0412349  -0.242758  
  0.124226 -0.0377341  -0.220907  
  0.192983 -0.0443451   -0.26197  
  0.124218 -0.0377512  -0.220889  
  0.192973 -0.0443579   -0.26195  
  0.157624 -0.0412971  -0.242849  
  0.157614 -0.0413117   -0.24283  
  0.124272 -0.0376364  -0.220865  
  0.193024 -0.0442636  -0.261941  
  0.124245 -0.0376897  -0.220899  
  0.193001 -0.0443083  -0.261967  
  0.157668  -0.041208  -0.242814  
  0.157643 -0.0412568  -0.242844  
  0.124325 -0.0375536  -0.220772  
   0.19306 -0.0441956  -0.261865  
  0.124303 -0.0375863  -0.220814  
  0.193046 -0.0442217  -0.261901  
  0.157711 -0.0411329   -0.24273  
  0.157694 -0.0411622  -0.242769  
   0.12432 -0.0375534  -0.220758  
  0.193051 -0.0441968   -0.26185  
  0.157704 -0.0411333  -0.242716  
  0.183046  0.0220327   0.112549  
  0.153516  0.0251959   0.132424  
  0.215672  0.0297403   0.153973  
  0.209564  0.0402008   0.213261  
  0.153527  0.0252215   0.132435  
  0.215679   0.029765   0.153982  
  0.209567  0.0402191   0.213264  
  0.181538  0.0326981   0.172851  
  0.181545  0.0327198   0.172858  
  0.183019  0.0220133   0.112547  
  0.153483  0.0252511   0.132469  
  0.215654  0.0297881   0.154009  
  0.209548  0.0402526   0.213305  
  0.153498  0.0252091   0.132439  
  0.215662  0.0297504   0.153984  
  0.209555  0.0402145   0.213278  
  0.181514  0.0327518   0.172895  
  0.181525  0.0327117   0.172867  
  0.183006  0.0221089   0.112601  
   0.15348  0.0253654   0.132523  
  0.215656  0.0298927   0.154055  
  0.209545  0.0403509   0.213344  
  0.153478   0.025309     0.1325  
  0.215653  0.0298413   0.154036  
  0.209545  0.0403033    0.21333  
   0.18151  0.0328581   0.172942  
  0.181509  0.0328061   0.172924  
   0.18302  0.0221988   0.112638  
  0.153499  0.0253968   0.132526  
  0.215668  0.0299189   0.154056  
   0.20955  0.0403678   0.213331  
  0.153488  0.0253994   0.132533  
  0.215662  0.0299226   0.154063  
  0.209547  0.0403761   0.213344  
  0.181521  0.0328817   0.172936  
  0.181514  0.0328875   0.172946  
  0.183041  0.0221569   0.112612  
  0.153512  0.0253509   0.132501  
  0.215675  0.0298782   0.154035  
  0.209555  0.0403248   0.213308  
   0.18153   0.032837   0.172912  
  0.571222  0.0384395   0.181614  
   0.57323  0.0216397  0.0868409  
  0.571216  0.0384612   0.181621  
  0.573217  0.0216744  0.0868584  
  0.572212  0.0300405   0.134228  
  0.572202   0.030069   0.134241  
  0.571274  0.0385075   0.181675  
  0.573273  0.0216951    0.08688  
  0.571247  0.0384597   0.181637  
  0.573252  0.0216508  0.0868517  
  0.572261  0.0301029   0.134279  
  0.572236  0.0300564   0.134245  
  0.571303  0.0386238   0.181734  
  0.573288  0.0218173  0.0869436  
  0.571294  0.0385682    0.18171  
  0.573286  0.0217573  0.0869134  
  0.572283  0.0302231   0.134341  
  0.572278  0.0301648   0.134314  
  0.571283  0.0386464   0.181728  
  0.573255  0.0218578  0.0869647  
  0.571299  0.0386543    0.18174  
  0.573276  0.0218554  0.0869635  
  0.572256   0.030255    0.13435  
  0.572275  0.0302577   0.134355  
  0.571258  0.0385951   0.181696  
  0.573234  0.0218157  0.0869401  
  0.572232  0.0302078   0.134321  
  0.203998  0.0070947  0.0273536  
  0.204013 0.00713136  0.0273731  
  0.235986 0.00424033 0.00935696  
  0.235999 0.00427692 0.00937622  
  0.203978 0.00713163  0.0273728  
  0.203984 0.00709672   0.027355  
  0.235972 0.00427304 0.00937123  
  0.235976 0.00424046 0.00935626  
  0.203991 0.00724385  0.0274278  
  0.203981 0.00718708  0.0273997  
  0.235988 0.00438122 0.00942307  
  0.235977 0.00432634 0.00939598  
   0.20402 0.00728842  0.0274544  
  0.204006 0.00728218   0.027449  
  0.236013 0.00442488 0.00945002  
  0.236001 0.00441841 0.00944399  
  0.204027 0.00725476  0.0274379  
  0.236016 0.00439379 0.00943552  
  0.209036  0.0183367  0.0902555  
  0.209048  0.0183676  0.0902701  
  0.235291  0.0248433   0.125184  
  0.235299  0.0248708   0.125195  
  0.209016    0.01838  0.0902842  
  0.209023  0.0183431  0.0902623  
  0.235276  0.0248872   0.125214  
  0.235281  0.0248509   0.125192  
  0.209022    0.01849  0.0903365  
  0.209016  0.0184351  0.0903118  
  0.235281  0.0249923   0.125262  
  0.235276  0.0249403   0.125241  
  0.209044  0.0185258  0.0903504  
  0.209033  0.0185246  0.0903512  
  0.235296   0.025022   0.125269  
  0.235289  0.0250235   0.125273  
  0.209051  0.0184879   0.090331  
  0.235301  0.0249838   0.125249  
  0.208593   0.054338   0.292995  
   0.18969  0.0486187   0.262079  
  0.237897  0.0555835    0.29807  
  0.189689  0.0486303   0.262075  
  0.237897  0.0555944   0.298064  
  0.223731  0.0478955   0.255675  
  0.223731  0.0479099   0.255673  
  0.208591  0.0543452   0.293025  
  0.189675  0.0486748   0.262132  
  0.237894   0.055634   0.298118  
  0.189682  0.0486361   0.262102  
  0.237896  0.0555988   0.298091  
  0.223721  0.0479469    0.25572  
  0.223726  0.0479101   0.255693  
  0.208584  0.0544271   0.293076  
  0.189667  0.0487671   0.262165  
  0.237894  0.0557171   0.298144  
   0.18967  0.0487231   0.262156  
  0.237894  0.0556778   0.298139  
  0.223719  0.0480378   0.255753  
  0.223719  0.0479943   0.255743  
  0.208579  0.0544855   0.293069  
  0.189664   0.048775   0.262135  
  0.237891  0.0557215   0.298113  
  0.189665   0.048788   0.262156  
  0.237893  0.0557346   0.298134  
  0.223719  0.0480482   0.255731  
  0.223719  0.0480591   0.255748  
  0.208578  0.0544282   0.293022  
  0.189669  0.0487295    0.26211  
   0.23789   0.055681    0.29809  
  0.223721  0.0480062   0.255708  
  0.133363 -0.0167568  -0.102763  
  0.130419 -0.000709528 -0.0120787  
  0.133389 -0.0167036  -0.102729  
  0.130443 -0.000664857  -0.012052  
  0.131903 -0.00873629 -0.0574243  
  0.131928 -0.00868687 -0.0573941  
  0.133345 -0.0167367  -0.102773  
  0.130387 -0.000671218 -0.0120615  
  0.133347 -0.0167663  -0.102777  
  0.130398 -0.000708726 -0.0120797  
  0.131877 -0.00870686 -0.0574203  
  0.131884 -0.00874066  -0.057432  
  0.133376 -0.0166208  -0.102714  
  0.130404 -0.000548163 -0.0119968  
  0.133355 -0.0166815   -0.10275  
   0.13039 -0.000611068 -0.0120317  
  0.131902 -0.00858643 -0.0573577  
  0.131883 -0.00864872 -0.0573938  
   0.13343 -0.0165498  -0.102648  
  0.130452 -0.000488738 -0.0119519  
  0.133404 -0.0165719  -0.102674  
  0.130427 -0.000502166 -0.0119657  
  0.131953 -0.00852064 -0.0573018  
  0.131928 -0.00853863 -0.0573216  
  0.133436 -0.0165694  -0.102654  
  0.130464 -0.000521471 -0.0119681  
  0.131963 -0.00854692  -0.057313  
  0.557173 0.00787531  0.0100567  
  0.613505 0.00773526 0.00571573  
  0.541856  0.0138396  0.0447988  
  0.585355 0.00775908 0.00786445  
  0.616703  0.0155527  0.0499005  
  0.541845   0.013877   0.044818  
  0.585339 0.00780414 0.00788898  
  0.616684  0.0155958  0.0499241  
  0.579281  0.0146965  0.0473527  
  0.579266  0.0147364  0.0473739  
  0.557202 0.00783608  0.0100345  
  0.613544 0.00768858 0.00568712  
  0.541888  0.0138847   0.044824  
  0.585386 0.00780132 0.00788155  
  0.616748  0.0156068  0.0499338  
  0.541873  0.0138452   0.044803  
  0.585373 0.00776166 0.00786396  
  0.616728  0.0155614  0.0499076  
  0.579319  0.0147459  0.0473816  
  0.579302  0.0147035  0.0473582  
  0.557222 0.00793313  0.0100792  
  0.613563 0.00779274 0.00573467  
  0.541897  0.0140017  0.0448826  
  0.585387 0.00792356 0.00794366  
  0.616754  0.0157362  0.0500032  
  0.541897  0.0139436  0.0448531  
  0.585392 0.00786227 0.00791022  
  0.616757   0.015672  0.0499679  
  0.579327  0.0148688  0.0474453  
  0.579329  0.0148078  0.0474132  
  0.557205 0.00803282  0.0101365  
  0.613536 0.00790289 0.00580448  
  0.541869  0.0140446  0.0449091  
  0.585347 0.00797851 0.00798578  
  0.616707  0.0157905   0.050042  
  0.541887  0.0140397  0.0449044  
  0.585371 0.00796691 0.00797327  
  0.616735  0.0157807  0.0500321  
   0.57929  0.0149168  0.0474771  
  0.579313  0.0149098  0.0474703  
  0.557171 0.00800951  0.0101296  
   0.61349  0.0078874 0.00580473  
  0.541852  0.0140086  0.0448897  
  0.585331 0.00794678 0.00796925  
  0.616684  0.0157522  0.0500195  
  0.579271  0.0148794  0.0474561  
  0.391927  0.0467338   0.238547  
   0.39193  0.0467519   0.238549  
  0.394775   0.038068   0.189683  
  0.394777  0.0380901   0.189689  
  0.391943  0.0467818   0.238586  
  0.391933  0.0467462   0.238562  
   0.39479  0.0381139   0.189716  
   0.39478  0.0380781   0.189694  
  0.391964  0.0468725   0.238623  
  0.391955  0.0468292   0.238609  
  0.394809  0.0382099   0.189758  
  0.394801  0.0381634   0.189741  
  0.391964  0.0468853    0.23861  
  0.391967  0.0468942   0.238623  
  0.394808  0.0382286   0.189754  
  0.394812  0.0382348   0.189763  
  0.391954  0.0468469   0.238589  
  0.394799  0.0381909   0.189734  
  0.607331  0.0500739   0.245222  
  0.571624  0.0523639   0.260131  
  0.638572  0.0530391   0.260384  
  0.571624  0.0523739   0.260128  
  0.638569   0.053041   0.260375  
  0.608476  0.0574164   0.286733  
  0.608477  0.0574178   0.286722  
  0.607364  0.0500954   0.245263  
  0.571676  0.0524393   0.260208  
  0.638645  0.0531341    0.26049  
  0.571647  0.0523907   0.260164  
  0.638607  0.0530768   0.260431  
  0.608537  0.0575039    0.28683  
  0.608503  0.0574508   0.286777  
  0.607423  0.0502089   0.245352  
  0.571715  0.0525451   0.260257  
  0.638687  0.0532496   0.260548  
  0.571701  0.0524958   0.260243  
  0.638672  0.0531962   0.260532  
  0.608582    0.05761    0.28688  
  0.608564  0.0575613   0.286868  
  0.607439  0.0502873   0.245364  
  0.571709  0.0525515   0.260226  
  0.638678  0.0532532   0.260505  
  0.571719  0.0525678   0.260251  
  0.638691   0.053274   0.260537  
   0.60858  0.0576085   0.286832  
  0.608588  0.0576304   0.286865  
  0.607397  0.0502089   0.245298  
  0.571684  0.0524954    0.26019  
  0.638647  0.0531832   0.260458  
  0.608552   0.057544   0.286788  
  0.610345  0.0445575   0.213952  
  0.610338  0.0445721   0.213954  
  0.649624   0.046691   0.223864  
  0.649614  0.0466993   0.223861  
  0.610409  0.0446386   0.214034  
  0.610376  0.0445856   0.213986  
  0.649701  0.0467853   0.223966  
  0.649662  0.0467268   0.223908  
  0.610444  0.0447574   0.214095  
  0.610432  0.0447013   0.214073  
  0.649738   0.046909   0.224032  
  0.649726   0.046851    0.22401  
  0.610425  0.0447739   0.214076  
  0.610442  0.0447865   0.214096  
  0.649718  0.0469229   0.224004  
  0.649736  0.0469386   0.224029  
  0.610396   0.044714   0.214037  
  0.649684  0.0468539   0.223958  
  0.517149 -0.00573276 -0.0641032  
  0.537171 0.00102958 -0.0270517  
  0.491435 -0.000431315 -0.0324138  
   0.53716 0.00107224 -0.0270291  
  0.491428 -0.000392225 -0.0323936  
  0.516644 0.00670577 0.00618658  
  0.516635 0.00674443 0.00620657  
  0.517165 -0.00577962 -0.0641339  
  0.537191 0.00106264 -0.0270444  
  0.491451 -0.000400991  -0.032407  
  0.537182 0.00102845 -0.0270561  
  0.491443 -0.000432813 -0.0324178  
  0.516667 0.00674304 0.00620177  
  0.516656 0.00670748 0.00618619  
  0.517173 -0.00569684 -0.0641071  
  0.537192 0.00117523  -0.026991  
  0.491455 -0.00029433 -0.0323581  
  0.537195 0.00111841 -0.0270207  
  0.491456 -0.00034819  -0.032385  
  0.516673 0.00685505 0.00625567  
  0.516674 0.00679897 0.00622727  
   0.51716 -0.00560348 -0.0640527  
  0.537163 0.00122576 -0.0269527  
  0.491437 -0.000249046  -0.032326  
   0.53718 0.00121526 -0.0269644  
  0.491448 -0.000257232 -0.0323351  
   0.51665 0.00689955 0.00628556  
  0.516664 0.00689277 0.00627838  
   0.51714 -0.00561586 -0.0640479  
  0.537152  0.0011979 -0.0269651  
  0.491428 -0.000276635 -0.0323376  
  0.516637 0.00686803 0.00627025  
  0.475544 -0.0108774 -0.0902142  
   0.47554 -0.0108373 -0.0901932  
  0.460352 -0.0055192 -0.0591005  
  0.460349 -0.00548094 -0.0590807  
  0.475553 -0.0108558 -0.0902189  
  0.475549  -0.010883 -0.0902233  
  0.460363 -0.00549359 -0.0590984  
  0.460358 -0.00552255 -0.0591064  
  0.475555  -0.010756 -0.0901767  
  0.475555 -0.0108071 -0.0902018  
  0.460369 -0.0053919 -0.0590538  
  0.460368 -0.00544357  -0.059079  
  0.475542 -0.0107085 -0.0901399  
   0.47555 -0.0107192 -0.0901525  
  0.460358 -0.00534738 -0.0590218  
  0.460365 -0.0053559 -0.0590315  
  0.475537 -0.0107306 -0.0901462  
  0.460351 -0.00537257  -0.059031  
  0.593966 -0.00672551 -0.0747553  
  0.569413 -0.0188258  -0.141544  
  0.555566 -0.00628077 -0.0694482  
    0.5817 -0.0128304  -0.108186  
  0.516275 -0.0148871  -0.115446  
  0.542421 -0.0214299  -0.154158  
  0.555554 -0.00623334 -0.0694225  
  0.581688 -0.0127767  -0.108156  
  0.516268 -0.0148428  -0.115422  
  0.542415 -0.0213816  -0.154131  
  0.548988   -0.01386  -0.111811  
  0.548978 -0.0138116  -0.111785  
  0.593989 -0.00678731 -0.0748002  
  0.569422 -0.0188921  -0.141596  
  0.555579 -0.00625513 -0.0694539  
  0.581704 -0.0128136  -0.108208  
   0.51628 -0.0148696   -0.11546  
  0.542419 -0.0214203  -0.154187  
  0.555574 -0.00628635  -0.069459  
  0.581704 -0.0128415  -0.108205  
  0.516278 -0.0148955  -0.115459  
  0.542421 -0.0214429  -0.154179  
  0.548992 -0.0138426  -0.111829  
  0.548991 -0.0138695  -0.111827  
  0.593991 -0.00669948 -0.0747782  
  0.569415 -0.0188196  -0.141594  
  0.555573 -0.0061444 -0.0694036  
  0.581692 -0.0127051  -0.108162  
  0.516275 -0.0147692  -0.115419  
  0.542409 -0.0213237  -0.154151  
  0.555579 -0.00620093 -0.0694339  
  0.581701 -0.0127613  -0.108193  
   0.51628 -0.0148209  -0.115445  
  0.542415 -0.0213741  -0.154177  
  0.548984 -0.0137383  -0.111785  
  0.548991 -0.0137921  -0.111814  
  0.593963 -0.00659414 -0.0747077  
  0.569392 -0.0187232  -0.141529  
  0.555542 -0.00608693 -0.0693549  
  0.581657 -0.0126389    -0.1081  
  0.516256 -0.0147157  -0.115373  
  0.542388 -0.0212642  -0.154095  
  0.555559 -0.00610218 -0.0693726  
  0.581675 -0.0126602  -0.108125  
  0.516266 -0.0147302   -0.11539  
  0.542398  -0.021283  -0.154119  
  0.548957 -0.0136793  -0.111732  
  0.548971 -0.0136967  -0.111753  
  0.593933 -0.00659155 -0.0746886  
  0.569378  -0.018712  -0.141499  
  0.555534 -0.00610873 -0.0693621  
  0.581653 -0.0126528    -0.1081  
  0.516253 -0.0147339  -0.115376  
  0.542388 -0.0212759  -0.154092  
  0.548954 -0.0136959  -0.111734  
  0.439713   0.064248   0.334296  
  0.396355  0.0627376   0.328332  
  0.449492   0.072232   0.378839  
  0.396359  0.0627474   0.328325  
  0.449499  0.0722346   0.378823  
  0.405074  0.0715846   0.377682  
  0.405079  0.0715891   0.377668  
  0.439716  0.0642586   0.334331  
  0.396374  0.0627885   0.328382  
  0.449517  0.0722891   0.378903  
  0.396362  0.0627539   0.328355  
  0.449501  0.0722529    0.37887  
  0.405095  0.0716368    0.37774  
  0.405081  0.0716028    0.37771  
  0.439749   0.064338   0.334384  
  0.396398  0.0628665   0.328408  
  0.449551  0.0723605   0.378925  
  0.396388  0.0628303   0.328402  
  0.449536  0.0723283   0.378924  
  0.405122  0.0717062    0.37776  
   0.40511  0.0716747   0.377759  
  0.439769   0.064389   0.334377  
  0.396401  0.0628677   0.328377  
  0.449558  0.0723532   0.378877  
  0.396403  0.0628815   0.328398  
  0.449559  0.0723714   0.378906  
  0.405127  0.0717008   0.377716  
  0.405129  0.0717174   0.377743  
  0.439752  0.0643325   0.334327  
   0.39639  0.0628291   0.328353  
  0.449544  0.0723119   0.378847  
  0.405115  0.0716627    0.37769  
  0.306701 -0.0270082  -0.170763  
  0.283307 -0.0227578   -0.14526  
  0.334763 -0.0248539  -0.160116  
  0.283319 -0.0227177  -0.145237  
  0.334771 -0.0248158  -0.160095  
  0.321039 -0.0183082  -0.122467  
  0.321048 -0.0182701  -0.122446  
  0.306687 -0.0270578    -0.1708  
  0.283306 -0.0227453  -0.145273  
  0.334764 -0.0248427  -0.160131  
  0.283302 -0.0227672  -0.145273  
   0.33476 -0.0248633   -0.16013  
  0.321039 -0.0182924  -0.122475  
  0.321036 -0.0183157  -0.122477  
    0.3067 -0.0269961  -0.170791  
   0.28333 -0.0226525  -0.145234  
  0.334783 -0.0247543  -0.160097  
  0.283316 -0.0227011  -0.145259  
  0.334772 -0.0248006  -0.160119  
  0.321058 -0.0181991  -0.122436  
  0.321047 -0.0182476  -0.122459  
  0.306725 -0.0269137  -0.170743  
  0.283352 -0.0226017  -0.145192  
  0.334797 -0.0247066  -0.160057  
  0.283344 -0.0226153  -0.145209  
  0.334792 -0.0247191  -0.160073  
  0.321074 -0.0181522    -0.1224  
  0.321068 -0.0181634  -0.122413  
  0.306728 -0.0269156  -0.170725  
  0.283349 -0.0226195  -0.145195  
  0.334793 -0.0247235  -0.160058  
  0.321071 -0.0181723  -0.122404  
 0.0967495 -0.0265077  -0.156119  
 0.0690579 -0.0292331  -0.169718  
 0.0956891 -0.0213503  -0.126557  
 0.0690895  -0.029162   -0.16967  
 0.0957193 -0.0212889  -0.126518  
 0.0590022 -0.0230408  -0.134047  
 0.0590364 -0.0229709     -0.134  
 0.0967071 -0.0265886  -0.156187  
 0.0690489 -0.0292302  -0.169763  
 0.0956714  -0.021335  -0.126579  
 0.0690454 -0.0292544  -0.169751  
 0.0956728 -0.0213637  -0.126578  
 0.0589827 -0.0230276  -0.134076  
 0.0589843  -0.023057  -0.134073  
 0.0967235 -0.0265102  -0.156177  
 0.0690917 -0.0291144  -0.169705  
 0.0957073  -0.021216  -0.126517  
 0.0690643 -0.0291767  -0.169747  
 0.0956832 -0.0212789  -0.126558  
 0.0590204 -0.0229039   -0.13401  
 0.0589947 -0.0229697  -0.134055  
 0.0967838 -0.0263953  -0.156085  
 0.0691653  -0.029018  -0.169596  
  0.095773 -0.0211328  -0.126433  
 0.0691302 -0.0290566  -0.169645  
 0.0957412 -0.0211622  -0.126468  
 0.0590981 -0.0228084  -0.133906  
 0.0590594  -0.022845  -0.133952  
 0.0968177  -0.026371  -0.156041  
 0.0691691  -0.029019  -0.169586  
 0.0957797  -0.021146  -0.126433  
 0.0591079 -0.0228157  -0.133903  
  0.571414  0.0454048   0.220875  
  0.571411  0.0454208   0.220878  
  0.571467  0.0454769   0.220944  
  0.571439  0.0454284   0.220903  
  0.571502  0.0455885   0.220999  
   0.57149  0.0455358    0.22098  
  0.571489  0.0456032   0.220981  
  0.571502  0.0456153   0.220999  
  0.571463  0.0455492   0.220947  
  0.626094 -0.00892221 -0.0890668  
  0.654916 0.00698744 -0.000886057  
  0.603745 0.00045123 -0.0345557  
  0.626077 -0.00885999 -0.0890313  
  0.654892 0.00704469 -0.000853264  
  0.603727 0.000503469 -0.0345266  
  0.641885 -0.00103067 -0.0454269  
  0.641864 -0.000969338 -0.0453918  
  0.626099 -0.00890367 -0.0890922  
  0.654951 0.00703097 -0.000873689  
  0.603767 0.000484763 -0.0345542  
  0.626099 -0.0089343 -0.0890886  
  0.654937 0.00698833 -0.000890268  
  0.603759 0.00044823 -0.0345641  
  0.641904 -0.00100048 -0.0454351  
  0.641898 -0.00103705  -0.045441  
  0.626084 -0.00878658 -0.0890384  
  0.654945 0.00716372 -0.000802883  
   0.60376 0.000606252 -0.0344943  
  0.626096 -0.00884724 -0.0890743  
  0.654954 0.00709655 -0.000842995  
  0.603769 0.000544542 -0.0345294  
  0.641892 -0.000874685 -0.0453721  
  0.641903 -0.000939122 -0.0454108  
  0.626035 -0.0087087 -0.0889621  
  0.654884 0.00723796 -0.000735977  
  0.603715 0.000671105 -0.0344378  
   0.62606 -0.00873605 -0.0889941  
  0.654919 0.00721574 -0.00076095  
   0.60374 0.000652972 -0.0344583  
  0.641835 -0.000796911 -0.0452982  
  0.641866 -0.000822702 -0.0453279  
  0.626029 -0.00871937 -0.0889615  
  0.654864 0.00721211 -0.000749454  
  0.603702 0.000647204 -0.0344481  
  0.641823 -0.000814152 -0.0453042  
  0.476699 -0.0193176  -0.137847  
  0.476697 -0.0192766  -0.137825  
  0.476702 -0.0193031  -0.137863  
  0.476701 -0.0193265  -0.137861  
  0.476702 -0.0192091  -0.137826  
  0.476704 -0.0192578   -0.13785  
  0.476693 -0.0191595  -0.137785  
  0.476698 -0.0191726  -0.137801  
   0.47669  -0.019177  -0.137786  
 0.0957867  0.0142378  0.0742236  
 0.0554204  0.0159943  0.0869461  
  0.109883  0.0212909   0.113272  
 0.0554418  0.0160216  0.0869607  
  0.109897  0.0213173   0.113285  
 0.0706316  0.0239494   0.130912  
 0.0706455  0.0239684   0.130919  
 0.0957388  0.0142189  0.0742204  
 0.0553594  0.0160676  0.0870114  
  0.109838  0.0213534   0.113325  
 0.0553853  0.0160158  0.0869701  
  0.109858  0.0213073   0.113291  
 0.0705751  0.0240257   0.130983  
 0.0706005  0.0239741    0.13094  
 0.0957128   0.014329  0.0742892  
 0.0553547  0.0162011   0.087083  
  0.109834  0.0214759   0.113386  
 0.0553503   0.016135  0.0870515  
  0.109831  0.0214154    0.11336  
 0.0705644  0.0241523   0.131047  
 0.0705642  0.0240904   0.131022  
 0.0957349  0.0144354  0.0743405  
 0.0553913  0.0162465  0.0870985  
  0.109859  0.0215126   0.113393  
 0.0553691  0.0162445  0.0871012  
  0.109844  0.0215138   0.113399  
 0.0705858  0.0241845   0.131043  
 0.0705717  0.0241897   0.131055  
 0.0957759  0.0143919  0.0743151  
 0.0554161  0.0161902  0.0870663  
  0.109877  0.0214622   0.113365  
 0.0706072  0.0241244   0.131008  
  0.284771 -0.0387775  -0.235801  
  0.268374 -0.0474126  -0.283414  
  0.322055 -0.0381668  -0.234347  
  0.268388 -0.0473718  -0.283385  
  0.322065 -0.0381285  -0.234323  
   0.30977 -0.0471841  -0.284503  
  0.309782 -0.0471462  -0.284476  
  0.284756 -0.0388323  -0.235849  
  0.268381 -0.0474192   -0.28346  
  0.322057 -0.0381652  -0.234378  
  0.268373 -0.0474304  -0.283442  
  0.322052 -0.0381803  -0.234368  
  0.309774 -0.0471893  -0.284546  
  0.309768 -0.0472006  -0.284529  
  0.284774 -0.0387806  -0.235854  
  0.268413 -0.0473476  -0.283439  
  0.322081 -0.0380873  -0.234352  
  0.268396 -0.0473868  -0.283459  
  0.322068  -0.038129  -0.234372  
  0.309801 -0.0471199  -0.284526  
  0.309786 -0.0471578  -0.284545  
  0.284805 -0.0387018  -0.235803  
  0.268438 -0.0472913  -0.283376  
  0.322099 -0.0380369  -0.234303  
   0.26843 -0.0473117  -0.283406  
  0.322092 -0.0380528  -0.234325  
  0.309822  -0.047068  -0.284469  
  0.309815 -0.0470861  -0.284497  
  0.284808 -0.0386932  -0.235771  
  0.268432 -0.0472945   -0.28336  
  0.322094 -0.0380469  -0.234295  
  0.309817 -0.0470727  -0.284455  
  0.251767 -0.0376836  -0.227548  
  0.251782 -0.0376408  -0.227521  
  0.230034 -0.0461621  -0.274232  
   0.23005 -0.0461176  -0.274201  
   0.25177 -0.0376832  -0.227582  
  0.251764 -0.0376989  -0.227571  
  0.230042 -0.0461695  -0.274281  
  0.230032 -0.0461813  -0.274262  
  0.251803 -0.0376001  -0.227552  
  0.251784 -0.0376448  -0.227575  
  0.230079 -0.0460936  -0.274256  
  0.230058 -0.0461353  -0.274279  
   0.25183 -0.0375427  -0.227494  
   0.25182  -0.037562   -0.22752  
  0.230108  -0.046032  -0.274188  
  0.230098  -0.046055   -0.27422  
  0.251824 -0.0375515  -0.227487  
  0.230101 -0.0460342  -0.274172  
   0.58444 -0.0228702  -0.165241  
  0.584432 -0.0228142   -0.16521  
  0.606451 -0.0160286  -0.127994  
  0.606438 -0.0159686   -0.12796  
  0.584431 -0.0228665  -0.165286  
  0.584437 -0.0228878   -0.16527  
  0.606447 -0.0160185  -0.128031  
  0.606451 -0.0160441  -0.128021  
  0.584414 -0.0227682   -0.16525  
  0.584424   -0.02282  -0.165278  
   0.60643 -0.0159106  -0.127986  
  0.606442  -0.015967  -0.128019  
  0.584386 -0.0226984   -0.16518  
    0.5844 -0.0227235   -0.16521  
  0.606391 -0.0158359  -0.127912  
  0.606411 -0.0158627  -0.127944  
   0.58439 -0.0227032  -0.165171  
  0.606391 -0.0158429  -0.127907  
  0.198006  0.0593035   0.321864  
  0.198002  0.0593094   0.321853  
  0.233892  0.0626067   0.337996  
   0.23389  0.0626135   0.337984  
     0.198  0.0593586   0.321921  
  0.198004  0.0593219    0.32189  
  0.233893  0.0626573   0.338048  
  0.233893  0.0626231    0.33802  
  0.197995   0.059439   0.321943  
  0.197998  0.0594015   0.321941  
  0.233894  0.0627332   0.338068  
  0.233894  0.0626979   0.338067  
  0.197985  0.0594376   0.321898  
   0.19799  0.0594543   0.321925  
  0.233887  0.0627316   0.338026  
  0.233891  0.0627472   0.338052  
  0.197985   0.059394   0.321873  
  0.233884  0.0626918   0.338002  
  0.470335  0.0650999   0.337457  
  0.470341  0.0651063   0.337447  
  0.486645  0.0719735   0.375368  
  0.486653  0.0719743   0.375351  
  0.470364  0.0651592   0.337519  
  0.470345  0.0651208   0.337485  
  0.486675  0.0720361    0.37544  
  0.486655  0.0719973   0.375402  
  0.470398  0.0652401   0.337547  
  0.470383   0.065203   0.337542  
  0.486713  0.0721106   0.375463  
  0.486696  0.0720772   0.375463  
  0.470403  0.0652375   0.337508  
  0.470406  0.0652544   0.337534  
  0.486721  0.0721016   0.375411  
  0.486723  0.0721216   0.375443  
  0.470387  0.0651938   0.337479  
  0.486705  0.0720566   0.375379  
  0.168788  0.0533339     0.2902  
  0.168784  0.0533402   0.290191  
  0.168773  0.0533941   0.290261  
  0.168781  0.0533544   0.290227  
  0.168762  0.0534826   0.290289  
  0.168767   0.053441   0.290284  
  0.168753   0.053484   0.290246  
  0.168757  0.0535007   0.290273  
  0.168756  0.0534358   0.290219  
  0.148463  0.0124446   0.060737  
  0.160708 0.00597375   0.023711  
  0.122107  0.0133091   0.067459  
 0.0918433  0.0066238  0.0316717  
  0.160726 0.00601267  0.0237328  
  0.122125  0.0133433  0.0674777  
 0.0918676   0.006664  0.0316956  
  0.126274  0.0063003  0.0276885  
  0.126295 0.00634017  0.0277115  
  0.148426  0.0124169  0.0607257  
  0.160679 0.00601445  0.0237337  
  0.122066  0.0133622  0.0674981  
 0.0917972 0.00667653  0.0317079  
  0.160689 0.00597697  0.0237135  
  0.122083  0.0133192  0.0674697  
  0.091815 0.00663247    0.03168  
  0.126237 0.00634627  0.0277169  
  0.126251 0.00630578  0.0276933  
  0.148411  0.0125169  0.0607818  
  0.160691 0.00613301   0.023794  
   0.12207   0.013486   0.067562  
  0.091805 0.00680667  0.0317781  
   0.16068 0.00607294  0.0237631  
  0.122062   0.013424  0.0675317  
 0.0917943 0.00674096  0.0317429  
  0.126247 0.00647049   0.027782  
  0.126236 0.00640763  0.0277489  
  0.148434  0.0126171  0.0608316  
  0.160728  0.0061827  0.0238256  
  0.122105  0.0135321  0.0675847  
 0.0918525 0.00686353  0.0318156  
  0.160709 0.00617454  0.0238183  
  0.122085  0.0135274  0.0675825  
 0.0918262 0.00685323  0.0318064  
   0.12629 0.00652373  0.0278165  
  0.126267 0.00651449  0.0278083  
  0.148465  0.0125818  0.0608132  
  0.160739 0.00614715  0.0238076  
  0.122122  0.0134885  0.0675611  
  0.091872 0.00682184   0.031793  
  0.126305 0.00648547  0.0277964  
 0.0481992 0.00774472  0.0407737  
 0.0482272 0.00778271  0.0407968  
 0.0481397 0.00780952  0.0408249  
 0.0481633 0.00775983  0.0407895  
 0.0481433 0.00794688  0.0409016  
 0.0481339 0.00787792  0.0408643  
 0.0481952 0.00800659  0.0409402  
 0.0481653   0.007996   0.040931  
 0.0482213 0.00795847  0.0409132  
  0.165742  0.0172057  0.0866305  
  0.165756  0.0172374  0.0866463  
  0.184876   0.012153  0.0569881  
   0.18489  0.0121877  0.0570061  
  0.165712  0.0172541  0.0866648  
  0.165724  0.0172142  0.0866395  
   0.18485  0.0121954  0.0570144  
   0.18486   0.012158   0.056993  
  0.165716  0.0173701  0.0867218  
   0.16571  0.0173122  0.0866952  
  0.184859  0.0123098  0.0570708  
  0.184851  0.0122523   0.057043  
  0.165743  0.0174092  0.0867376  
  0.165728  0.0174072  0.0867381  
  0.184888  0.0123522  0.0570928  
  0.184873  0.0123478    0.05709  
  0.165754  0.0173681  0.0867159  
  0.184897   0.012315  0.0570737  
  0.661749  0.0153723  0.0461152  
  0.661723  0.0154214  0.0461428  
  0.661799  0.0154302   0.046151  
  0.661778  0.0153818  0.0461229  
  0.661801  0.0155672  0.0462271  
  0.661808  0.0154989  0.0461876  
  0.661742  0.0156329    0.04628  
  0.661778  0.0156171  0.0462632  
  0.661715  0.0155962  0.0462579  
  0.552955 -0.0276423  -0.190064  
  0.552951 -0.0275923  -0.190035  
  0.552945 -0.0276405  -0.190107  
  0.552951 -0.0276593  -0.190091  
  0.552933 -0.0275497  -0.190077  
   0.55294 -0.0275977  -0.190102  
  0.552916 -0.0274874  -0.190015  
  0.552923 -0.0275089  -0.190042  
  0.552919 -0.0274933  -0.190005  
  0.124909 -0.0290645  -0.171833  
  0.124935 -0.0290056  -0.171795  
 0.0953908 -0.0336928  -0.196439  
 0.0954186 -0.0336265  -0.196394  
  0.124903 -0.0290595  -0.171868  
  0.124899 -0.0290821   -0.17186  
 0.0953891 -0.0336953   -0.19649  
 0.0953824 -0.0337156  -0.196474  
  0.124944 -0.0289523  -0.171817  
  0.124918 -0.0290097  -0.171854  
 0.0954341 -0.0335887   -0.19644  
 0.0954066 -0.0336465  -0.196478  
     0.125 -0.0288728  -0.171735  
  0.124975 -0.0289019  -0.171771  
 0.0954977 -0.0334986  -0.196339  
 0.0954691 -0.0335346  -0.196385  
     0.125 -0.0288808   -0.17173  
 0.0954962 -0.0334986  -0.196327  
  0.570456 0.000738611 -0.0307987  
  0.570442 0.000785426 -0.0307732  
  0.570478 0.000772217 -0.0307936  
  0.570469 0.000736799 -0.0308047  
  0.570475 0.000889135  -0.030737  
  0.570481 0.000829977 -0.0307692  
  0.570438 0.000945917 -0.0306909  
  0.570459 0.000932179 -0.0307063  
  0.570427 0.000919441 -0.0307026  
  0.129144 -0.0229149    -0.1373  
   0.12917 -0.0228587  -0.137264  
  0.129131 -0.0229021  -0.137322  
   0.12913 -0.0229284   -0.13732  
  0.129167   -0.02279  -0.137267  
  0.129144 -0.0228494  -0.137303  
  0.129223 -0.0227146  -0.137192  
  0.129197 -0.0227403  -0.137223  
  0.129226 -0.0227286  -0.137193  
   0.43824  0.0566954   0.291893  
  0.438245  0.0567078   0.291889  
  0.478336  0.0585083   0.299855  
  0.478341  0.0585186   0.299849  
  0.438265  0.0567493   0.291943  
  0.438249  0.0567121   0.291914  
  0.478367  0.0585676   0.299912  
  0.478348   0.058528    0.29988  
  0.438293  0.0568354   0.291975  
  0.438281  0.0567951   0.291966  
  0.478401  0.0586557   0.299947  
  0.478386  0.0586148   0.299938  
  0.438294  0.0568404    0.29195  
  0.438298  0.0568533   0.291969  
  0.478402  0.0586584   0.299916  
  0.478407  0.0586732   0.299938  
  0.438281  0.0567993   0.291925  
  0.478386  0.0586139   0.299888  
  0.394139  0.0547411   0.283448  
  0.394143  0.0547551   0.283445  
  0.394157  0.0547908   0.283492  
  0.394146  0.0547554   0.283466  
  0.394179  0.0548756   0.283523  
   0.39417  0.0548356   0.283514  
  0.394181  0.0548827   0.283502  
  0.394184   0.054894   0.283519  
   0.39417  0.0548439    0.28348  
  0.137816  0.0192515  0.0999464  
   0.13783  0.0192812   0.099961  
  0.137778  0.0193062  0.0999889  
  0.137794  0.0192635  0.0999595  
  0.137778  0.0194255   0.100048  
  0.137773  0.0193662   0.100021  
  0.137805  0.0194639    0.10006  
   0.13779  0.0194632   0.100063  
   0.13782  0.0194188   0.100036  
  0.295729 -0.0329365  -0.203309  
  0.295741 -0.0328967  -0.203285  
  0.267547 -0.0302277  -0.186407  
  0.267561 -0.0301862  -0.186382  
  0.295731 -0.0329315  -0.203334  
  0.295726  -0.032949  -0.203327  
  0.267547  -0.030221  -0.186429  
  0.267542   -0.03024  -0.186425  
  0.295756 -0.0328474  -0.203303  
  0.295742 -0.0328921  -0.203325  
  0.267575 -0.0301325  -0.186395  
  0.267559 -0.0301795  -0.186419  
  0.295777 -0.0327956  -0.203255  
   0.29577 -0.0328113  -0.203276  
    0.2676 -0.0300785  -0.186346  
  0.267591 -0.0300949  -0.186366  
  0.295773 -0.0328081  -0.203251  
  0.267596 -0.0300921  -0.186343  
  0.328412 -0.0315146  -0.197237  
  0.328421 -0.0314762  -0.197215  
  0.328413 -0.0315082  -0.197259  
  0.328409  -0.031526  -0.197254  
  0.328434 -0.0314246  -0.197229  
  0.328422 -0.0314688   -0.19725  
   0.32845 -0.0313755  -0.197185  
  0.328445 -0.0313897  -0.197204  
  0.328446  -0.031389  -0.197182  
Displacement_Total 3 8107 float
 -0.429337  -0.452835  -0.693801  
  0.990663  -0.402835  -0.593801  
   1.04066  -0.342835   0.226199  
 -0.379337  -0.392835   0.126199  
  0.305059  -0.397351  -0.254893  
  0.306269   -0.39831  -0.212709  
  0.306503  -0.450122  -0.406762  
   0.30483  -0.345538 -0.0608411  
 -0.329337   0.367165  -0.133801  
   1.09066   0.417165  -0.033801  
   1.14066   0.477165   0.786199  
 -0.279337   0.427165   0.686199  
  0.405059   0.422649   0.305107  
   0.40483   0.474462   0.499159  
  0.406269    0.42169   0.347291  
  0.406503   0.369878   0.153238  
  -0.25183  -0.446581  -0.681288  
-0.0742408  -0.440311  -0.668666  
  0.103102   -0.43405  -0.656223  
  0.280715  -0.427836  -0.643777  
  0.458188  -0.421556   -0.63124  
  0.635649  -0.415367  -0.618817  
  0.813158  -0.409073  -0.606307  
 -0.340585  -0.449711   -0.68755  
 -0.163065  -0.443466  -0.675032  
 0.0143917  -0.437176  -0.662526  
  0.191974  -0.431011  -0.650058  
  0.369393  -0.424652  -0.637549  
  0.546868  -0.418442  -0.625102  
  0.724416  -0.412222  -0.612564  
  0.901911  -0.405957  -0.600054  
  0.996921  -0.395302  -0.491244  
   1.00315  -0.387784  -0.388737  
   1.00941   -0.38033  -0.286295  
   1.01566  -0.372831  -0.183801  
   1.02191  -0.365331 -0.0813016  
   1.02816  -0.357833  0.0211921  
   1.03441  -0.350326   0.123705  
  0.993798  -0.399076  -0.542531  
   1.00004  -0.391536  -0.439978  
   1.00628  -0.384081  -0.337547  
   1.01254   -0.37658   -0.23505  
   1.01879  -0.369081  -0.132551  
   1.02504  -0.361583 -0.0300541  
   1.03129  -0.354079  0.0724458  
   1.03754  -0.346582   0.174951  
   0.86317  -0.349081   0.213712  
  0.685759  -0.355311   0.201334  
  0.508102   -0.36155   0.188777  
  0.330715  -0.367836   0.176223  
  0.153188  -0.374056    0.16376  
-0.0243511  -0.380367   0.151183  
 -0.201842  -0.386573   0.138693  
  0.951915  -0.345961    0.21995  
  0.774435  -0.352216   0.207468  
  0.596892  -0.358426   0.194974  
  0.419474  -0.364761   0.182442  
  0.241893  -0.370902   0.169951  
 0.0643676  -0.377192   0.157398  
 -0.113084  -0.383472   0.144936  
 -0.290589  -0.389707   0.132446  
 -0.385579  -0.400302  0.0237563  
 -0.391853  -0.407784  -0.078737  
 -0.398086   -0.41533  -0.181295  
 -0.404335  -0.422831  -0.283801  
 -0.410586  -0.430331  -0.386302  
 -0.416837  -0.437833  -0.488808  
 -0.423086  -0.445326  -0.591295  
 -0.382452  -0.396576  0.0749692  
 -0.388707  -0.404036 -0.0274779  
 -0.394967  -0.411581  -0.130047  
  -0.40121   -0.41908   -0.23255  
  -0.40746  -0.426581  -0.335051  
 -0.413711  -0.434083  -0.437554  
  -0.41996  -0.441579  -0.540054  
 -0.426213  -0.449082  -0.642549  
  0.305168  -0.410797  -0.299223  
  0.305162  -0.423384  -0.339019  
  0.305233  -0.434284  -0.371501  
  0.305499  -0.442751  -0.394465  
  0.305955  -0.448175  -0.406446  
  0.305137  -0.404125  -0.277435  
  0.305166  -0.417252  -0.319872  
  0.305178  -0.429094  -0.356329  
   0.30534  -0.438862  -0.384282  
  0.305709  -0.445874  -0.401889  
  0.306228  -0.449597  -0.408077  
  0.306988  -0.448414  -0.395463  
  0.307271  -0.443219  -0.373269  
  0.307265  -0.434952  -0.341572  
  0.306985  -0.424211  -0.302426  
  0.306584  -0.411721  -0.258461  
   0.30677  -0.449716  -0.402537  
  0.307155  -0.446224  -0.385658  
  0.307305  -0.439434  -0.358496  
  0.307151  -0.429847  -0.322778  
  0.306782  -0.418134  -0.280865  
  0.306403  -0.405077  -0.235612  
  0.306161  -0.384864  -0.168379  
  0.306166  -0.372277  -0.128583  
  0.306095  -0.361376 -0.0961011  
  0.305827  -0.352909 -0.0731371  
  0.305376  -0.347491 -0.0611579  
  0.306191  -0.391537  -0.190167  
  0.306162  -0.378409   -0.14773  
   0.30615  -0.366567  -0.111273  
  0.305986  -0.356797 -0.0833187  
  0.305612  -0.349789 -0.0657117  
  0.305111  -0.346071 -0.0595281  
  0.304339  -0.347243 -0.0721382  
  0.304054  -0.352443 -0.0943316  
  0.304062   -0.36071   -0.12603  
  0.304343   -0.37145  -0.165176  
  0.304744   -0.38394  -0.209141  
  0.304568  -0.345944  -0.065065  
  0.304165  -0.349432 -0.0819437  
  0.304021  -0.356229  -0.109106  
  0.304177  -0.365815  -0.144824  
  0.304546  -0.377527  -0.186737  
  0.304925  -0.390584   -0.23199  
  -0.15183   0.373419  -0.121288  
 0.0257592   0.379689  -0.108666  
  0.203102    0.38595 -0.0962233  
  0.380715   0.392164 -0.0837771  
  0.558188   0.398444   -0.07124  
  0.735649   0.404633 -0.0588175  
  0.913158   0.410927 -0.0463068  
 -0.240585   0.370289   -0.12755  
-0.0630647   0.376534  -0.115032  
  0.114392   0.382824  -0.102526  
  0.291974   0.388989 -0.0900582  
  0.469393   0.395348 -0.0775494  
  0.646868   0.401558  -0.065102  
  0.824416   0.407778 -0.0525635  
   1.00191   0.414043 -0.0400544  
   1.09692   0.424698  0.0687563  
   1.10315   0.432216   0.171263  
   1.10941    0.43967   0.273705  
   1.11566   0.447169   0.376199  
   1.12191   0.454669   0.478698  
   1.12816   0.462167   0.581192  
   1.13441   0.469674   0.683705  
    1.0938   0.420924  0.0174692  
   1.10004   0.428464   0.120022  
   1.10628   0.435919   0.222453  
   1.11254    0.44342    0.32495  
   1.11879   0.450919   0.427449  
   1.12504   0.458417   0.529946  
   1.13129   0.465921   0.632446  
   1.13754   0.473418   0.734951  
   0.96317   0.470919   0.773712  
  0.785759   0.464689   0.761334  
  0.608102    0.45845   0.748777  
  0.430715   0.452164   0.736223  
  0.253188   0.445944    0.72376  
 0.0756489   0.439633   0.711183  
 -0.101842   0.433427   0.698693  
   1.05192   0.474039    0.77995  
  0.874435   0.467784   0.767468  
  0.696892   0.461574   0.754974  
  0.519474   0.455239   0.742442  
  0.341893   0.449098   0.729951  
  0.164368   0.442808   0.717398  
-0.0130843   0.436528   0.704936  
 -0.190589   0.430293   0.692446  
 -0.285579   0.419698   0.583756  
 -0.291853   0.412216   0.481263  
 -0.298086    0.40467   0.378705  
 -0.304335   0.397169   0.276199  
 -0.310586   0.389669   0.173698  
 -0.316837   0.382167  0.0711921  
 -0.323086   0.374674 -0.0312949  
 -0.282452   0.423424   0.634969  
 -0.288707   0.415964   0.532522  
 -0.294967   0.408419   0.429953  
  -0.30121    0.40092    0.32745  
  -0.30746   0.393419   0.224949  
 -0.313711   0.385917   0.122446  
  -0.31996   0.378421  0.0199458  
 -0.326213   0.370918 -0.0825489  
  0.404744    0.43606   0.350859  
  0.404343    0.44855   0.394824  
  0.404062    0.45929    0.43397  
  0.404054   0.467557   0.465668  
  0.404339   0.472757   0.487862  
  0.404925   0.429416    0.32801  
  0.404546   0.442473   0.373263  
  0.404177   0.454185   0.415176  
  0.404021   0.463771   0.450894  
  0.404165   0.470568   0.478056  
  0.404568   0.474056   0.494935  
  0.405376   0.472509   0.498842  
  0.405827   0.467091   0.486863  
  0.406095   0.458624   0.463899  
  0.406166   0.447723   0.431417  
  0.406161   0.435136   0.391621  
  0.405111   0.473929   0.500472  
  0.405612   0.470211   0.494288  
  0.405986   0.463203   0.476681  
   0.40615   0.453433   0.448727  
  0.406162   0.441591    0.41227  
  0.406191   0.428463   0.369833  
  0.406584   0.408279   0.301539  
  0.406985   0.395789   0.257574  
  0.407265   0.385048   0.218428  
  0.407271   0.376781   0.186731  
  0.406988   0.371586   0.164537  
  0.406403   0.414923   0.324388  
  0.406782   0.401866   0.279135  
  0.407151   0.390153   0.237222  
  0.407305   0.380566   0.201504  
  0.407155   0.373776   0.174342  
   0.40677   0.370284   0.157463  
  0.405955   0.371825   0.153554  
  0.405499   0.377249   0.165535  
  0.405233   0.385716   0.188499  
  0.405162   0.396616   0.220981  
  0.405168   0.409203   0.260777  
  0.406228   0.370403   0.151923  
  0.405709   0.374126   0.158111  
   0.40534   0.381138   0.175718  
  0.405178   0.390906   0.203671  
  0.405166   0.402748   0.240128  
  0.405137   0.415875   0.282565  
 -0.408867   -0.28602  -0.578995  
 -0.389185  -0.123899  -0.468915  
  -0.36949  0.0382365  -0.358687  
 -0.349808   0.200358  -0.248608  
 -0.418624  -0.366581  -0.632132  
 -0.398988  -0.204726  -0.523622  
 -0.379338 -0.0428314  -0.413801  
 -0.359687   0.119063   -0.30398  
  -0.34005   0.280916  -0.195471  
   1.01113   -0.23602  -0.478995  
   1.03081 -0.0738993  -0.368915  
   1.05051  0.0882365  -0.258687  
   1.07019   0.250358  -0.148608  
   1.00138  -0.316581  -0.532132  
   1.02101  -0.154726  -0.423622  
   1.04066 0.00716863  -0.313801  
   1.06031   0.169063   -0.20398  
   1.07995   0.330916 -0.0954706  
   1.06113   -0.17602   0.341005  
   1.08081 -0.0138993   0.451085  
   1.10051   0.148237   0.561313  
   1.12019   0.310358   0.671392  
   1.05138  -0.256581   0.287868  
   1.07101 -0.0947255   0.396378  
   1.09066  0.0671686   0.506199  
   1.11031   0.229063    0.61602  
   1.12995   0.390916   0.724529  
 -0.358867   -0.22602   0.241005  
 -0.339185 -0.0638993   0.351085  
  -0.31949  0.0982365   0.461313  
 -0.299808   0.260358   0.571392  
 -0.368624  -0.306581   0.187868  
 -0.348988  -0.144726   0.296378  
 -0.329338  0.0171686   0.406199  
 -0.309687   0.179063    0.51602  
  -0.29005   0.340916   0.624529  
     0.325    -0.2335     -0.143  
  0.344934 -0.0694351 -0.0309529  
  0.364943  0.0947102  0.0811324  
  0.385016   0.258789   0.193202  
  0.315039  -0.315452  -0.198969  
  0.334958  -0.151486 -0.0869871  
   0.35493  0.0126365   0.025088  
  0.374974   0.176767   0.137177  
  0.395049   0.340747    0.24918  
  0.324811  -0.181562  0.0511821  
   0.34483 -0.0175127   0.163245  
  0.364855   0.146546   0.275257  
  0.384859   0.310536   0.387202  
  0.314815  -0.263561  -0.004838  
  0.334818 -0.0995439   0.107214  
  0.354844    0.06452    0.21926  
   0.37486   0.228554   0.331233  
  0.394848   0.392501   0.443175  
  0.326312   -0.23445  -0.100804  
  0.346385 -0.0703715  0.0112657  
  0.366394  0.0937738   0.123351  
  0.386328   0.257839   0.235398  
  0.316279  -0.316409  -0.156782  
  0.336354  -0.152429 -0.0447787  
  0.356398  0.0117022  0.0673101  
   0.37637   0.175825   0.179385  
  0.396289    0.33979   0.291367  
  0.326474  -0.286196  -0.294805  
  0.346478  -0.122206   -0.18286  
  0.366503  0.0418526 -0.0708475  
  0.386522   0.205902  0.0412152  
  0.316485  -0.368161  -0.350778  
  0.336473  -0.204214  -0.238836  
  0.356489 -0.0401801  -0.126863  
  0.376515   0.123884 -0.0148162  
  0.396518   0.287901  0.0972353  
  0.136927  -0.349677  -0.226038  
  0.457091  -0.345052  -0.225346  
  0.149776  -0.450821  -0.239129  
  0.475001  -0.446039  -0.241266  
  0.482627  -0.347354  -0.225166  
  0.203252  -0.387587   -0.27383  
    0.3939  -0.417407  -0.243044  
  0.128561  -0.448314  -0.242411  
  0.537371  -0.421216  -0.227704  
  0.248307  -0.404953  -0.197418  
  0.358179  -0.378116  -0.209616  
 0.0739934  -0.374432   -0.23989  
 -0.178978   -0.44907 -0.0722849  
 -0.116197  -0.391767  -0.496786  
  0.734477  -0.402343  0.0359422  
  0.786734  -0.346458  -0.394365  
 -0.240661  -0.372908   -0.36463  
  0.464998  -0.407296  -0.492989  
 0.0801471  -0.394951   0.032471  
  0.851972  -0.422757  -0.102997  
  0.446065  -0.433134  -0.237295  
  0.472004  -0.398884 -0.0910909  
  0.379438  -0.385518  -0.074755  
  0.631577  -0.438459   -0.12062  
  0.126637  -0.459379   -0.24119  
-0.0520269  -0.461204  -0.214198  
 -0.075496   -0.43435  -0.239723  
 0.0131358  -0.448835  -0.136478  
  0.483395  -0.336411  -0.225906  
   0.66319  -0.334456  -0.253384  
   0.68678  -0.361307  -0.227882  
  0.591059  -0.346836  -0.326837  
  0.299949  -0.387533  -0.217354  
  0.156824  -0.363719  -0.241257  
-0.0162183  -0.356998  -0.344446  
  0.411477  -0.361947  -0.217163  
  0.491965  -0.446485  -0.241535  
    0.1199  -0.349177  -0.225802  
  0.187961  -0.432097  -0.234171  
  0.315982  -0.408319  -0.366494  
 -0.247805  -0.378474  -0.447274  
  0.658977   -0.38268  -0.486121  
-0.0647037  -0.412879  0.0253088  
  0.859139  -0.417186 -0.0203271  
   0.20119  -0.383387  0.0200226  
  0.823281   -0.40942  -0.159465  
 -0.211944  -0.386236  -0.308144  
  0.207924   -0.41193  -0.423634  
  0.421022   -0.39418   -0.35375  
   0.12352    -0.4172  -0.235612  
  0.332954  -0.406074   -0.23719  
  0.487771  -0.378458  -0.231991  
 -0.150114  -0.402076  -0.271852  
  0.761442   -0.39358  -0.195755  
  0.281232  -0.380947 -0.0210979  
  0.515641  -0.370162  -0.343411  
-0.0581499  -0.351338   -0.32178  
  0.670546  -0.444258  -0.145341  
 0.0758008   -0.42498  -0.105053  
  0.831957  -0.333988  -0.311535  
   0.59753  -0.386114  0.0523506  
 0.0625971  -0.401392  -0.457649  
  -0.22111  -0.461624  -0.155979  
 -0.257364  -0.404125  -0.548037  
  0.817275   -0.37267  -0.488292  
 -0.209735  -0.422802  0.0217179  
  0.869863  -0.391231  0.0814419  
  0.352094   -0.41774   -0.50564  
 -0.073506   -0.46373  -0.149791  
 0.0174532   -0.37676  -0.390052  
  0.611769   -0.41756 -0.0623576  
  0.684492  -0.331928  -0.317667  
  0.831304  -0.355799  -0.231567  
  0.414914  -0.376062  0.0388935  
 -0.220013  -0.439858  -0.236036  
  0.679726  -0.354413  -0.396477  
  0.735915  -0.424444 -0.0387604  
 -0.120022  -0.370558  -0.425607  
-0.0770623  -0.441032  -0.066999  
  0.143231  -0.399167 -0.0482117  
 -0.126809  -0.364385  -0.311199  
  0.738337  -0.431258  -0.156353  
  0.835001  -0.340407  -0.267163  
  0.504527  -0.379627  0.0475803  
 -0.223811  -0.455241  -0.200423  
  0.117676    -0.4153  -0.504339  
   0.22316   -0.42065  -0.511416  
  0.590641  -0.375125  -0.420483  
  0.467532  -0.382567  -0.345556  
  0.444689   -0.40114  -0.425396  
  0.560974  -0.395027  -0.488361  
  0.516523  -0.388379   -0.42078  
  0.791847  -0.402467  -0.178671  
  0.778363  -0.421071   -0.15776  
  0.641797  -0.429457  -0.195194  
  0.648129  -0.407856  -0.206965  
  0.714241  -0.416717  -0.184998  
  0.241764  -0.381794 -0.000626229  
  0.171036  -0.390496 -0.0157443  
  0.197409  -0.400888  -0.118127  
  0.259282    -0.3909  -0.109337  
   0.21659  -0.390137 -0.0611319  
 -0.180514  -0.393189  -0.288937  
 -0.166928  -0.374578  -0.309824  
-0.0303458   -0.36619  -0.272381  
-0.0367802  -0.387794  -0.260638  
 -0.102847  -0.378934  -0.282596  
 -0.328639  -0.393215  -0.456773  
 -0.243475  -0.372266  -0.402764  
 -0.322334  -0.393971   -0.36993  
 -0.325073  -0.390572  -0.410612  
  0.648635  -0.400061  -0.551776  
   0.46278  -0.415195  -0.562845  
  0.555483  -0.407744  -0.556768  
-0.0455295  -0.395509  0.0870853  
0.00834184  -0.404113  0.0285239  
  0.114826  -0.382682  0.0957776  
 0.0348716  -0.389099  0.0912224  
  0.939966  -0.402452  -0.010838  
  0.854793  -0.423402 -0.0648558  
  0.933656  -0.401693  -0.097685  
  0.936397  -0.405096 -0.0570015  
 0.0765199   -0.45137  -0.185235  
 -0.027575  -0.457876  -0.143619  
 0.0184275  -0.465369  -0.194481  
  0.141278  -0.456554   -0.24301  
 0.0501849  -0.459828  -0.191184  
 0.0560308  -0.351674  -0.288716  
0.00122274  -0.365559  -0.363769  
 0.0835677  -0.369532  -0.320645  
  0.148836  -0.355283  -0.228723  
 0.0708659  -0.359183  -0.300613  
   0.55775  -0.443969  -0.177344  
  0.621735  -0.429246 -0.0949333  
  0.533961  -0.426386  -0.142959  
  0.458102  -0.440833  -0.243693  
  0.544992  -0.436561  -0.164044  
  0.528982  -0.344406  -0.278502  
  0.634982   -0.33774  -0.322034  
  0.592158   -0.33031  -0.272827  
  0.467026  -0.339346  -0.222966  
  0.557663  -0.335922  -0.274574  
  0.210187  -0.447805  -0.272322  
  0.220231  -0.446837  -0.288085  
  0.216648  -0.448399  -0.282133  
  0.380123  -0.436731  -0.309815  
  0.396882  -0.443397  -0.301402  
  0.387383  -0.440853  -0.308607  
  0.226105  -0.359401  -0.163961  
   0.21477  -0.352293  -0.165974  
  0.221211  -0.354854   -0.16163  
   0.40042  -0.347977  -0.195001  
  0.388523  -0.349089  -0.177771  
  0.392933   -0.34752  -0.184586  
  0.891396  -0.380569  -0.186894  
  0.925618  -0.397716  -0.128528  
  0.908012  -0.391482  -0.159785  
  0.304864  -0.373568  0.0780297  
  0.176709  -0.378723  0.0947354  
  0.241041  -0.375741  0.0859888  
 -0.280067   -0.41509  -0.280711  
 -0.314285  -0.397945  -0.339079  
 -0.296681  -0.404177  -0.307821  
  0.108991  -0.424961  -0.579762  
  0.163723  -0.426206  -0.584924  
   0.21477  -0.416725  -0.467638  
  0.163421  -0.413438  -0.464519  
   0.16244  -0.420252  -0.524814  
 0.0894679  -0.408881  -0.479524  
-0.00807946  -0.418483  -0.567931  
 0.0503357  -0.422037  -0.572308  
 -0.253933  -0.424101  -0.611637  
 -0.337728  -0.413853  -0.561495  
 -0.337372   -0.42973  -0.622394  
  0.904386  -0.371662  -0.480777  
  0.815202  -0.390926  -0.547266  
  0.902017  -0.387941  -0.540009  
 -0.294993  -0.423657  0.0137589  
 -0.205677  -0.404633   0.080112  
 -0.291607  -0.407621  0.0726228  
  0.865807    -0.3714   0.144526  
   0.94963  -0.381605   0.094386  
  0.948967  -0.365854   0.155016  
  0.921303  -0.349188  -0.340302  
  0.923232  -0.351716  -0.270327  
   0.83281  -0.335989  -0.288312  
   0.92178  -0.347815  -0.303176  
  0.642426  -0.371889   0.128388  
  0.507642  -0.370249   0.117206  
  0.550917  -0.382864  0.0491708  
  0.574898  -0.371073   0.122042  
 -0.310213  -0.446437  -0.127246  
 -0.311968  -0.443933  -0.197264  
 -0.221804  -0.459647  -0.179246  
 -0.310615  -0.447809  -0.164388  
-0.0723602  -0.427252 -0.0228808  
-0.0337317  -0.445467  -0.100581  
 0.0452477  -0.437553  -0.123172  
0.00271237  -0.420248 -0.0346711  
-0.0160673  -0.433301 -0.0701281  
  -0.18191  -0.372244  -0.436225  
-0.0699547  -0.363193   -0.38638  
-0.0346031  -0.352068  -0.330616  
  -0.15973  -0.361913  -0.385534  
 -0.112255   -0.36073  -0.385132  
  0.795536  -0.423025 -0.0298829  
  0.685634  -0.432039 -0.0783393  
  0.648596  -0.443437   -0.13552  
  0.771543  -0.433698 -0.0818611  
  0.726078   -0.43466 -0.0810171  
  0.670686  -0.368273   -0.43899  
  0.637151  -0.350102  -0.362788  
  0.551985  -0.357838  -0.333149  
  0.614118  -0.362148  -0.389102  
  0.700277  -0.440172  -0.151999  
  0.586144  -0.447811  -0.191849  
   0.50539  -0.437329  -0.236893  
  0.607827  -0.441691   -0.19517  
-0.0882867  -0.355443  -0.315358  
 0.0260047  -0.347822  -0.275377  
  0.106258  -0.358321  -0.230591  
0.00400541  -0.353946  -0.272252  
  0.108656  -0.411595 -0.0800303  
  0.128733  -0.428546  -0.165379  
  0.217334  -0.418594  -0.224227  
  0.162105  -0.414245  -0.146899  
-0.0974036  -0.415951  -0.575577  
 -0.186518  -0.396522  -0.523461  
 -0.175092  -0.418906  -0.594144  
  0.888821  -0.346419  -0.378149  
  0.804079  -0.359074  -0.440472  
  0.897766  -0.357442  -0.427566  
  -0.27936  -0.448856 -0.0889049  
  -0.19642  -0.436406 -0.0261091  
 -0.288328  -0.437837 -0.0394422  
  0.711841  -0.378908   0.111304  
  0.801827   -0.39813  0.0594962  
  0.788261  -0.376244    0.12833  
  0.132357  -0.347421  -0.221973  
  0.207734  -0.355747  -0.180412  
  0.213196  -0.352682  -0.170519  
  0.431646  -0.353037  -0.218152  
  0.362584   -0.35788  -0.159301  
  0.374178  -0.353296  -0.166426  
  0.170923  -0.442212  -0.240652  
  0.241461  -0.437045  -0.299422  
  0.231781  -0.442412  -0.296455  
  0.479596  -0.448256  -0.245291  
  0.403886  -0.439937  -0.287023  
   0.39846  -0.443004  -0.296853  
  0.111376  -0.397265 -0.00640422  
  0.142473  -0.386794  0.0420145  
  0.796987  -0.428325  -0.130234  
  0.858234  -0.415446  -0.129738  
 -0.185573  -0.367326  -0.337357  
 -0.246858  -0.380207   -0.33786  
  0.467016  -0.366053  -0.283914  
  0.382701  -0.370222  -0.208528  
  0.390809  -0.387837  -0.285354  
   0.42757  -0.377296  -0.280799  
 -0.126788  -0.446321 -0.0698041  
 -0.136295  -0.419098  0.0236991  
 -0.133166  -0.433381 -0.0245686  
 -0.118649  -0.380456  -0.459408  
 -0.253382  -0.389628  -0.495535  
 -0.184893  -0.383059  -0.477746  
  0.735843  -0.414124 -0.0032077  
   0.86535  -0.405878  0.0284389  
  0.799434  -0.411912  0.0127158  
   0.73194  -0.349096  -0.395394  
  0.737077  -0.376212  -0.487731  
  0.736065  -0.361985  -0.439909  
  0.329047  -0.383254  -0.206937  
  0.306511  -0.400202  -0.294816  
  0.368591  -0.402653  -0.355941  
  0.348612  -0.395133  -0.284825  
  0.107833  -0.394959  -0.233599  
   0.18775   -0.37513  -0.208517  
  0.214863  -0.407267  -0.227534  
  0.206518  -0.391073  -0.215288  
  0.332555  -0.365872  -0.144641  
  0.301406  -0.370595  -0.143278  
  0.317031  -0.368324  -0.139636  
  0.293871  -0.404096    -0.2238  
  0.271452  -0.421823  -0.290684  
  0.316253  -0.423318  -0.317857  
  0.296266   -0.42184  -0.308688  
  0.503499  -0.400693  -0.234002  
  0.423595  -0.420526  -0.259076  
  0.396445  -0.388393  -0.240068  
  0.404811  -0.404584  -0.252311  
  0.477842  -0.361563   -0.22803  
  0.395768  -0.362394  -0.214585  
  0.391984  -0.374818  -0.227069  
  0.133391  -0.434099  -0.239566  
  0.215486  -0.433274  -0.253001  
  0.219295  -0.420846  -0.240529  
  0.362615  -0.411351  -0.246663  
   0.34949  -0.428524  -0.319731  
  0.332422  -0.425844  -0.323162  
  0.346232  -0.362041  -0.148709  
  0.408873  -0.432039  -0.274676  
  0.202621  -0.363629   -0.19285  
  0.256187  -0.429864  -0.300606  
  0.496136  -0.354629  -0.278796  
 0.0440603  -0.347562  -0.278979  
  0.569002  -0.448065   -0.18767  
  0.103869  -0.440697  -0.178326  
  0.256854   -0.38909  -0.237834  
   0.25127  -0.373027  -0.175477  
  0.280001  -0.372475  -0.153997  
 0.0220881  -0.426857  -0.239478  
 -0.109423  -0.417579  -0.253685  
-0.00147481  -0.406611  -0.247222  
  0.355456  -0.393621  -0.152908  
  0.331909  -0.381962 -0.0499976  
  0.309536    -0.3906  -0.134821  
  0.589199    -0.3688  -0.228126  
  0.720729  -0.378078  -0.213922  
  0.612795  -0.389043  -0.220383  
  0.200542  -0.401215  -0.348517  
  0.263704    -0.4113  -0.392263  
  0.256424  -0.402222   -0.31696  
 -0.333472  -0.401463  -0.506943  
  0.731271  -0.394531  -0.549889  
 -0.125015  -0.400945  0.0837904  
  0.945112  -0.394085  0.0395991  
  0.131844  -0.455913  -0.244491  
  0.215317    -0.4417  -0.264396  
  0.180275  -0.374998  -0.250329  
  0.238804  -0.365655  -0.164935  
  0.417738  -0.425512  -0.245097  
  0.363461  -0.432662  -0.318168  
  0.478721  -0.339833  -0.222905  
  0.395593  -0.354035  -0.203099  
 0.0352783  -0.456835  -0.227914  
-0.0592443  -0.449776  -0.227551  
 0.0344229  -0.443772  -0.234315  
  0.435407  -0.407199  -0.163633  
  0.426015  -0.391328 -0.0865011  
  0.395329  -0.399641  -0.163041  
  0.575895  -0.338829  -0.239668  
  0.670464  -0.345884  -0.240047  
  0.576804  -0.351889  -0.233282  
  0.333423  -0.413844  -0.437884  
  0.408689  -0.413228  -0.497889  
  0.389149  -0.408589  -0.429158  
-0.0610705  -0.467871  -0.187805  
 0.0299251  -0.464952  -0.215811  
   0.03903  -0.389069  -0.420323  
  0.132698  -0.394547  -0.371585  
  0.107405  -0.381888  -0.341365  
  0.539403  -0.409028 -0.0798692  
  0.482058  -0.417214  -0.157426  
   0.67214  -0.327785  -0.279723  
  0.580918   -0.33073  -0.251658  
  0.317207  -0.423206  -0.574054  
  0.390096   -0.41975  -0.567449  
  0.145838  -0.404866  -0.416376  
  0.749896  -0.335785  -0.261161  
  0.754021  -0.329746  -0.315474  
  0.750779  -0.329773   -0.28552  
 -0.138718   -0.45987  -0.206426  
 -0.143099  -0.465886  -0.152014  
  -0.13974  -0.465875  -0.182025  
  0.490603  -0.388807 -0.0207327  
  0.607344  -0.401675 -0.00832452  
  0.548133   -0.39553 -0.0164031  
  0.760182  -0.357491  -0.229133  
  0.923225  -0.368227  -0.211952  
  0.823758  -0.371018  -0.210932  
  0.397374  -0.380502 -0.0169186  
  0.374534  -0.370577   0.107135  
   0.35284  -0.375785  0.0297418  
 -0.148895  -0.438167  -0.238472  
 -0.311915  -0.427433  -0.255652  
  -0.21245  -0.424641  -0.256674  
  0.781585  -0.434082  -0.108802  
 -0.169954  -0.361548  -0.358694  
 0.0573665  -0.408548 -0.0224595  
  0.739093  -0.337908  -0.355354  
  0.825155  -0.335056  -0.346094  
  0.674332  -0.410808 -0.0105941  
  0.661014  -0.391222  0.0541499  
 -0.050645  -0.383221  -0.446564  
-0.0315659  -0.401047  -0.502533  
 -0.129833  -0.457714  -0.111628  
  -0.21501   -0.46047  -0.121203  
  0.287602  -0.420171  -0.506684  
    0.2747  -0.416404  -0.450254  
  0.240409  -0.425267  -0.578282  
  0.686127  -0.342573   -0.35924  
-0.0604405  -0.372226   -0.41398  
   0.68042  -0.422401  -0.046933  
-0.0798883  -0.452961  -0.106125  
  0.832091   -0.34686  -0.248606  
  0.752617  -0.345101  -0.244324  
   0.45971  -0.377577  0.0423298  
  0.444027  -0.384096  -0.020754  
 -0.220851  -0.448794  -0.218991  
 -0.141387  -0.450556  -0.223274  
  0.922559  -0.358773  -0.240351  
  0.441149   -0.37014   0.111291  
 -0.311274  -0.436882  -0.227247  
  0.304788  -0.378674  -0.185098  
  0.306623  -0.419145  -0.289271  
   0.30573   -0.43205  -0.355389  
  0.305619  -0.359775 -0.0989351  
  0.306599  -0.434261  -0.348444  
  0.304687  -0.360414  -0.116136  
  0.306001   -0.38391  -0.171205  
  0.305324   -0.41259  -0.299397  
  0.305977  -0.375148  -0.142531  
  0.305814  -0.382518  -0.172209  
  0.305971  -0.396491  -0.218496  
  0.305774  -0.392079  -0.208434  
   0.30603  -0.406482  -0.255276  
   0.30579  -0.398807  -0.233446  
  0.305489  -0.387754   -0.20104  
  0.305576  -0.400353  -0.246243  
  0.305878  -0.411197  -0.277801  
  0.305285  -0.385314  -0.197768  
  0.305338  -0.392459  -0.223795  
  0.305222  -0.372393  -0.150691  
  0.305631  -0.383169  -0.179844  
  0.306073  -0.413287  -0.280261  
  0.306135  -0.425208  -0.323386  
  0.305758  -0.419064  -0.309793  
  0.305584  -0.407168  -0.271563  
  0.306356  -0.416263  -0.284346  
   0.30551   -0.41576  -0.304708  
   0.30509  -0.385279  -0.203365  
     0.305  -0.375002  -0.165438  
  0.305008  -0.359355  -0.107353  
  0.304592  -0.368631  -0.149027  
  0.306125  -0.396282  -0.211818  
  0.305384  -0.402554  -0.261033  
  0.305214  -0.400555   -0.25991  
   0.30549  -0.426303  -0.340882  
  0.305768  -0.369563  -0.128927  
  0.306278  -0.421952  -0.308219  
  0.306331  -0.436723  -0.361557  
  0.306765   -0.43044  -0.331347  
  0.306213  -0.406728   -0.25037  
  0.305165  -0.391811  -0.227101  
  0.305332  -0.420809  -0.326551  
  0.305469  -0.371112  -0.140685  
  0.306352  -0.408387   -0.25238  
  0.305013  -0.388946  -0.220894  
  0.305989  -0.427082  -0.333157  
  0.306013  -0.435675  -0.362925  
  0.306861  -0.427923   -0.31986  
  0.304462  -0.360762  -0.120745  
  0.305363  -0.359404  -0.101868  
  0.304845  -0.359877  -0.111754  
  0.304846  -0.367701  -0.140774  
  0.305106  -0.373692  -0.158071  
  0.305115  -0.365868  -0.129012  
  0.304977  -0.366778  -0.134902  
  0.304517  -0.353822 -0.0941219  
  0.304915  -0.352439 -0.0840797  
  0.304707    -0.3529 -0.0883929  
   0.30647  -0.435497  -0.354993  
  0.306431  -0.428112  -0.328339  
  0.306211  -0.423582  -0.315799  
  0.306232   -0.43097   -0.34248  
  0.306336  -0.429545  -0.335404  
   0.30576  -0.425567  -0.332593  
   0.30563  -0.417414   -0.30725  
  0.305511  -0.421038  -0.322796  
  0.305602  -0.429178  -0.348138  
  0.305629  -0.423304  -0.327695  
  0.305711  -0.356334 -0.0860383  
  0.305698  -0.364667  -0.113923  
  0.305907  -0.365452  -0.112525  
  0.305824  -0.360718 -0.0986279  
  0.304688  -0.373653  -0.167054  
  0.304346  -0.364658  -0.137534  
  0.304583   -0.37505  -0.175146  
  0.304452   -0.36972  -0.155947  
  0.306786  -0.441344  -0.371971  
  0.306422   -0.44343  -0.384175  
  0.306615  -0.442617  -0.378782  
  0.305239  -0.411695  -0.299313  
  0.305283  -0.406573  -0.279656  
  0.305132   -0.39895  -0.257407  
  0.305203  -0.405349   -0.27855  
  0.305583  -0.403763  -0.258901  
  0.305674  -0.413118  -0.290683  
  0.305828  -0.415137  -0.293791  
  0.305724  -0.405776  -0.262024  
  0.305704  -0.409451   -0.27635  
  0.306688  -0.432353  -0.339892  
  0.307004  -0.436839  -0.352319  
  0.306913    -0.4393  -0.362789  
  0.305459  -0.396404  -0.235021  
  0.305533  -0.394054  -0.223639  
  0.305388  -0.386532  -0.199407  
  0.305311  -0.388887  -0.210779  
  0.305424  -0.391468  -0.217211  
  0.305835  -0.405003  -0.255626  
  0.305641   -0.39328  -0.217242  
  0.305683  -0.399529  -0.239633  
  0.305974  -0.412244  -0.279029  
  0.306052  -0.409885   -0.26777  
  0.305907  -0.402647  -0.244359  
  0.305942  -0.407446  -0.261696  
  0.305556  -0.385458  -0.190446  
   0.30578  -0.395441  -0.220942  
  0.305701  -0.387623  -0.194137  
  0.305668  -0.390449  -0.205692  
  0.305997  -0.401483  -0.236892  
  0.305874  -0.394287  -0.213463  
  0.305888  -0.398464  -0.228914  
   0.30588  -0.389502  -0.195351  
  0.305723   -0.38284   -0.17603  
  0.305792  -0.388562  -0.194744  
  0.305549  -0.377137  -0.160259  
   0.30578  -0.376035  -0.150563  
  0.305615  -0.370329  -0.134816  
  0.305663   -0.37658  -0.155417  
  0.306087  -0.384384  -0.169791  
  0.306048  -0.390095  -0.191509  
  0.306203  -0.397298   -0.21226  
  0.306126  -0.390814  -0.190835  
  0.305358  -0.380069  -0.175858  
   0.30515  -0.380153  -0.181602  
  0.305253  -0.380108  -0.178735  
  0.306003  -0.418207  -0.300601  
  0.306172  -0.417622  -0.294242  
  0.306088  -0.417917  -0.297418  
  0.305482   -0.40486    -0.2663  
  0.305458   -0.40916  -0.282873  
  0.305562  -0.411139  -0.286779  
  0.305636  -0.437415  -0.374925  
   0.30538  -0.430306  -0.356185  
  0.305493  -0.434035  -0.366205  
  0.304947   -0.38197  -0.194237  
  0.305041  -0.380141  -0.184395  
  0.304808  -0.371807   -0.15724  
  0.304875  -0.376889  -0.175731  
  0.306051  -0.396385  -0.215157  
  0.305911  -0.383212  -0.171707  
  0.305967  -0.389797   -0.19343  
  0.305366  -0.397511  -0.242408  
  0.305474  -0.400635  -0.250658  
  0.305219  -0.388865  -0.213583  
  0.305183   -0.38451  -0.197588  
  0.304574  -0.360585  -0.118445  
  0.304523  -0.364696  -0.134881  
   0.30469  -0.366193  -0.137834  
  0.305296  -0.401554  -0.260474  
  0.305412  -0.414175  -0.302054  
  0.305367  -0.407867  -0.281267  
  0.306083  -0.401613   -0.23443  
  0.306282  -0.407559  -0.251373  
  0.306222  -0.402335  -0.232102  
  0.306155  -0.401975  -0.233264  
  0.305343  -0.371747  -0.145696  
  0.305449  -0.378598  -0.168064  
  0.305879  -0.372355  -0.135725  
  0.306066  -0.373706  -0.135561  
     0.306  -0.369448  -0.123508  
  0.305983  -0.379528  -0.156865  
  0.306072  -0.378963    -0.1523  
  0.306282  -0.411494  -0.267363  
  0.306183  -0.411379  -0.269807  
  0.306131  -0.406494  -0.252124  
  0.306324  -0.419108  -0.296282  
  0.306181    -0.4145  -0.282026  
  0.306486  -0.417709  -0.286802  
  0.306548  -0.423359  -0.307856  
  0.306816  -0.429182  -0.325603  
  0.306741  -0.423535  -0.304572  
  0.306645  -0.423449   -0.30621  
  0.305185  -0.359372   -0.10462  
  0.305359  -0.353441 -0.0815023  
  0.305137   -0.35271 -0.0820598  
  0.305868  -0.423075  -0.321478  
  0.306064  -0.426147  -0.328269  
  0.305942  -0.420645  -0.311035  
  0.305251  -0.422102  -0.332782  
  0.305334  -0.416701  -0.312976  
  0.305249  -0.416981  -0.316423  
  0.305887   -0.37778  -0.153713  
  0.306466   -0.41006  -0.255414  
  0.306479  -0.413767  -0.270832  
  0.306794  -0.421687  -0.295842  
  0.306625  -0.415959  -0.275841  
  0.306496  -0.425737  -0.318096  
  0.304884  -0.386434  -0.215025  
  0.304908   -0.38381  -0.202989  
  0.304737  -0.380658  -0.194873  
  0.306171  -0.436205  -0.362234  
     0.306  -0.441936  -0.384694  
   0.30621  -0.442912  -0.385168  
  0.305866  -0.433866  -0.359155  
  0.305808  -0.439884  -0.380525  
  0.307052  -0.431444  -0.330715  
  0.306934    -0.4267   -0.31367  
  0.304268  -0.356596  -0.107536  
  0.304379     -0.355  -0.100185  
  0.305491  -0.359587  -0.100406  
  0.305541   -0.35468 -0.0830562  
  0.304288  -0.360452  -0.121995  
  0.305283  -0.397179   -0.24407  
   0.30509  -0.390376     -0.224  
  0.305129  -0.394751  -0.240399  
  0.305204  -0.395963  -0.242238  
  0.305026  -0.392661  -0.236203  
  0.305129  -0.388546   -0.21523  
  0.305254  -0.393025  -0.228822  
  0.306316   -0.40371   -0.23385  
  0.307046  -0.434318  -0.342053  
  0.305406  -0.423555  -0.333721  
  0.305303  -0.426334  -0.345019  
  0.306379  -0.412634  -0.269094  
  0.305417  -0.418869  -0.317889  
  0.305413  -0.365253  -0.121269  
  0.305554  -0.364954  -0.117603  
  0.305262  -0.365554  -0.125149  
  0.305022  -0.386174  -0.209114  
  0.306006  -0.431382  -0.348044  
  0.305877  -0.428477   -0.34032  
   0.30612   -0.43118  -0.345257  
 -0.224452  -0.277003  -0.562214  
 -0.205153  -0.114549  -0.451508  
 -0.185379  0.0477088  -0.341163  
  -0.16515   0.209736  -0.231709  
-0.0466671   -0.27038  -0.548958  
-0.0268756  -0.106906   -0.43681  
-0.00690672  0.0557828  -0.325897  
 0.0132565   0.218548   -0.21553  
  0.126452  -0.265901  -0.539074  
  0.146736  -0.101967  -0.426473  
   0.16691  0.0612329  -0.314958  
  0.187067   0.224581  -0.203685  
  0.300226  -0.263346  -0.531777  
  0.320544 -0.0995641  -0.419668  
  0.340804  0.0638575  -0.307912  
  0.361129   0.227645  -0.195795  
  0.474198  -0.260189  -0.523891  
  0.494339 -0.0968528  -0.412658  
  0.514511  0.0663461  -0.301146  
  0.534811   0.230292  -0.188508  
  0.648107  -0.254211  -0.512023  
  0.668247 -0.0914475  -0.401669  
  0.688214  0.0712423  -0.290754  
  0.708009   0.234714  -0.178589  
  0.826477  -0.245393  -0.495891  
  0.846706 -0.0833658  -0.386437  
  0.866478   0.078892  -0.276092  
  0.885776   0.241347  -0.165386  
 -0.233438  -0.359295   -0.61906  
 -0.316173  -0.281083  -0.570028  
 -0.324953   -0.36283  -0.625479  
 -0.214588    -0.1956  -0.506721  
 -0.296727  -0.119076  -0.459978  
 -0.306308  -0.200047  -0.514992  
 -0.195287 -0.0334009   -0.39629  
 -0.277014    0.04301  -0.349842  
 -0.286895 -0.0380236  -0.404886  
 -0.175096    0.12875  -0.286319  
 -0.257058   0.204799  -0.240474  
 -0.266953    0.12398  -0.295027  
 -0.154474   0.291694  -0.176456  
 -0.246262   0.286455  -0.185876  
-0.0567509  -0.353191  -0.606847  
 -0.134648  -0.273417  -0.555251  
 -0.144167  -0.356067  -0.612725  
-0.0365207  -0.188365  -0.492598  
 -0.115154  -0.110397  -0.443692  
 -0.124633  -0.191638  -0.499186  
-0.0169507 -0.0255398  -0.381294  
-0.0952885  0.0520466  -0.333086  
 -0.105266 -0.0291473  -0.388326  
0.00342488   0.137183  -0.270644  
-0.0750533    0.21443  -0.223203  
-0.0849342   0.133271  -0.278059  
 0.0232033   0.300595  -0.160146  
-0.0647911   0.296557  -0.167796  
  0.116063  -0.348421  -0.596314  
 0.0400905  -0.267935  -0.543663  
 0.0298537  -0.350537   -0.60115  
  0.136741  -0.183705   -0.48254  
  0.060208  -0.104103  -0.431085  
 0.0503967  -0.185711  -0.487039  
  0.156795 -0.0203487  -0.370672  
 0.0802873  0.0588631  -0.319839  
 0.0702147   -0.02259  -0.375396  
  0.177167   0.142919  -0.259262  
  0.100375   0.221947  -0.209043  
 0.0906008    0.14043  -0.264337  
  0.197028   0.306577  -0.148103  
  0.110358   0.303934    -0.1535  
  0.289954  -0.345536  -0.588036  
  0.213203  -0.264574  -0.535245  
  0.202842  -0.346889  -0.591912  
  0.310359  -0.181374  -0.475664  
  0.233552  -0.100654  -0.422788  
  0.223445  -0.182446  -0.478844  
  0.330673 -0.0178547  -0.363792  
   0.25379  0.0627107  -0.311094  
  0.243661 -0.0189579  -0.366912  
  0.350986   0.145663  -0.251921  
  0.274029   0.226298  -0.199407  
  0.264017   0.144484  -0.255219  
  0.371385   0.309815  -0.139566  
  0.284152   0.308362    -0.1435  
  0.464189  -0.342218  -0.579578  
  0.387356  -0.261951  -0.528182  
  0.377243  -0.344019  -0.584097  
  0.484072  -0.178548  -0.468366  
  0.407596 -0.0983656  -0.416499  
   0.39737  -0.180138  -0.472372  
  0.504446  -0.015277  -0.356951  
  0.427834  0.0649975  -0.304806  
  0.417725 -0.0166966  -0.360681  
  0.524496   0.148077  -0.245087  
  0.448184   0.228912  -0.192352  
  0.437941   0.146793  -0.248747  
  0.545157    0.31278  -0.131366  
  0.458546   0.311249  -0.135665  
  0.638111  -0.336277  -0.567447  
  0.560899  -0.257588  -0.518584  
  0.550911  -0.339599  -0.574115  
  0.657908   -0.17285   -0.45693  
  0.580987 -0.0945115  -0.407785  
  0.570672  -0.176079  -0.463283  
  0.678286 -0.0101252  -0.346273  
  0.601068  0.0684524  -0.296536  
  0.591058 -0.0130582  -0.352227  
  0.697857   0.152699  -0.234971  
  0.621193   0.232274  -0.183951  
  0.610874   0.150065  -0.240585  
   0.71808   0.317536  -0.120756  
  0.631411    0.31491  -0.126478  
  0.815802  -0.327358  -0.551148  
  0.736383  -0.250102  -0.504401  
  0.726126  -0.332239  -0.559793  
  0.836421  -0.164408  -0.441283  
  0.756619 -0.0877191   -0.39451  
  0.746267  -0.168943  -0.449534  
  0.856613 -0.00225578  -0.331311  
  0.776487  0.0747249  -0.283902  
  0.766598 -0.00652451  -0.339268  
  0.875915   0.159944  -0.220881  
  0.795983   0.237744  -0.172343  
  0.785965   0.155967  -0.228408  
  0.894767   0.323641  -0.108541  
  0.805498   0.320404  -0.114872  
  0.918381  -0.240463  -0.487128  
  0.907589  -0.322123  -0.541727  
  0.938337 -0.0786731   -0.37776  
  0.928277  -0.159643  -0.432575  
  0.958051  0.0834133  -0.267623  
  0.948219 0.00236076  -0.322715  
  0.977498    0.24542  -0.157573  
  0.967632   0.164385  -0.212609  
  0.986279   0.327172  -0.102121  
   1.02047  -0.186169  -0.341102  
   1.04038 -0.0191291  -0.226087  
   1.06012   0.143472  -0.115392  
   1.07963   0.301607 -0.00963879  
   1.02798  -0.156398  -0.222467  
   1.04833  0.0140543  -0.103949  
    1.0682   0.177787 0.00801817  
   1.08781   0.334852   0.113246  
   1.03326  -0.165655  -0.135483  
   1.05347 0.00487412  -0.017072  
   1.07334   0.169861  0.0961638  
   1.09296   0.329884    0.20451  
   1.03575  -0.211497 -0.0746345  
    1.0557 -0.0455936  0.0393273  
   1.07563   0.119933   0.153071  
   1.09558   0.285837   0.267033  
   1.03837  -0.255545 -0.0121105  
   1.05799 -0.0955214  0.0962348  
   1.07786  0.0694653   0.209471  
   1.09807   0.239996   0.327883  
   1.04351  -0.260511  0.0791574  
   1.06313  -0.103451   0.184379  
     1.083  0.0602832   0.296346  
   1.10335   0.230748   0.414871  
   1.05169  -0.227256   0.202051  
   1.07121 -0.0691334   0.307788  
   1.09094  0.0934676   0.418483  
   1.11086   0.260515    0.53351  
   1.01016  -0.269646  -0.402392  
   1.01595  -0.209797  -0.408553  
   1.00587  -0.291779  -0.466364  
   1.03053  -0.100507  -0.282586  
   1.03569 -0.0452163   -0.29615  
   1.02585  -0.126286  -0.351796  
   1.05027  0.0626035  -0.170435  
   1.05538   0.117035  -0.185874  
   1.04554  0.0361205  -0.240848  
   1.06995   0.224376 -0.0616705  
   1.07492   0.276894 -0.0783854  
   1.06521   0.197794  -0.131733  
   1.08944   0.380147  0.0385223  
   1.08481   0.356397  -0.027773  
   1.01787  -0.242467  -0.288133  
    1.0247  -0.167676  -0.278562  
    1.0139  -0.252242  -0.342267  
   1.03846 -0.0682397  -0.161909  
   1.04467 0.00154749  -0.161306  
   1.03472 -0.0802271  -0.218607  
    1.0583   0.096541 -0.0475532  
    1.0644   0.164687 -0.0500256  
   1.05455  0.0836969  -0.105265  
   1.07805   0.259393  0.0619554  
    1.0838   0.321879  0.0549301  
   1.07429   0.245875 0.00365495  
   1.09726   0.413334   0.159082  
   1.09375   0.399911   0.101454  
   1.02282    -0.2506  -0.199032  
   1.03095  -0.155822  -0.175205  
   1.02051  -0.240877  -0.239488  
   1.04345  -0.077918 -0.0752628  
   1.05122  0.0154741 -0.0558576  
   1.04126 -0.0669288  -0.113971  
   1.06342  0.0879324  0.0398352  
   1.07108   0.179898  0.0568124  
   1.06118  0.0984372 0.00091589  
    1.0833   0.252532   0.151524  
   1.09064   0.337806   0.162839  
   1.08101   0.262174   0.111449  
    1.1028   0.411081   0.255158  
   1.10037   0.418003    0.21138  
   1.02566  -0.295059  -0.132648  
   1.03453  -0.185731  -0.103321  
   1.02444  -0.269971  -0.164194  
   1.04572  -0.128674 -0.0178026  
   1.05469 -0.0170407  0.0133529  
   1.04473 -0.0999934 -0.0443986  
   1.06567  0.0371699  0.0961992  
   1.07464   0.148352   0.126968  
   1.06468  0.0660028  0.0703428  
   1.08561   0.203013   0.210201  
   1.09449   0.311112   0.237952  
   1.08458   0.231353   0.183277  
   1.10567   0.369398   0.325046  
   1.10424    0.39381   0.292373  
   1.02853  -0.336743  -0.062761  
   1.03684  -0.236772 -0.0455531  
   1.02709  -0.319471 -0.0999746  
   1.04803  -0.178193  0.0408744  
   1.05669 -0.0740124  0.0654305  
   1.04675  -0.157013 0.00912166  
   1.06791 -0.0135934   0.152563  
   1.07664  0.0913804   0.179045  
   1.06665  0.0083369   0.122056  
   1.08788   0.152257   0.267661  
    1.0968    0.26007    0.29572  
    1.0866   0.174333   0.236797  
    1.1085   0.324936   0.391428  
   1.10689    0.34431   0.356592  
   1.03408  -0.339008  0.0333016  
   1.04069  -0.263467  0.0295607  
   1.03097  -0.343666 -0.0189815  
   1.05328   -0.18506   0.130444  
   1.06025  -0.105559   0.135586  
   1.05032  -0.187837    0.08095  
   1.07303 -0.0222069   0.239951  
   1.08011  0.0588643   0.248256  
   1.07015 -0.0240988   0.191483  
   1.09287   0.142572   0.354307  
   1.10038    0.23016   0.367602  
   1.09007   0.141267    0.30637  
   1.11345    0.31678   0.480513  
   1.11082   0.315213   0.431886  
   1.04189  -0.305832   0.153847  
   1.04752  -0.247527   0.137485  
   1.03759  -0.325591  0.0909164  
   1.06137  -0.150044   0.254066  
   1.06692 -0.0903464   0.242424  
   1.05703  -0.171541   0.188742  
   1.08106  0.0117311    0.36283  
   1.08666  0.0727935   0.353704  
   1.07678 -0.00936074   0.297662  
   1.10079    0.17484   0.474981  
   1.10664   0.242029   0.470972  
    1.0966   0.154561   0.411004  
   1.12115    0.34397   0.594768  
   1.11741   0.326561   0.534641  
    1.0564  -0.202545   0.270791  
   1.04652  -0.282069   0.220161  
   1.07595 -0.0426937   0.378273  
   1.06612  -0.123456   0.324132  
   1.09563   0.119557   0.488549  
   1.08578  0.0382193   0.433247  
   1.11537   0.284138   0.600955  
   1.10547   0.200625   0.544195  
   1.12545   0.366117   0.658756  
  0.876477  -0.185393   0.324109  
  0.896706 -0.0233658   0.433563  
  0.916478   0.138892   0.543908  
  0.935776   0.301347   0.654614  
  0.698107  -0.194211   0.307977  
  0.718247 -0.0314475   0.418331  
  0.738214   0.131242   0.529246  
  0.758009   0.294714   0.641411  
  0.524198  -0.200189   0.296109  
  0.544339 -0.0368528   0.407342  
  0.564511   0.126346   0.518854  
  0.584811   0.290292   0.631492  
  0.350226  -0.203346   0.288223  
  0.370544 -0.0395641   0.400332  
  0.390804   0.123857   0.512088  
  0.411129   0.287645   0.624205  
  0.176452  -0.205901   0.280926  
  0.196736  -0.041967   0.393527  
   0.21691   0.121233   0.505042  
  0.237067   0.284581   0.616315  
0.00333294   -0.21038   0.271042  
 0.0231244  -0.046906    0.38319  
 0.0430933   0.115783   0.494103  
 0.0632565   0.278548    0.60447  
 -0.174452  -0.217003   0.257786  
 -0.155153 -0.0545487   0.368492  
 -0.135379   0.107709   0.478837  
  -0.11515   0.269736   0.588291  
  0.865802  -0.267358   0.268852  
  0.968381  -0.180463   0.332872  
  0.957589  -0.262123   0.278273  
  0.886421  -0.104408   0.378717  
  0.988337 -0.0186731    0.44224  
  0.978277 -0.0996426   0.387425  
  0.906613  0.0577442   0.488689  
   1.00805   0.143413   0.552377  
  0.998219  0.0623608   0.497285  
  0.925915   0.219944   0.599119  
    1.0275    0.30542   0.662427  
   1.01763   0.224385   0.607391  
  0.944767   0.383641   0.711459  
   1.03628   0.387172   0.717879  
  0.688111  -0.276277   0.252553  
  0.786383  -0.190102   0.315599  
  0.776126  -0.272239   0.260207  
  0.707908   -0.11285    0.36307  
  0.806619 -0.0277191    0.42549  
  0.796267  -0.108943   0.370466  
  0.728286  0.0498748   0.473727  
  0.826487   0.134725   0.536098  
  0.816598  0.0534755   0.480732  
  0.747857   0.212699   0.585029  
  0.845983   0.297744   0.647657  
  0.835965   0.215967   0.591592  
   0.76808   0.377536   0.699244  
  0.855498   0.380404   0.705128  
  0.514189  -0.282218   0.240422  
  0.610899  -0.197588   0.301416  
  0.600911  -0.279599   0.245885  
  0.534072  -0.118548   0.351634  
  0.630987 -0.0345115   0.412215  
  0.620672  -0.116079   0.356717  
  0.554446   0.044723   0.463049  
  0.651068   0.128452   0.523464  
  0.641058  0.0469418   0.467773  
  0.574496   0.208077   0.574913  
  0.671193   0.292274   0.636049  
  0.660874   0.210065   0.579415  
  0.595157    0.37278   0.688634  
  0.681411    0.37491   0.693522  
  0.339954  -0.285536   0.231964  
  0.437356  -0.201951   0.291818  
  0.427243  -0.284019   0.235903  
  0.360359  -0.121374   0.344336  
  0.457596 -0.0383656   0.403501  
   0.44737  -0.120138   0.347628  
  0.380673  0.0421453   0.456208  
  0.477834   0.124997   0.515194  
  0.467725  0.0433034   0.459319  
  0.400986   0.205663   0.568079  
  0.498184   0.288912   0.627648  
  0.487941   0.206793   0.571253  
  0.421385   0.369815   0.680434  
  0.508546   0.371249   0.684335  
  0.166063  -0.288421   0.223686  
  0.263203  -0.204574   0.284755  
  0.252842  -0.286889   0.228088  
  0.186741  -0.123705    0.33746  
  0.283552 -0.0406541   0.397212  
  0.273445  -0.122446   0.341156  
  0.206795  0.0396513   0.449328  
   0.30379   0.122711   0.508906  
  0.293661  0.0410421   0.453088  
  0.227167   0.202919   0.560738  
  0.324029   0.286298   0.620593  
  0.314017   0.204484   0.564781  
  0.247028   0.366577   0.671897  
  0.334152   0.368362     0.6765  
-0.00675091  -0.293191   0.213153  
 0.0900905  -0.207935   0.276337  
 0.0798537  -0.290537    0.21885  
 0.0134793  -0.128365   0.327402  
  0.110208 -0.0441027   0.388915  
  0.100397  -0.125711   0.332961  
 0.0330493  0.0344602   0.438706  
  0.130287   0.118863   0.500161  
  0.120215    0.03741   0.444604  
 0.0534249   0.197183   0.549356  
  0.150375   0.281947   0.610957  
  0.140601    0.20043   0.555663  
 0.0732033   0.360595   0.659854  
  0.160358   0.363934     0.6665  
 -0.183438  -0.299295    0.20094  
-0.0846481  -0.213417   0.264749  
-0.0941674  -0.296067   0.207275  
 -0.164588    -0.1356   0.313279  
-0.0651543 -0.0503972   0.376308  
-0.0746328  -0.131638   0.320814  
 -0.145287  0.0265991    0.42371  
-0.0452885   0.112047   0.486914  
-0.0552662  0.0308527   0.431674  
 -0.125096    0.18875   0.533681  
-0.0250533    0.27443   0.596797  
-0.0349342   0.193271   0.541941  
 -0.104474   0.351694   0.643544  
-0.0147911   0.356557   0.652204  
 -0.266173  -0.221083   0.249972  
 -0.274953   -0.30283   0.194521  
 -0.246727 -0.0590762   0.360022  
 -0.256308  -0.140047   0.305008  
 -0.227014    0.10301   0.470158  
 -0.236895  0.0219764   0.415114  
 -0.207058   0.264799   0.579526  
 -0.216953    0.18398   0.524973  
 -0.196262   0.346455   0.634124  
 -0.368306  -0.277256   0.102051  
 -0.348791  -0.119133   0.207788  
  -0.32906  0.0434676   0.318483  
 -0.309144   0.210515    0.43351  
 -0.376488  -0.310511 -0.0208426  
  -0.35687  -0.153451  0.0843794  
 -0.337002  0.0102832   0.196346  
 -0.316646   0.180748   0.314871  
 -0.381626  -0.305545   -0.11211  
 -0.362007  -0.145521 -0.00376524  
 -0.342135  0.0194653   0.109471  
 -0.321934   0.189996   0.227883  
 -0.384251  -0.261497  -0.174635  
 -0.364298 -0.0955936 -0.0606727  
 -0.344372  0.0699334   0.053071  
 -0.324419   0.235837   0.167033  
 -0.386736  -0.215655  -0.235483  
 -0.366535 -0.0451259  -0.117072  
 -0.346663   0.119861 -0.00383622  
 -0.327043   0.279884    0.10451  
 -0.392025  -0.206398  -0.322467  
 -0.371669 -0.0359457  -0.203949  
 -0.351802   0.127787 -0.0919818  
 -0.332187   0.284852  0.0132462  
 -0.399528  -0.236169  -0.441102  
 -0.379616 -0.0691291  -0.326087  
 -0.359884  0.0934723  -0.215392  
 -0.340374   0.251607  -0.109639  
 -0.378107  -0.355832   0.053847  
 -0.363599  -0.252545   0.170791  
 -0.373478  -0.332069   0.120161  
 -0.358627  -0.200044   0.154066  
 -0.344053 -0.0926937   0.278273  
 -0.353882  -0.173456   0.224132  
 -0.338941 -0.0382689    0.26283  
 -0.324366  0.0695571   0.388549  
 -0.334215 -0.0117807   0.333247  
 -0.319209    0.12484   0.374981  
 -0.304626   0.234138   0.500955  
 -0.314529   0.150625   0.444195  
 -0.298846    0.29397   0.494768  
 -0.294553   0.316117   0.558756  
 -0.385924  -0.389008 -0.0666984  
 -0.372481  -0.297527  0.0374848  
 -0.382414  -0.375591 -0.00908362  
  -0.36672   -0.23506  0.0304438  
 -0.353078  -0.140346   0.142424  
 -0.362968  -0.221541  0.0887421  
 -0.346966 -0.0722069   0.139951  
 -0.333344  0.0227935   0.253704  
 -0.343223 -0.0593607   0.197662  
 -0.327127  0.0925715   0.254307  
 -0.313365   0.192029   0.370972  
 -0.323398   0.104561   0.311004  
 -0.306548    0.26678   0.380513  
 -0.302593   0.276561   0.434641  
 -0.391473  -0.386743  -0.162761  
 -0.379308  -0.313467 -0.0704393  
 -0.389032  -0.393666  -0.118981  
 -0.371973  -0.228193 -0.0591256  
  -0.35975  -0.155559  0.0355865  
 -0.369678  -0.237837   -0.01905  
 -0.352087 -0.0635934  0.0525632  
  -0.33989 0.00886427   0.148256  
  -0.34985 -0.0740988  0.0914828  
  -0.33212   0.102257   0.167661  
 -0.319616    0.18016   0.267602  
 -0.329928  0.0912671    0.20637  
 -0.311496   0.274936   0.291428  
 -0.309182   0.265213   0.331886  
 -0.394341  -0.345059  -0.232648  
 -0.383161  -0.286772  -0.145553  
 -0.392911  -0.369471  -0.199975  
 -0.374281  -0.178674  -0.117803  
 -0.363305  -0.124012 -0.0345695  
  -0.37325  -0.207013 -0.0908783  
 -0.354335 -0.0128301 -0.00380085  
 -0.343364  0.0413804  0.0790453  
 -0.353347 -0.0416631  0.0220555  
 -0.334389   0.153013   0.110201  
 -0.323195    0.21007    0.19572  
 -0.333401   0.124333   0.136797  
  -0.31433   0.319398   0.225046  
 -0.313108    0.29431   0.256592  
 -0.397176    -0.3006  -0.299032  
 -0.385475  -0.235731  -0.203321  
 -0.395563  -0.319971  -0.264194  
  -0.37655  -0.127918  -0.175263  
 -0.365306 -0.0670407 -0.0866471  
 -0.375269  -0.149993  -0.144399  
 -0.356583  0.0379324 -0.0601648  
 -0.345365  0.0983521  0.0269679  
 -0.355323  0.0160028 -0.0296572  
 -0.336696   0.202532  0.0515242  
 -0.325509   0.261112   0.137952  
  -0.33542   0.181353  0.0832767  
 -0.317195   0.361081   0.155158  
 -0.315759    0.34381   0.192373  
 -0.402128  -0.292467  -0.388133  
 -0.389053  -0.205822  -0.275205  
 -0.399494  -0.290877  -0.339488  
 -0.381544   -0.11824  -0.261909  
 -0.368781 -0.0345259  -0.155858  
 -0.378743  -0.116929  -0.213971  
 -0.361705   0.046541  -0.147553  
  -0.34892   0.129898 -0.0431876  
 -0.358821  0.0484372 -0.0990841  
  -0.34195   0.209393 -0.0380446  
 -0.329362   0.287806  0.0628385  
 -0.338992   0.212174  0.0114489  
 -0.322738   0.363334  0.0590821  
 -0.319635   0.368003    0.11138  
 -0.409841  -0.319646  -0.502392  
 -0.395305  -0.217676  -0.378562  
 -0.406096  -0.302242  -0.442267  
 -0.389468  -0.150507  -0.382586  
  -0.37533 -0.0484525  -0.261306  
 -0.385277  -0.130227  -0.318607  
 -0.369735  0.0126035  -0.270435  
 -0.355596   0.114687  -0.150026  
 -0.365451  0.0336969  -0.205265  
 -0.350048   0.174376  -0.161671  
 -0.336197   0.271879 -0.0450699  
 -0.345706   0.195875  -0.096345  
 -0.330556   0.330147 -0.0614777  
 -0.326245   0.349911 0.00145431  
 -0.404048  -0.259797  -0.508553  
 -0.414129  -0.341779  -0.566364  
  -0.38431 -0.0952163   -0.39615  
 -0.394148  -0.176286  -0.451796  
 -0.364622  0.0670352  -0.285874  
 -0.374461 -0.0138795  -0.340848  
 -0.345077   0.226894  -0.178385  
 -0.354794   0.147794  -0.231733  
 -0.335192   0.306397  -0.127773  
  0.324336  -0.183271  0.0398828  
  0.344348 -0.0192236   0.151939  
  0.364358   0.144839   0.263951  
  0.384353   0.308831   0.375899  
  0.324071  -0.188474  0.0176869  
  0.344069 -0.0244173   0.129749  
  0.364063   0.139658   0.241766  
  0.384048   0.303651   0.353709  
  0.324095  -0.196747 -0.0140216  
  0.344068 -0.0326715  0.0980574  
  0.364049   0.131423   0.210089  
  0.384032   0.295419   0.322029  
   0.32437  -0.207504 -0.0531943  
  0.344313 -0.0434118  0.0589018  
  0.364293   0.120707   0.170956  
   0.38429   0.284717   0.282912  
  0.324734  -0.220034 -0.0972032  
   0.34466 -0.0559437  0.0148863  
   0.36465   0.108194   0.126962  
  0.384683   0.272235   0.238966  
  0.324556   -0.18197   0.046957  
  0.314335  -0.265267 -0.0161343  
  0.314557  -0.263967 -0.00906146  
  0.344572 -0.0179232   0.159015  
  0.334341  -0.101255  0.0959103  
  0.334562 -0.0999538   0.102986  
  0.364589   0.146137   0.271027  
  0.354354  0.0628107   0.207954  
  0.354582  0.0641098    0.21503  
  0.384589   0.310128   0.382974  
  0.374357   0.226849   0.319929  
  0.374592   0.228145   0.327004  
  0.394346   0.390796   0.431875  
   0.39458   0.392094   0.438949  
  0.324172  -0.185462  0.0300764  
  0.314065  -0.270472 -0.0383291  
  0.314168  -0.267458   -0.02594  
  0.344178 -0.0214113   0.142134  
  0.334071  -0.106454  0.0737158  
  0.334175  -0.103444  0.0861038  
  0.364179   0.142657   0.254148  
  0.354066  0.0576231   0.185768  
   0.35418  0.0606255    0.19815  
   0.38417   0.306649   0.366093  
  0.374056    0.22167   0.297742  
  0.374176   0.224667   0.310124  
  0.394047   0.385607   0.409683  
  0.394165   0.388611   0.422069  
  0.324047  -0.192262 0.00290913  
  0.314088  -0.278748 -0.0700362  
  0.314039  -0.274262 -0.0531064  
  0.344033 -0.0281972   0.114978  
  0.334083  -0.114718  0.0420143  
  0.334042  -0.110238   0.058941  
   0.36402   0.135887   0.227002  
  0.354058  0.0493789   0.154085  
  0.354027  0.0538478   0.171001  
  0.384003   0.299881   0.338942  
   0.37404   0.213441   0.266066  
  0.374011   0.217901   0.282977  
  0.394038    0.37736   0.377995  
  0.394005   0.381829   0.394913  
   0.32421  -0.201858 -0.0328265  
  0.314373  -0.289504  -0.109203  
  0.314207   -0.28386 -0.0888389  
  0.344168 -0.0377729  0.0792624  
   0.33434  -0.125467 0.00284827  
   0.33419  -0.119824  0.0232134  
  0.364147   0.126333   0.191305  
  0.354299  0.0386502    0.11494  
  0.354155  0.0442834   0.135296  
  0.384135   0.290335   0.303249  
  0.374289   0.202735   0.226944  
  0.374139   0.208356   0.247285  
  0.394308   0.366644    0.33887  
  0.394146   0.372267   0.359211  
  0.324558  -0.213598 -0.0747755  
  0.314757  -0.302018  -0.153196  
   0.31457  -0.295592  -0.130777  
  0.344489 -0.0495038  0.0373215  
  0.334691  -0.138002 -0.0411661  
   0.33452  -0.131562 -0.0187335  
  0.364473   0.114625   0.149387  
  0.354648  0.0261267  0.0709305  
  0.354476  0.0325631  0.0933637  
  0.384486   0.278649   0.261363  
  0.374662   0.190237   0.182975  
  0.374476   0.196661   0.205386  
  0.394711   0.354167   0.294926  
  0.394509   0.360575    0.31732  
   0.32489  -0.226706  -0.120076  
  0.314922  -0.308674  -0.176058  
  0.344816 -0.0626256 -0.00800398  
  0.334846  -0.144682 -0.0640492  
  0.364815   0.101518   0.104078  
  0.354808  0.0194465  0.0480398  
  0.384869   0.265578   0.216115  
  0.374837   0.183569   0.160108  
  0.394902   0.347521   0.272082  
  0.326163  -0.220948 -0.0564339  
  0.346255 -0.0568429  0.0556838  
  0.366285   0.107294   0.167762  
  0.386248   0.271321   0.279749  
   0.32613   -0.20832 -0.0165972  
  0.346213 -0.0442118  0.0955319  
  0.366258   0.119905   0.207592  
  0.386252   0.283902   0.319531  
  0.326046  -0.197402  0.0159114  
  0.346103 -0.0333087   0.128025  
  0.366153   0.130785   0.240064  
  0.386164   0.294768   0.351986  
  0.325783   -0.18893  0.0388872  
   0.34582 -0.0248553    0.15098  
  0.365865   0.139219   0.263003  
  0.385879   0.303201   0.374929  
  0.325344  -0.183512   0.050868  
  0.345369  -0.019453   0.162944  
  0.365405    0.14461   0.274959  
  0.385416   0.308596   0.386895  
  0.326215  -0.227649 -0.0782435  
   0.31614  -0.302939  -0.112436  
  0.316186  -0.309624  -0.134234  
  0.346301 -0.0635543   0.033854  
  0.336212  -0.138907 -0.000381839  
  0.336263  -0.145616 -0.0222029  
  0.366321   0.100589   0.145938  
  0.356278   0.025229   0.111733  
   0.35632  0.0185195  0.0899021  
  0.386268   0.264635   0.257955  
  0.376275   0.189331   0.223768  
  0.376304   0.182633   0.201958  
  0.396207   0.353246   0.335698  
  0.396227   0.346571   0.313913  
  0.326143   -0.21447 -0.0357637  
  0.316126  -0.290328 -0.0726144  
   0.31613  -0.296471 -0.0917744  
  0.346234 -0.0503597  0.0763643  
  0.336171  -0.126274  0.0394625  
   0.33619  -0.132424  0.0202947  
  0.366273   0.113768   0.188434  
  0.356242  0.0378515   0.151577  
  0.356261  0.0317086   0.132412  
  0.386252   0.277778   0.300394  
  0.376263   0.201928   0.263573  
  0.376271   0.195798   0.244427  
  0.396219   0.365821   0.375477  
  0.396214   0.359697    0.35634  
  0.326104  -0.202599 0.000727733  
  0.316054  -0.279413 -0.0401124  
  0.316108   -0.28461 -0.0552937  
  0.346175 -0.0384971   0.112851  
   0.33607  -0.115362  0.0719652  
  0.336137  -0.120555  0.0567854  
  0.366224   0.125608     0.2249  
  0.356132  0.0487431    0.18406  
  0.356204  0.0435605   0.168891  
  0.386228   0.289596   0.336828  
  0.376166   0.212797   0.296034  
  0.376234   0.207625   0.280874  
   0.39614     0.3767   0.407939  
    0.3962    0.37152   0.392776  
  0.325937  -0.192819  0.0287014  
  0.315794  -0.270937 -0.0171381  
  0.315948  -0.274829 -0.0273236  
  0.345983 -0.0287355   0.140804  
  0.335796  -0.106899  0.0949325  
  0.335955  -0.110784  0.0847509  
  0.366032   0.135347   0.252834  
  0.355844  0.0571863   0.207005  
   0.35601  0.0533107   0.196835  
  0.386046   0.299329   0.364757  
  0.375879   0.221227   0.318972  
  0.376046   0.217357   0.308803  
  0.395861   0.385148    0.43089  
  0.396025   0.381269   0.420714  
  0.325573  -0.185809  0.0463142  
  0.315352  -0.265515 -0.00515562  
  0.315584  -0.267815 -0.00971062  
  0.345604 -0.0217434   0.158398  
  0.335352  -0.101488   0.106906  
  0.335583  -0.103782   0.102356  
  0.365645   0.142324   0.270416  
  0.355389  0.0625821   0.218963  
  0.355626  0.0602944    0.21442  
  0.385657   0.306308   0.382347  
  0.375416   0.226617   0.330932  
  0.375657   0.224331   0.326387  
  0.395401   0.390555   0.442863  
  0.395641   0.388262   0.438312  
  0.325085  -0.182093  0.0524966  
  0.315092  -0.264094 -0.00352539  
  0.345108 -0.0180404   0.164565  
  0.335093  -0.100073   0.108531  
  0.365138   0.146019   0.276578  
  0.355124   0.063993   0.220582  
  0.385146   0.310008   0.388519  
  0.375146   0.228027   0.332553  
  0.395133    0.39197    0.44449  
  0.326974  -0.284488    -0.2835  
  0.346969  -0.120496  -0.171552  
  0.366979  0.0435668   -0.05954  
  0.386991   0.207614  0.0525164  
  0.327277  -0.279313   -0.26131  
  0.347262   -0.11532  -0.149367  
  0.367256   0.048755 -0.0373493  
  0.387254   0.212811  0.0747123  
  0.327296  -0.271082  -0.229631  
  0.347278  -0.107085  -0.117691  
   0.36726  0.0570092 -0.00565919  
  0.387233   0.221084    0.10642  
  0.327038  -0.260378  -0.190514  
  0.347035 -0.0963679 -0.0785575  
  0.367015  0.0677504  0.0334963  
  0.386958   0.231842   0.145592  
  0.326646  -0.247896  -0.146568  
  0.346678 -0.0838556 -0.0345635  
  0.366669  0.0802824  0.0775118  
  0.386594   0.244373   0.189601  
  0.326748  -0.285788  -0.290576  
  0.316981  -0.366453  -0.339476  
  0.316757  -0.367754  -0.346552  
  0.346748  -0.121797  -0.178629  
   0.33697  -0.202505  -0.227529  
  0.336745  -0.203805  -0.234606  
  0.366766   0.042263 -0.0666175  
  0.356973 -0.0384676  -0.115555  
  0.356756   -0.03977  -0.122633  
  0.386782    0.20631  0.0454409  
  0.376986   0.125598 -0.00351109  
  0.376775   0.124294 -0.0105881  
  0.396992   0.289611   0.108534  
   0.39678   0.288307   0.101459  
   0.32715  -0.282305  -0.273695  
  0.317278  -0.361269  -0.317284  
  0.317154  -0.364267  -0.329671  
   0.34714  -0.118313   -0.16175  
  0.337269  -0.197332  -0.205342  
  0.337144  -0.200323  -0.217726  
  0.367142  0.0457552 -0.0497357  
  0.357259 -0.0332854 -0.0933684  
   0.35714 -0.0362817  -0.105752  
  0.387148   0.209805  0.0623216  
  0.377254   0.130791  0.0186834  
  0.377145   0.127788 0.00629421  
   0.39726   0.294809   0.130728  
  0.397152   0.291802   0.118338  
  0.327323  -0.275544  -0.246544  
  0.317289  -0.353022  -0.285597  
  0.317321  -0.357493  -0.302515  
  0.347305   -0.11155  -0.134604  
  0.337288  -0.189103  -0.173667  
  0.337314  -0.193565  -0.190579  
  0.367292  0.0525338 -0.0225804  
   0.35727 -0.0250412 -0.0616869  
  0.357299 -0.0295112 -0.0786033  
  0.387279   0.216599  0.0894889  
  0.377245   0.139055   0.050384  
  0.377284   0.134575   0.033457  
   0.39724   0.303086   0.162434  
  0.397286   0.298599   0.145504  
  0.327193  -0.265997  -0.210851  
  0.317021  -0.342305  -0.246471  
  0.317182  -0.347929  -0.266813  
  0.347181  -0.101995 -0.0989067  
  0.337039  -0.178396  -0.134546  
  0.337189  -0.184018  -0.154887  
   0.36716  0.0621109  0.0131355  
  0.357029 -0.0143116 -0.0225419  
  0.357172 -0.0199454 -0.0428977  
  0.387118   0.226196   0.125224  
  0.376988   0.149806  0.0895498  
  0.377138   0.144162  0.0691845  
  0.396955   0.313842   0.201601  
  0.397121   0.308198   0.181237  
  0.326842  -0.254311  -0.168965  
  0.316617  -0.329828  -0.202528  
  0.316819  -0.336237  -0.224922  
  0.346855  -0.090287 -0.0569889  
  0.336666  -0.165899 -0.0905772  
  0.336852  -0.172322  -0.112988  
  0.366839  0.0738422  0.0550765  
   0.35668 -0.00178799  0.0214677  
  0.356852 -0.00822468 -0.000965598  
   0.38677   0.237937   0.167174  
  0.376637   0.162341   0.133564  
  0.376808     0.1559   0.111132  
  0.396571   0.326356   0.245594  
  0.396758    0.31993   0.223176  
  0.326459  -0.241239  -0.123717  
  0.316427  -0.323182  -0.179684  
  0.346513 -0.0771794 -0.0116803  
  0.336491   -0.15923 -0.0677096  
  0.366512  0.0869643   0.100402  
  0.356521 0.00489218  0.0443583  
  0.386438   0.251045   0.212474  
  0.376483    0.16902   0.156447  
  0.396406   0.333013   0.268456  
   0.32508  -0.246982  -0.187351  
  0.345043 -0.0829553 -0.0753643  
  0.365074  0.0811817  0.0367142  
  0.385166   0.245287   0.148832  
  0.325076  -0.259563  -0.227133  
   0.34507 -0.0955661  -0.115194  
  0.365115  0.0685507 -0.00313392  
  0.385198   0.232659   0.108995  
  0.325164  -0.270428  -0.259588  
  0.345175  -0.106445  -0.147666  
  0.365225  0.0576485 -0.0356271  
  0.385282   0.221742  0.0764867  
  0.325447  -0.278861  -0.282531  
  0.345462  -0.114878  -0.170605  
  0.365507  0.0491957 -0.0585816  
  0.385544    0.21327  0.0535112  
  0.325915  -0.284262  -0.294499  
  0.345926  -0.120276  -0.182563  
  0.365962   0.043787 -0.0705478  
  0.385987   0.207846  0.0415277  
   0.32506  -0.240296  -0.165557  
  0.315121  -0.328907    -0.2433  
  0.315102  -0.322232  -0.221515  
  0.345007   -0.07625 -0.0535399  
  0.335053  -0.164992   -0.13137  
  0.335024  -0.158295   -0.10956  
  0.365027  0.0878931   0.058544  
   0.35505 -0.000890242 -0.0193351  
  0.355008 0.00581924  0.0024959  
  0.385113   0.251988   0.170642  
  0.375116   0.163246  0.0927799  
  0.375065   0.169955   0.114601  
  0.395188   0.327278   0.204834  
  0.395142   0.333963   0.226632  
  0.325076  -0.253439  -0.207996  
  0.315109  -0.341482  -0.283079  
  0.315114  -0.335358  -0.263942  
  0.345056 -0.0894293 -0.0960363  
  0.335065  -0.177589  -0.171175  
  0.335057  -0.171459  -0.152029  
  0.365094  0.0746986  0.0160337  
  0.355087 -0.0135126 -0.0591789  
  0.355068 -0.0073697 -0.0400144  
  0.385185   0.238808   0.128162  
  0.375158   0.150613  0.0529354  
  0.375138   0.156763  0.0721033  
  0.395202   0.314667   0.165012  
  0.395199    0.32081   0.184172  
    0.3251  -0.265257   -0.24443  
  0.315188   -0.35236  -0.315541  
  0.315129  -0.347181  -0.300378  
  0.345105  -0.101269  -0.132502  
  0.335162  -0.188458  -0.203635  
  0.335095  -0.183286  -0.188476  
  0.365153  0.0628363  -0.020453  
  0.355196 -0.0244033 -0.0916623  
  0.355124 -0.0192213 -0.0764934  
  0.385224   0.226939  0.0916702  
  0.375258   0.139702  0.0204329  
  0.375192   0.144894  0.0356126  
  0.395274   0.303753   0.132511  
  0.395221   0.308949   0.147692  
  0.325281  -0.274988  -0.272358  
  0.315465  -0.360808  -0.338492  
  0.315301  -0.356928  -0.328315  
  0.345295  -0.111006  -0.160436  
  0.335448  -0.196887  -0.226574  
  0.335281  -0.193016  -0.216404  
  0.365343  0.0530766 -0.0484055  
  0.355482 -0.0328459  -0.114607  
  0.355316 -0.0289697  -0.104436  
  0.385389    0.21716  0.0636975  
  0.375531   0.131239 -0.00253407  
  0.375371   0.135125 0.00764803  
  0.395532   0.295277   0.109537  
  0.395378    0.29917   0.119723  
  0.325663  -0.281971  -0.289948  
   0.31593   -0.36622  -0.350467  
  0.315679  -0.363924  -0.345912  
  0.345676  -0.117987  -0.178017  
  0.335915  -0.202283  -0.238536  
  0.335664  -0.199994  -0.233988  
  0.365717  0.0460807 -0.0659982  
  0.355942 -0.0382481  -0.126567  
  0.355695 -0.0359572   -0.12202  
  0.385747   0.210147  0.0460854  
  0.375979   0.125822 -0.0145101  
  0.375737    0.12812 -0.00995607  
  0.395979   0.289849  0.0975514  
  0.395737   0.292152    0.10211  
  0.326193  -0.285676  -0.296124  
  0.316206  -0.367638  -0.352095  
  0.346201  -0.121688  -0.184183  
  0.336192  -0.203695  -0.240158  
  0.366231  0.0423722 -0.0721699  
  0.356215 -0.0396612  -0.128187  
  0.386254   0.206425  0.0398986  
  0.376246   0.124405 -0.0161358  
  0.396247   0.288426  0.0959206  
  0.236927   0.470323   0.333962  
  0.557091   0.474948   0.334654  
  0.249776   0.369179   0.320871  
  0.575001   0.373961   0.318734  
  0.582627   0.472646   0.334834  
  0.303252   0.432413    0.28617  
    0.4939   0.402593   0.316956  
  0.228561   0.371686   0.317589  
  0.637371   0.398784   0.332296  
  0.348307   0.415047   0.362582  
  0.458179   0.441884   0.350384  
  0.173993   0.445568    0.32011  
-0.0789779    0.37093   0.487715  
-0.0161967   0.428233  0.0632135  
  0.834477   0.417657   0.595942  
  0.886734   0.473542   0.165635  
 -0.140661   0.447092    0.19537  
  0.564998   0.412704  0.0670107  
  0.180147   0.425049   0.592471  
  0.951972   0.397243   0.457003  
  0.546065   0.386866   0.322705  
  0.572004   0.421116   0.468909  
  0.479438   0.434482   0.485245  
  0.731577   0.381541    0.43938  
  0.226637   0.360621    0.31881  
 0.0479731   0.358796   0.345802  
  0.024504    0.38565   0.320277  
  0.113136   0.371165   0.423522  
  0.583395   0.483589   0.334094  
   0.76319   0.485544   0.306616  
   0.78678   0.458693   0.332118  
  0.691059   0.473164   0.233163  
  0.399949   0.432467   0.342646  
  0.256824   0.456281   0.318743  
 0.0837817   0.463002   0.215554  
  0.511477   0.458053   0.342837  
  0.591965   0.373515   0.318465  
    0.2199   0.470823   0.334198  
  0.287961   0.387903   0.325829  
  0.415982   0.411681   0.193506  
 -0.147805   0.441526   0.112726  
  0.758977    0.43732  0.0738787  
 0.0352963   0.407121   0.585309  
  0.959139   0.402814   0.539673  
   0.30119   0.436613   0.580023  
  0.923281    0.41058   0.400535  
 -0.111944   0.433764   0.251856  
  0.307924    0.40807   0.136366  
  0.521022    0.42582    0.20625  
   0.22352     0.4028   0.324388  
  0.432954   0.413926    0.32281  
  0.587771   0.441542   0.328009  
-0.0501141   0.417924   0.288148  
  0.861442    0.42642   0.364245  
  0.381232   0.439053   0.538902  
  0.615641   0.449838   0.216589  
 0.0418501   0.468662    0.23822  
  0.770546   0.375742   0.414659  
  0.175801    0.39502   0.454947  
  0.931957   0.486012   0.248465  
   0.69753   0.433886   0.612351  
  0.162597   0.418608   0.102351  
  -0.12111   0.358376   0.404021  
 -0.157364   0.415875  0.0119627  
  0.917275    0.44733  0.0717083  
 -0.109735   0.397198   0.581718  
  0.969863   0.428769   0.641442  
  0.452094    0.40226  0.0543599  
  0.026494    0.35627   0.410209  
  0.117453    0.44324   0.169948  
  0.711769    0.40244   0.497642  
  0.784492   0.488072   0.242333  
  0.931304   0.464201   0.328433  
  0.514914   0.443938   0.598893  
 -0.120013   0.380142   0.323964  
  0.779726   0.465587   0.163523  
  0.835915   0.395556    0.52124  
-0.0200222   0.449442   0.134393  
 0.0229377   0.378968   0.493001  
  0.243231   0.420833   0.511788  
-0.0268094   0.455615   0.248801  
  0.838337   0.388742   0.403647  
  0.935001   0.479593   0.292837  
  0.604527   0.440373    0.60758  
 -0.123811   0.364759   0.359577  
  0.217676     0.4047  0.0556613  
   0.32316    0.39935  0.0485844  
  0.690641   0.444875   0.139517  
  0.567532   0.437433   0.214444  
  0.544689    0.41886   0.134604  
  0.660974   0.424973   0.071639  
  0.616523   0.431621    0.13922  
  0.891847   0.417533   0.381329  
  0.878363   0.398929    0.40224  
  0.741797   0.390543   0.364806  
  0.748129   0.412144   0.353035  
  0.814241   0.403283   0.375002  
  0.341764   0.438206   0.559374  
  0.271036   0.429504   0.544256  
  0.297409   0.419112   0.441873  
  0.359282     0.4291   0.450663  
   0.31659   0.429863   0.498868  
-0.0805141   0.426811   0.271063  
-0.0669277   0.445422   0.250176  
 0.0696542    0.45381   0.287619  
 0.0632198   0.432206   0.299362  
 -0.002847   0.441066   0.277404  
 -0.228639   0.426785   0.103227  
 -0.143475   0.447734   0.157236  
 -0.222334   0.426029    0.19007  
 -0.225073   0.429428   0.149388  
  0.748635   0.419939 0.00822373  
   0.56278   0.404805 -0.00284548  
  0.655483   0.412256 0.00323171  
 0.0544705   0.424491   0.647085  
  0.108342   0.415887   0.588524  
  0.214826   0.437318   0.655778  
  0.134872   0.430901   0.651222  
   1.03997   0.417548   0.549162  
  0.954793   0.396598   0.495144  
   1.03366   0.418307   0.462315  
    1.0364   0.414904   0.502998  
   0.17652    0.36863   0.374765  
  0.072425   0.362124   0.416381  
  0.118428   0.354631   0.365519  
  0.241278   0.363446    0.31699  
  0.150185   0.360172   0.368816  
  0.156031   0.468326   0.271284  
  0.101223   0.454441   0.196231  
  0.183568   0.450468   0.239355  
  0.248836   0.464717   0.331277  
  0.170866   0.460817   0.259387  
   0.65775   0.376031   0.382656  
  0.721735   0.390754   0.465067  
  0.633961   0.393614   0.417041  
  0.558102   0.379167   0.316307  
  0.644992   0.383439   0.395956  
  0.628982   0.475594   0.281498  
  0.734982    0.48226   0.237966  
  0.692158    0.48969   0.287173  
  0.567026   0.480654   0.337034  
  0.657663   0.484078   0.285426  
  0.310187   0.372195   0.287678  
  0.320231   0.373163   0.271915  
  0.316648   0.371601   0.277867  
  0.480123   0.383269   0.250185  
  0.496882   0.376603   0.258598  
  0.487383   0.379147   0.251393  
  0.326105   0.460599   0.396039  
   0.31477   0.467707   0.394026  
  0.321211   0.465146    0.39837  
   0.50042   0.472023   0.364999  
  0.488523   0.470911   0.382229  
  0.492933    0.47248   0.375414  
  0.991396   0.439431   0.373106  
   1.02562   0.422284   0.431472  
   1.00801   0.428518   0.400215  
  0.404864   0.446432    0.63803  
  0.276709   0.441277   0.654735  
  0.341041   0.444259   0.645989  
 -0.180067    0.40491   0.279289  
 -0.214285   0.422055   0.220921  
 -0.196681   0.415823   0.252179  
  0.208991   0.395039 -0.0197623  
  0.263723   0.393794 -0.0249243  
   0.31477   0.403275  0.0923624  
  0.263421   0.406562  0.0954805  
   0.26244   0.399748  0.0351858  
  0.189468   0.411119  0.0804756  
 0.0919205   0.401517 -0.00793091  
  0.150336   0.397963 -0.0123084  
 -0.153933   0.395899 -0.0516374  
 -0.237728   0.406147 -0.00149463  
 -0.237372    0.39027 -0.0623943  
   1.00439   0.448338  0.0792233  
  0.915202   0.429074  0.0127341  
   1.00202   0.432059  0.0199907  
 -0.194993   0.396343   0.573759  
 -0.105677   0.415367   0.640112  
 -0.191607   0.412379   0.632623  
  0.965807     0.4486   0.704526  
   1.04963   0.438395   0.654386  
   1.04897   0.454146   0.715016  
    1.0213   0.470812   0.219698  
   1.02323   0.468284   0.289673  
   0.93281   0.484011   0.271688  
   1.02178   0.472185   0.256824  
  0.742426   0.448111   0.688388  
  0.607642   0.449751   0.677206  
  0.650917   0.437136   0.609171  
  0.674898   0.448927   0.682042  
 -0.210213   0.373563   0.432754  
 -0.211968   0.376067   0.362736  
 -0.121804   0.360353   0.380754  
 -0.210615   0.372191   0.395612  
 0.0276398   0.392748   0.537119  
 0.0662683   0.374533   0.459419  
  0.145248   0.382447   0.436828  
  0.102712   0.399752   0.525329  
 0.0839327   0.386699   0.489872  
-0.0819101   0.447756   0.123775  
 0.0300453   0.456807    0.17362  
 0.0653969   0.467932   0.229384  
-0.0597297   0.458087   0.174466  
-0.0122554    0.45927   0.174868  
  0.895536   0.396975   0.530117  
  0.785634   0.387961   0.481661  
  0.748596   0.376563    0.42448  
  0.871543   0.386302   0.478139  
  0.826078    0.38534   0.478983  
  0.770686   0.451727    0.12101  
  0.737151   0.469898   0.197212  
  0.651985   0.462162   0.226851  
  0.714118   0.457852   0.170898  
  0.800277   0.379828   0.408001  
  0.686144   0.372189   0.368151  
   0.60539   0.382671   0.323107  
  0.707827   0.378309    0.36483  
 0.0117133   0.464557   0.244642  
  0.126005   0.472178   0.284623  
  0.206258   0.461679   0.329409  
  0.104005   0.466054   0.287748  
  0.208656   0.408405    0.47997  
  0.228733   0.391454   0.394621  
  0.317334   0.401406   0.335773  
  0.262105   0.405755   0.413101  
0.00259635   0.404049 -0.0155774  
-0.0865184   0.423478   0.036539  
-0.0750924   0.401094 -0.0341438  
  0.988821   0.473581   0.181851  
  0.904079   0.460926   0.119528  
  0.997766   0.462558   0.132434  
  -0.17936   0.371144   0.471095  
-0.0964199   0.383594   0.533891  
 -0.188328   0.382163   0.520558  
  0.811841   0.441092   0.671304  
  0.901827    0.42187   0.619496  
  0.888261   0.443756    0.68833  
  0.232357   0.472579   0.338027  
  0.307734   0.464253   0.379588  
  0.313196   0.467318   0.389481  
  0.531646   0.466963   0.341848  
  0.462584    0.46212   0.400699  
  0.474178   0.466704   0.393574  
  0.270923   0.377788   0.319348  
  0.341461   0.382955   0.260578  
  0.331781   0.377588   0.263545  
  0.579596   0.371744   0.314709  
  0.503886   0.380063   0.272977  
   0.49846   0.376996   0.263147  
  0.211376   0.422735   0.553596  
  0.242473   0.433206   0.602015  
  0.896987   0.391675   0.429766  
  0.958234   0.404554   0.430262  
-0.0855731   0.452674   0.222643  
 -0.146858   0.439793    0.22214  
  0.567016   0.453947   0.276086  
  0.482701   0.449778   0.351472  
  0.490809   0.432163   0.274646  
   0.52757   0.442704   0.279201  
-0.0267884   0.373679   0.490196  
-0.0362949   0.400902   0.583699  
-0.0331664   0.386619   0.535431  
-0.0186491   0.439544   0.100592  
 -0.153382   0.430372   0.064465  
-0.0848928   0.436941  0.0822537  
  0.835843   0.405876   0.556792  
   0.96535   0.414122   0.588439  
  0.899434   0.408088   0.572716  
   0.83194   0.470904   0.164606  
  0.837077   0.443788  0.0722685  
  0.836065   0.458015   0.120091  
  0.429047   0.436746   0.353063  
  0.406511   0.419798   0.265184  
  0.468591   0.417347   0.204059  
  0.448612   0.424867   0.275175  
  0.207833   0.425041   0.326401  
   0.28775    0.44487   0.351483  
  0.314863   0.412733   0.332466  
  0.306518   0.428927   0.344712  
  0.432555   0.454128   0.415359  
  0.401406   0.449405   0.416722  
  0.417031   0.451676   0.420364  
  0.393871   0.415904     0.3362  
  0.371452   0.398177   0.269316  
  0.416253   0.396682   0.242143  
  0.396266    0.39816   0.251312  
  0.603499   0.419307   0.325998  
  0.523595   0.399474   0.300924  
  0.496445   0.431607   0.319932  
  0.504811   0.415416   0.307689  
  0.577842   0.458437    0.33197  
  0.495768   0.457606   0.345415  
  0.491984   0.445182   0.332931  
  0.233391   0.385901   0.320434  
  0.315486   0.386726   0.306999  
  0.319295   0.399154   0.319471  
  0.462615   0.408649   0.313337  
   0.44949   0.391476   0.240269  
  0.432422   0.394156   0.236838  
  0.446232   0.457959   0.411291  
  0.508873   0.387961   0.285324  
  0.302621   0.456371    0.36715  
  0.356187   0.390136   0.259394  
  0.596136   0.465371   0.281204  
   0.14406   0.472438   0.281021  
  0.669002   0.371935    0.37233  
  0.203869   0.379303   0.381674  
  0.356854    0.43091   0.322166  
   0.35127   0.446973   0.384523  
  0.380001   0.447525   0.406003  
  0.122088   0.393143   0.320522  
-0.0094227   0.402421   0.306315  
 0.0985252   0.413389   0.312778  
  0.455456   0.426379   0.407092  
  0.431909   0.438038   0.510002  
  0.409536     0.4294   0.425179  
  0.689199     0.4512   0.331874  
  0.820729   0.441922   0.346078  
  0.712795   0.430957   0.339617  
  0.300542   0.418785   0.211483  
  0.363704     0.4087   0.167737  
  0.356424   0.417778    0.24304  
 -0.233472   0.418537  0.0530571  
  0.831271   0.425469  0.0101107  
-0.0250147   0.419055    0.64379  
   1.04511   0.425915   0.599599  
  0.231844   0.364087   0.315509  
  0.315317     0.3783   0.295604  
  0.280275   0.445002   0.309671  
  0.338804   0.454345   0.395065  
  0.517738   0.394488   0.314903  
  0.463461   0.387338   0.241832  
  0.578721   0.480167   0.337095  
  0.495593   0.465965   0.356901  
  0.135278   0.363165   0.332086  
 0.0407557   0.370224   0.332449  
  0.134423   0.376228   0.325685  
  0.535407   0.412801   0.396367  
  0.526015   0.428672   0.473499  
  0.495329   0.420359   0.396959  
  0.675895   0.481171   0.320332  
  0.770464   0.474116   0.319953  
  0.676804   0.468111   0.326718  
  0.433423   0.406156   0.122116  
  0.508689   0.406772  0.0621106  
  0.489149   0.411411   0.130842  
 0.0389295   0.352129   0.372195  
  0.129925   0.355048   0.344189  
   0.13903   0.430931   0.139677  
  0.232698   0.425453   0.188415  
  0.207405   0.438112   0.218635  
  0.639403   0.410972   0.480131  
  0.582058   0.402786   0.402574  
   0.77214   0.492215   0.280277  
  0.680918    0.48927   0.308342  
  0.417207   0.396794  -0.014054  
  0.490096    0.40025 -0.00744856  
  0.245838   0.415134   0.143624  
  0.849896   0.484215   0.298839  
  0.854021   0.490254   0.244526  
  0.850779   0.490227    0.27448  
-0.0387178    0.36013   0.353574  
 -0.043099   0.354114   0.407986  
-0.0397403   0.354125   0.377975  
  0.590603   0.431193   0.539267  
  0.707344   0.418325   0.551675  
  0.648133    0.42447   0.543597  
  0.860182   0.462509   0.330867  
   1.02322   0.451773   0.348048  
  0.923758   0.448982   0.349068  
  0.497374   0.439498   0.543081  
  0.474534   0.449423   0.667135  
   0.45284   0.444215   0.589742  
-0.0488948   0.381833   0.321528  
 -0.211915   0.392567   0.304348  
  -0.11245   0.395359   0.303326  
  0.881585   0.385918   0.451198  
-0.0699545   0.458452   0.201306  
  0.157367   0.411452    0.53754  
  0.839093   0.482092   0.204646  
  0.925155   0.484944   0.213906  
  0.774332   0.409192   0.549406  
  0.761014   0.428778    0.61415  
  0.049355   0.436779   0.113436  
 0.0684341   0.418953  0.0574674  
-0.0298332   0.362286   0.448372  
  -0.11501    0.35953   0.438797  
  0.387602   0.399829  0.0533164  
    0.3747   0.403596   0.109746  
  0.340409   0.394733  -0.018282  
  0.786127   0.477427    0.20076  
 0.0395595   0.447774    0.14602  
   0.78042   0.397599   0.513067  
 0.0201117   0.367039   0.453875  
  0.932091    0.47314   0.311394  
  0.852617   0.474899   0.315676  
   0.55971   0.442423    0.60233  
  0.544027   0.435904   0.539246  
 -0.120851   0.371206   0.341009  
-0.0413873   0.369444   0.336726  
   1.02256   0.461227   0.319649  
  0.541149    0.44986   0.671291  
 -0.211274   0.383118   0.332753  
  0.404788   0.441326   0.374902  
  0.406623   0.400855   0.270729  
   0.40573    0.38795   0.204611  
  0.405619   0.460225   0.461065  
  0.406599   0.385739   0.211556  
  0.404687   0.459586   0.443864  
  0.406001    0.43609   0.388795  
  0.405324    0.40741   0.260603  
  0.405977   0.444852   0.417469  
  0.405814   0.437482   0.387791  
  0.405971   0.423509   0.341504  
  0.405774   0.427921   0.351566  
   0.40603   0.413518   0.304724  
   0.40579   0.421193   0.326554  
  0.405489   0.432246    0.35896  
  0.405576   0.419647   0.313757  
  0.405878   0.408803   0.282199  
  0.405285   0.434686   0.362232  
  0.405338   0.427541   0.336205  
  0.405222   0.447607   0.409309  
  0.405631   0.436831   0.380156  
  0.406073   0.406713   0.279739  
  0.406135   0.394792   0.236614  
  0.405758   0.400936   0.250207  
  0.405584   0.412832   0.288437  
  0.406356   0.403737   0.275654  
   0.40551    0.40424   0.255292  
   0.40509   0.434721   0.356635  
     0.405   0.444998   0.394562  
  0.405008   0.460645   0.452647  
  0.404592   0.451369   0.410973  
  0.406125   0.423718   0.348182  
  0.405384   0.417446   0.298967  
  0.405214   0.419445    0.30009  
   0.40549   0.393697   0.219118  
  0.405768   0.450437   0.431073  
  0.406278   0.398048   0.251781  
  0.406331   0.383277   0.198443  
  0.406765    0.38956   0.228653  
  0.406213   0.413272    0.30963  
  0.405165   0.428189   0.332899  
  0.405332   0.399191   0.233449  
  0.405469   0.448888   0.419315  
  0.406352   0.411613    0.30762  
  0.405013   0.431054   0.339106  
  0.405989   0.392918   0.226843  
  0.406013   0.384325   0.197075  
  0.406861   0.392077    0.24014  
  0.404462   0.459238   0.439255  
  0.405363   0.460596   0.458132  
  0.404845   0.460123   0.448246  
  0.404846   0.452299   0.419226  
  0.405106   0.446308   0.401929  
  0.405115   0.454132   0.430988  
  0.404977   0.453222   0.425098  
  0.404517   0.466178   0.465878  
  0.404915   0.467561    0.47592  
  0.404707     0.4671   0.471607  
   0.40647   0.384503   0.205007  
  0.406431   0.391888   0.231661  
  0.406211   0.396418   0.244201  
  0.406232    0.38903    0.21752  
  0.406336   0.390455   0.224596  
   0.40576   0.394433   0.227407  
   0.40563   0.402586    0.25275  
  0.405511   0.398962   0.237204  
  0.405602   0.390822   0.211862  
  0.405629   0.396696   0.232305  
  0.405711   0.463666   0.473962  
  0.405698   0.455333   0.446077  
  0.405907   0.454548   0.447475  
  0.405824   0.459282   0.461372  
  0.404688   0.446347   0.392946  
  0.404346   0.455342   0.422466  
  0.404583    0.44495   0.384854  
  0.404452    0.45028   0.404053  
  0.406786   0.378656   0.188029  
  0.406422    0.37657   0.175825  
  0.406615   0.377383   0.181218  
  0.405239   0.408305   0.260687  
  0.405283   0.413427   0.280344  
  0.405132    0.42105   0.302593  
  0.405203   0.414651    0.28145  
  0.405583   0.416237   0.301099  
  0.405674   0.406882   0.269317  
  0.405828   0.404863   0.266209  
  0.405724   0.414224   0.297976  
  0.405704   0.410549    0.28365  
  0.406688   0.387647   0.220108  
  0.407004   0.383161   0.207681  
  0.406913     0.3807   0.197211  
  0.405459   0.423596   0.324979  
  0.405533   0.425946   0.336361  
  0.405388   0.433468   0.360593  
  0.405311   0.431113   0.349221  
  0.405424   0.428532   0.342789  
  0.405835   0.414997   0.304374  
  0.405641    0.42672   0.342758  
  0.405683   0.420471   0.320367  
  0.405974   0.407756   0.280971  
  0.406052   0.410115    0.29223  
  0.405907   0.417353   0.315641  
  0.405942   0.412554   0.298304  
  0.405556   0.434542   0.369554  
   0.40578   0.424559   0.339058  
  0.405701   0.432377   0.365863  
  0.405668   0.429551   0.354308  
  0.405997   0.418517   0.323108  
  0.405874   0.425713   0.346537  
  0.405888   0.421536   0.331086  
   0.40588   0.430498   0.364649  
  0.405723    0.43716    0.38397  
  0.405792   0.431438   0.365256  
  0.405549   0.442863   0.399741  
   0.40578   0.443965   0.409437  
  0.405615   0.449671   0.425184  
  0.405663    0.44342   0.404583  
  0.406087   0.435616   0.390209  
  0.406048   0.429905   0.368491  
  0.406203   0.422702    0.34774  
  0.406126   0.429186   0.369165  
  0.405358   0.439931   0.384142  
   0.40515   0.439847   0.378398  
  0.405253   0.439892   0.381265  
  0.406003   0.401793   0.259399  
  0.406172   0.402378   0.265758  
  0.406088   0.402083   0.262582  
  0.405482    0.41514     0.2937  
  0.405458    0.41084   0.277127  
  0.405562   0.408861   0.273221  
  0.405636   0.382585   0.185075  
   0.40538   0.389694   0.203815  
  0.405493   0.385965   0.193795  
  0.404947    0.43803   0.365763  
  0.405041   0.439859   0.375605  
  0.404808   0.448193    0.40276  
  0.404875   0.443111   0.384269  
  0.406051   0.423615   0.344843  
  0.405911   0.436788   0.388293  
  0.405967   0.430203    0.36657  
  0.405366   0.422489   0.317592  
  0.405474   0.419365   0.309342  
  0.405219   0.431135   0.346417  
  0.405183    0.43549   0.362412  
  0.404574   0.459415   0.441555  
  0.404523   0.455304   0.425119  
   0.40469   0.453807   0.422166  
  0.405296   0.418446   0.299526  
  0.405412   0.405825   0.257946  
  0.405367   0.412133   0.278733  
  0.406083   0.418387    0.32557  
  0.406282   0.412441   0.308627  
  0.406222   0.417665   0.327898  
  0.406155   0.418025   0.326736  
  0.405343   0.448253   0.414304  
  0.405449   0.441402   0.391936  
  0.405879   0.447645   0.424275  
  0.406066   0.446294   0.424439  
     0.406   0.450552   0.436492  
  0.405983   0.440472   0.403135  
  0.406072   0.441037     0.4077  
  0.406282   0.408506   0.292637  
  0.406183   0.408621   0.290193  
  0.406131   0.413506   0.307876  
  0.406324   0.400892   0.263718  
  0.406181     0.4055   0.277974  
  0.406486   0.402291   0.273198  
  0.406548   0.396641   0.252144  
  0.406816   0.390818   0.234397  
  0.406741   0.396465   0.255428  
  0.406645   0.396551    0.25379  
  0.405185   0.460628    0.45538  
  0.405359   0.466559   0.478498  
  0.405137    0.46729    0.47794  
  0.405868   0.396925   0.238522  
  0.406064   0.393853   0.231731  
  0.405942   0.399355   0.248965  
  0.405251   0.397898   0.227218  
  0.405334   0.403299   0.247024  
  0.405249   0.403019   0.243577  
  0.405887    0.44222   0.406287  
  0.406466    0.40994   0.304586  
  0.406479   0.406233   0.289168  
  0.406794   0.398313   0.264158  
  0.406625   0.404041   0.284159  
  0.406496   0.394263   0.241904  
  0.404884   0.433566   0.344975  
  0.404908    0.43619   0.357011  
  0.404737   0.439342   0.365127  
  0.406171   0.383795   0.197766  
     0.406   0.378064   0.175306  
   0.40621   0.377088   0.174832  
  0.405866   0.386134   0.200845  
  0.405808   0.380116   0.179475  
  0.407052   0.388556   0.229285  
  0.406934     0.3933    0.24633  
  0.404268   0.463404   0.452464  
  0.404379      0.465   0.459815  
  0.405491   0.460413   0.459594  
  0.405541    0.46532   0.476944  
  0.404288   0.459548   0.438005  
  0.405283   0.422821    0.31593  
   0.40509   0.429624      0.336  
  0.405129   0.425249   0.319601  
  0.405204   0.424037   0.317762  
  0.405026   0.427339   0.323797  
  0.405129   0.431454    0.34477  
  0.405254   0.426975   0.331178  
  0.406316    0.41629    0.32615  
  0.407046   0.385682   0.217947  
  0.405406   0.396445   0.226279  
  0.405303   0.393666   0.214981  
  0.406379   0.407366   0.290906  
  0.405417   0.401131   0.242111  
  0.405413   0.454747   0.438731  
  0.405554   0.455046   0.442397  
  0.405262   0.454446   0.434851  
  0.405022   0.433826   0.350886  
  0.406006   0.388618   0.211956  
  0.405877   0.391523    0.21968  
   0.40612    0.38882   0.214743  
  0.156143  -0.184756   -0.11438  
  0.176849 -0.0202689 -0.00131916  
  0.197322   0.143648   0.110832  
  0.217894   0.307092   0.222208  
  0.477995  -0.180231  -0.113381  
  0.497535 -0.0160804 -0.000931734  
  0.517041   0.147722   0.110978  
  0.536325   0.311222   0.222407  
  0.170562  -0.287104  -0.126874  
  0.189821  -0.123622 -0.0154682  
  0.209316  0.0401707  0.0964359  
  0.228844   0.204327   0.208898  
  0.494031  -0.282817  -0.129516  
  0.514604  -0.119374 -0.0181434  
  0.535077  0.0445447  0.0940093  
  0.555786   0.209037   0.207078  
  0.503028  -0.183029  -0.113951  
  0.522138 -0.0180408 -0.000378168  
  0.541932   0.146467   0.112202  
  0.561636   0.310591   0.223811  
  0.222989  -0.222986  -0.161826  
  0.243331 -0.0588176 -0.0494275  
  0.263739   0.104919  0.0624836  
  0.283974   0.268617   0.174305  
  0.413311   -0.25357  -0.131144  
  0.433519 -0.0898221 -0.0193022  
  0.453889  0.0739947   0.092645  
  0.474186   0.238146   0.204997  
  0.149553  -0.286261  -0.131391  
  0.169257  -0.122138 -0.0197814  
  0.189051  0.0423708  0.0927992  
   0.20816    0.20736   0.206373  
   0.55575  -0.260147  -0.117621  
  0.575652  -0.095807 -0.00556815  
  0.595758  0.0690263   0.107398  
  0.616936   0.234625   0.221603  
    0.2683  -0.240669  -0.085217  
  0.288201 -0.0769061  0.0268223  
   0.30812  0.0868463   0.138661  
  0.328287   0.250767   0.250593  
  0.378273  -0.213905 -0.0976004  
  0.398354  -0.049944  0.0143659  
  0.418231   0.113904   0.126245  
  0.438104    0.27772   0.238233  
 0.0944271  -0.210271  -0.129198  
  0.115606 -0.0446729 -0.0149922  
  0.135713    0.12016  0.0979735  
  0.155615     0.2845   0.210026  
 -0.158158   -0.29145  0.0374897  
 -0.140883  -0.130614   0.144213  
 -0.121752   0.032464   0.255418  
 -0.103137   0.197703   0.370468  
-0.0970508  -0.223601  -0.382624  
-0.0765212 -0.0591929  -0.269027  
-0.0561047    0.10371  -0.157869  
-0.0345528   0.265803  -0.048696  
  0.752839  -0.239938   0.147862  
  0.774403  -0.077886   0.256954  
  0.794797  0.0849858   0.368073  
  0.815288   0.249354   0.481652  
  0.810871   -0.17342  -0.277243  
   0.82947 -0.00818014  -0.162221  
  0.848599   0.154903  -0.051008  
  0.865854   0.315755  0.0557652  
 -0.219077  -0.194129  -0.245177  
 -0.197824 -0.0270334  -0.127531  
 -0.177522    0.13743 -0.0147655  
 -0.157002   0.299757  0.0933828  
  0.484175  -0.243406  -0.381602  
  0.504453 -0.0798024  -0.270127  
   0.52436  0.0834288  -0.158631  
  0.544185    0.24699 -0.0463594  
  0.101574  -0.228841   0.146308  
  0.121057 -0.0654782   0.258376  
  0.140817  0.0975702    0.36967  
  0.161043   0.261062   0.480968  
  0.868314  -0.275418 -0.00100825  
  0.888832   -0.11309   0.107142  
  0.909134  0.0513735   0.219907  
  0.930386   0.218469   0.337551  
  0.465303  -0.269443  -0.125365  
  0.485724  -0.105878 -0.0137509  
  0.506218  0.0579025  0.0982305  
  0.526642    0.22216   0.210833  
  0.490921  -0.235346  0.0206908  
  0.511312 -0.0718374   0.132285  
  0.531815  0.0916691   0.244062  
  0.552206   0.255901   0.356666  
  0.398571  -0.221703  0.0370546  
  0.418786 -0.0580177   0.148975  
  0.439117   0.105585   0.260819  
  0.459531   0.269666   0.373152  
  0.649785  -0.276427 -0.00913654  
  0.671135  -0.113804   0.100935  
  0.691739  0.0498207   0.212889  
  0.712987   0.214839   0.326996  
  0.147608  -0.296611  -0.129446  
  0.166843  -0.133043 -0.0182655  
  0.186425  0.0310387  0.0939366  
  0.205617   0.195642   0.207114  
-0.0300117  -0.302635  -0.105054  
-0.0109807  -0.138938 0.00527592  
0.00863368  0.0257356    0.11811  
 0.0269821   0.191837   0.233555  
-0.0531955  -0.274775  -0.131059  
-0.0329922  -0.109665  -0.018648  
-0.0131507  0.0555524  0.0947142  
0.00561825   0.221608   0.209572  
 0.0344404  -0.285457 -0.0238895  
 0.0528195  -0.122695  0.0865123  
 0.0720795  0.0407079    0.19808  
 0.0913162   0.204982   0.310838  
  0.504406  -0.171443  -0.114212  
  0.523606 -0.00684484 -0.00104497  
   0.54319   0.157237   0.111156  
  0.562433   0.320809   0.222345  
  0.684181  -0.167501  -0.141137  
  0.702531 -0.00140173 -0.0256959  
  0.722146   0.163272  0.0871385  
  0.741178   0.326968    0.19747  
  0.705666  -0.197266  -0.117177  
  0.724435 -0.0312099 -0.00231935  
  0.744277   0.134007   0.111043  
   0.76448   0.299116   0.223454  
  0.612821  -0.180752  -0.214208  
   0.63208 -0.0164893  -0.101482  
  0.651346   0.146932  0.0101026  
  0.669779   0.309744   0.120584  
  0.319866  -0.223323  -0.105372  
  0.340093   -0.05928 0.00673398  
   0.36021   0.104604   0.118672  
  0.380245   0.268455    0.23067  
  0.176225  -0.198954  -0.129366  
  0.196662 -0.0346826 -0.0167373  
  0.217175   0.129072  0.0952307  
  0.237622   0.292609   0.206816  
0.00238363  -0.190363  -0.232097  
 0.0236178 -0.0253619  -0.118026  
 0.0442245   0.138269 -0.00606655  
 0.0655541   0.300917   0.104053  
  0.431939  -0.197492  -0.105123  
  0.451796 -0.0335429 0.00690403  
   0.47143   0.130223   0.118733  
  0.491024   0.293891   0.230531  
  0.510732  -0.284206  -0.130355  
  0.531204  -0.120627  -0.019021  
  0.551523  0.0436293   0.093446  
   0.57255   0.208568   0.207163  
  0.139314  -0.184234    -0.1145  
  0.160339  -0.019299 -0.000788448  
  0.180658   0.144956   0.111677  
  0.201129   0.308535   0.223013  
  0.208451   -0.26789  -0.121816  
  0.228003  -0.104263 -0.0100336  
  0.247609  0.0594576   0.101765  
  0.267466   0.223388   0.213772  
  0.335828  -0.243902   -0.25456  
  0.356179 -0.0799508  -0.142515  
  0.376321  0.0836963 -0.0306773  
  0.396404   0.247433  0.0814142  
 -0.228916  -0.200718  -0.327847  
  -0.20762 -0.0346213  -0.210993  
  -0.18716   0.128781  -0.099318  
  -0.16559   0.289608 0.00705647  
  0.679277  -0.217039  -0.373296  
  0.699189 -0.0536362  -0.261954  
  0.718657    0.10909  -0.151054  
  0.737101   0.271613 -0.0402776  
-0.0427334  -0.247125   0.139592  
-0.0244071 -0.0847218   0.250177  
-0.00493355  0.0779495   0.361016  
 0.0149749    0.24132   0.472346  
  0.876923  -0.265276  0.0853375  
  0.898489  -0.104447   0.191715  
  0.918948  0.0589555    0.30339  
  0.940241   0.225054    0.42024  
  0.221458  -0.218113   0.132977  
  0.241472 -0.0544572   0.245282  
  0.261502   0.108903   0.356916  
  0.281843   0.272607   0.468575  
  0.838881  -0.257696 -0.0555223  
  0.858744 -0.0935491  0.0553043  
  0.878941  0.0716872   0.168771  
  0.900272   0.238881   0.285528  
 -0.188936  -0.214536  -0.193137  
 -0.167604 -0.0473413 -0.0763792  
 -0.147407   0.117895  0.0370878  
 -0.127543   0.282041   0.147914  
  0.227915  -0.246875  -0.311436  
  0.248335 -0.0827822  -0.199024  
  0.268701  0.0807599 -0.0872123  
  0.288961   0.244404  0.0246363  
  0.441042   -0.22977  -0.241777  
    0.4612 -0.0659995  -0.130029  
  0.481001  0.0975235 -0.0183444  
  0.500772   0.261132  0.0937141  
  0.144455  -0.254849  -0.125077  
  0.164848 -0.0899171 -0.0123673  
  0.184802  0.0749179   0.100506  
  0.204101   0.239926   0.213757  
  0.352544  -0.242115  -0.125258  
  0.372621 -0.0782826 -0.0132808  
  0.392814  0.0855794  0.0986603  
  0.413079   0.249651   0.210833  
  0.507191  -0.215583  -0.121359  
   0.52649 -0.0505756 -0.00810853  
  0.546444   0.114259   0.104764  
  0.566837   0.279191   0.217473  
 -0.127505   -0.23781  -0.161445  
 -0.106465 -0.0714128 -0.0464717  
-0.0864386  0.0939725  0.0671105  
-0.0669855   0.259227   0.180071  
  0.778315  -0.234882 -0.0876774  
  0.797768 -0.0696265  0.0252837  
  0.817793  0.0957588   0.138866  
  0.838833   0.262155   0.253838  
  0.300828  -0.216467  0.0911206  
  0.320962 -0.0527556   0.203291  
  0.341117    0.11077   0.315072  
  0.361508   0.274647   0.427053  
  0.536368  -0.205148  -0.231139  
  0.556188 -0.0413533  -0.119272  
  0.575629   0.122013 -0.00774641  
  0.594788   0.285271   0.103767  
-0.0392543  -0.183533  -0.209322  
 -0.017375  -0.017678 -0.0938466  
0.00307987   0.146432  0.0185836  
 0.0243937   0.309074   0.128206  
  0.687996  -0.284699 -0.0353414  
  0.709312  -0.122063  0.0742678  
  0.729766  0.0420476   0.186698  
  0.751648    0.20791   0.302186  
 0.0967472  -0.260332 0.00788677  
  0.115798 -0.0971705   0.119306  
  0.135217  0.0661202   0.230764  
  0.155022   0.229887   0.342605  
  0.854449  -0.155831  -0.191827  
  0.873152  0.0110103 -0.0745201  
  0.892495   0.175249  0.0378799  
  0.911129    0.33731   0.145299  
  0.615496  -0.223352   0.163732  
  0.636213  -0.060288   0.274558  
  0.656642   0.102782   0.385937  
  0.676814   0.266852   0.498748  
 0.0827331  -0.235351  -0.344812  
  0.103099 -0.0711027  -0.231946  
  0.123621  0.0921654  -0.120361  
  0.144201   0.255434 -0.00919581  
 -0.200288  -0.312981 -0.0528507  
 -0.181653  -0.150923  0.0545618  
  -0.16231  0.0133152   0.166961  
 -0.143604   0.180158   0.284275  
 -0.238766  -0.230669  -0.430017  
 -0.218383 -0.0662957  -0.315703  
 -0.198123  0.0963159  -0.204916  
 -0.176536   0.257183 -0.0980163  
  0.840225  -0.201553  -0.371604  
  0.859584  -0.037723  -0.258871  
  0.878859   0.124768  -0.148309  
  0.896473   0.285739 -0.0406749  
 -0.189026  -0.261308   0.134032  
 -0.171385  -0.100353    0.24163  
 -0.152105  0.0621269   0.352181  
 -0.132726   0.225934   0.464911  
  0.889055  -0.232543   0.191405  
  0.910625 -0.0716737   0.298304  
   0.93088  0.0909323   0.409084  
  0.951245   0.255291   0.523376  
  0.371588  -0.253613  -0.394066  
   0.39198 -0.0897958  -0.282159  
  0.412137  0.0736479  -0.170425  
  0.432294   0.237376 -0.0581715  
-0.0519031  -0.303539 -0.0386433  
-0.0340615  -0.141251  0.0702408  
-0.0147749  0.0224586   0.182122  
0.00371672   0.187783   0.296746  
 0.0365851   -0.21069  -0.277568  
 0.0571955 -0.0461965  -0.164393  
 0.0778331   0.117143 -0.0527351  
 0.0988239   0.280075  0.0579806  
  0.630335  -0.254478  0.0496212  
  0.651412 -0.0916463   0.160173  
  0.672039  0.0716378   0.271775  
  0.692658   0.236146   0.385017  
  0.707269  -0.163454  -0.204215  
  0.725762 0.00187124  -0.089594  
   0.74505   0.165582  0.0222879  
  0.762894   0.327871   0.131176  
  0.849739  -0.186549  -0.117833  
  0.868893 -0.0198686 -0.00193846  
  0.888694    0.14547   0.111601  
  0.908896   0.310372    0.22347  
  0.433544  -0.212642   0.150357  
  0.453852 -0.0490426   0.262164  
  0.474198   0.114395   0.373917  
  0.494609   0.278395   0.486331  
 -0.197605  -0.286032  -0.131075  
 -0.177403   -0.12113 -0.0192061  
 -0.157602  0.0442093  0.0943334  
 -0.138448    0.21089   0.210229  
  0.702075  -0.186957   -0.28282  
  0.721258 -0.0227678  -0.170021  
   0.74052   0.140291 -0.0588039  
  0.758335   0.302414  0.0506918  
  0.753986   -0.26368   0.072365  
  0.775833  -0.101857   0.181015  
  0.796331  0.0614127   0.292579  
  0.817633   0.226566   0.407297  
 -0.101736  -0.201699  -0.311755  
 -0.080428 -0.0365481  -0.197063  
-0.0599227   0.126736 -0.0854812  
 -0.038089   0.288596  0.0232395  
-0.0556779  -0.277969  0.0458139  
-0.0379235  -0.115924   0.155175  
-0.0186598  0.0471109   0.266365  
0.000503569   0.211309    0.37921  
  0.163794  -0.234023  0.0647071  
  0.183451 -0.0705413   0.176779  
  0.203205  0.0927795   0.288311  
  0.223375   0.256426   0.399878  
 -0.106142  -0.194778  -0.198044  
 -0.084216 -0.0280048 -0.0813518  
-0.0639314   0.136738   0.031673  
-0.0432678   0.299993   0.141516  
  0.754795  -0.275644 -0.0490743  
  0.775457  -0.112389   0.060768  
  0.795742  0.0523544   0.173793  
  0.817666   0.219128   0.290486  
  0.855925  -0.164355  -0.149131  
  0.874827 0.00274561 -0.0319225  
  0.894348   0.167605  0.0811433  
  0.913714    0.33088   0.190421  
  0.522712  -0.216736    0.15875  
  0.543136 -0.0533176   0.270147  
   0.56353   0.109974   0.381755  
   0.58383   0.274032   0.494412  
 -0.202522  -0.306545 -0.0980181  
 -0.183155   -0.14327  0.0112588  
 -0.163634  0.0215889   0.124324  
 -0.144732   0.188691   0.241535  
  0.138195  -0.249139  -0.391366  
  0.158506 -0.0850692  -0.278726  
  0.178907  0.0782556  -0.167087  
  0.199321   0.241708 -0.0556281  
  0.243346  -0.255336  -0.398995  
  0.263779 -0.0913624   -0.28664  
  0.284102  0.0721019  -0.174863  
  0.304387   0.235747 -0.0629694  
  0.669289  -0.299456  -0.429198  
  0.526167  -0.287494  -0.287115  
  0.431001  -0.311828  -0.297668  
  0.474374  -0.325147  -0.437141  
    0.6114  -0.209691  -0.307903  
  0.580374  -0.230673  -0.376548  
  0.487835  -0.217941  -0.233464  
  0.464438  -0.236834  -0.313572  
  0.601248  -0.292122   -0.36387  
  0.570593  -0.312543  -0.432131  
  0.477735  -0.300091  -0.289375  
  0.454488  -0.318775  -0.369326  
  0.536613  -0.223719  -0.308695  
  0.526613  -0.305787  -0.364485  
  0.689251    -0.1352  -0.317656  
  0.546332  -0.123157  -0.175222  
  0.451155  -0.147842  -0.185919  
  0.494332  -0.161541  -0.325922  
  0.631216 -0.0460472  -0.196219  
  0.600519 -0.0672209  -0.265292  
  0.507847 -0.0541967  -0.121727  
  0.484661 -0.0731591  -0.201965  
  0.621353  -0.127739  -0.252075  
  0.590473  -0.148864  -0.321004  
  0.497885   -0.13601  -0.177617  
  0.474579  -0.154946  -0.257797  
  0.556673 -0.0601211  -0.197175  
  0.546683  -0.141847  -0.252971  
  0.709016  0.0277509  -0.206401  
  0.565966  0.0403503 -0.0634253  
  0.471143  0.0157699 -0.0741761  
  0.514464 0.00181041  -0.214408  
  0.650624   0.117003 -0.0849896  
  0.620178  0.0957538  -0.154088  
  0.527461   0.109245 -0.0101268  
  0.504498  0.0902075 -0.0903787  
  0.641002  0.0355056  -0.140497  
   0.61043  0.0142699  -0.209689  
  0.517705  0.0275361 -0.0658909  
   0.49463 0.00852882  -0.146169  
  0.576277   0.103081 -0.0857693  
  0.566544  0.0214918  -0.141432  
  0.727935   0.190356 -0.0958512  
  0.585165   0.203626  0.0478877  
  0.490842   0.179286  0.0375803  
  0.534217   0.165122  -0.102714  
  0.669387   0.279882  0.0261537  
  0.639437    0.25894 -0.0422473  
   0.54697   0.272715   0.101736  
   0.52428    0.25376  0.0217716  
  0.659998   0.198435 -0.0295788  
  0.629763   0.177271 -0.0984402  
  0.537162   0.190941  0.0456838  
  0.514336   0.171924 -0.0344547  
   0.59564   0.266376  0.0260613  
  0.585903   0.184673 -0.0300325  
  0.747416   0.353603  0.0162829  
  0.604976   0.367264   0.160065  
  0.510899    0.34328   0.149986  
  0.554601   0.329309  0.0102962  
   0.67964    0.36186  0.0825805  
  0.649943   0.341266  0.0144914  
  0.557149   0.354837   0.158044  
  0.534519   0.335992  0.0781971  
  0.605952   0.348595   0.082556  
  0.769072  -0.315652  -0.143081  
  0.828516  -0.335677  -0.109046  
  0.744668   -0.35387  -0.102865  
  0.546223  -0.341036  -0.173096  
  0.808044   -0.24728  -0.072696  
  0.665622  -0.248234 -0.0980587  
   0.79443  -0.267568 -0.0521188  
  0.659104   -0.27054 -0.0862132  
  0.798545  -0.327009  -0.127529  
  0.656328  -0.328841  -0.153359  
  0.784162  -0.345491  -0.105532  
  0.649524  -0.350396  -0.141143  
  0.730895  -0.259599 -0.0773958  
  0.721334  -0.339086  -0.131989  
   0.78794  -0.152323 -0.0313824  
  0.848815  -0.175848 -0.000900537  
  0.765283  -0.194398 0.00523584  
  0.565663  -0.178139 -0.0617176  
   0.82783 -0.0826415  0.0391301  
   0.68532 -0.0834956  0.0143192  
  0.814688  -0.103907  0.0581383  
   0.67941  -0.106639  0.0249416  
  0.817999  -0.165216 -0.0173676  
  0.675415  -0.166013 -0.0420472  
  0.804639  -0.186064 0.00235058  
  0.669305  -0.188866 -0.0309461  
  0.750938 -0.0953383  0.0340249  
  0.740952  -0.177715 -0.0220542  
  0.807744  0.0130221  0.0819664  
  0.868783 -0.0110512   0.111623  
  0.785567 -0.0301441   0.116972  
  0.585661 -0.0134324   0.050789  
  0.847987  0.0826911   0.152679  
  0.705401  0.0816566    0.12764  
  0.834909   0.061094   0.171402  
  0.699611  0.0582205   0.138025  
  0.837868 -8.65357e-05  0.0956233  
  0.695309 -0.000971896   0.070868  
  0.824757 -0.0215382   0.114457  
   0.68947 -0.0242924  0.0812689  
  0.771096  0.0697768   0.147367  
  0.760971 -0.0128682  0.0905099  
  0.828066   0.178791   0.196068  
  0.889146   0.154811   0.226191  
  0.806222   0.135285   0.231457  
  0.606129   0.151694   0.164434  
  0.869291   0.249595   0.268686  
  0.726755   0.247837   0.242484  
  0.856556   0.228164   0.288268  
  0.721331   0.224469   0.253493  
  0.858207   0.165753   0.209987  
  0.715753   0.164544   0.184853  
  0.845286   0.144137   0.229025  
  0.710102   0.141042   0.195447  
  0.792744    0.23643   0.263265  
  0.781491   0.152768   0.204857  
  0.850666   0.345852   0.311128  
  0.912914   0.325298   0.345045  
  0.829757   0.304909    0.34882  
  0.627663   0.317397   0.277732  
  0.881387    0.33442   0.326787  
  0.738018   0.331002   0.299032  
  0.869183   0.314345   0.347298  
  0.732589   0.308399   0.310346  
  0.804552   0.320942    0.32081  
  0.290823  -0.298558     0.0349  
  0.211185  -0.300376  0.0764818  
  0.153527  -0.316254  0.0082566  
  0.258284   -0.32272  -0.141337  
  0.261678  -0.216928   0.111964  
  0.279083  -0.226481 0.00290427  
  0.191464  -0.225258  0.0971841  
  0.217617  -0.236241 -0.00563026  
  0.251557  -0.299115  0.0556402  
  0.269089  -0.308568 -0.0532641  
  0.181196  -0.307511  0.0407011  
  0.207503  -0.318379 -0.0618872  
  0.236642  -0.225356  0.0513939  
  0.226527  -0.307528 -0.00490943  
  0.310905   -0.13456   0.147293  
  0.231513  -0.136214   0.189307  
   0.17368  -0.152223   0.120906  
   0.27827  -0.158768 -0.0291454  
  0.281768 -0.0532414    0.22422  
  0.299089 -0.0627633   0.115025  
  0.211315 -0.0616801   0.209403  
  0.237413 -0.0726157   0.106438  
  0.271758  -0.135029   0.168227  
  0.289101  -0.144589  0.0590363  
  0.201445    -0.1434   0.153462  
  0.227557  -0.154388  0.0505044  
  0.256585 -0.0617053   0.163572  
  0.246651  -0.143481   0.107595  
   0.33102  0.0290022   0.259183  
  0.251444  0.0272238    0.30113  
  0.193272  0.0111125   0.232534  
  0.298136 0.00496228  0.0827326  
  0.301858   0.110208   0.335936  
  0.319125   0.100863   0.226827  
  0.231213   0.101661   0.320985  
  0.257234  0.0909263    0.21814  
  0.291785  0.0284838   0.280097  
  0.309081   0.019043   0.170922  
  0.221214  0.0199872   0.265202  
  0.247283 0.00914749   0.162279  
  0.276544   0.101786   0.275278  
  0.266527  0.0200358   0.219426  
  0.351288   0.192636   0.371042  
  0.271643   0.190696   0.412789  
  0.213256   0.174547   0.344129  
  0.318179   0.168777   0.194625  
  0.322218   0.273986   0.447742  
  0.339422   0.264747   0.338752  
   0.25148   0.265328   0.432576  
  0.277402   0.254711   0.329906  
  0.312019   0.192049   0.391868  
  0.329247   0.182759   0.282784  
  0.241317   0.183437   0.376814  
  0.267285   0.172777   0.274038  
  0.296826   0.265558   0.387042  
  0.286656   0.183626   0.331171  
  0.371576   0.356745   0.482998  
  0.291727    0.35444   0.524257  
  0.233335   0.338391   0.455636  
  0.338342   0.332843   0.306561  
  0.332225   0.355982   0.503605  
  0.349464   0.346837   0.394702  
  0.261383   0.347195   0.488263  
  0.287443   0.336769   0.385803  
  0.306824   0.347564   0.442886  
 -0.139338  -0.321507  -0.218735  
 -0.201579  -0.300955  -0.252654  
 -0.118232  -0.280556  -0.256374  
 0.0837009  -0.293044  -0.185327  
 -0.157959   -0.22525  -0.176293  
-0.0154065  -0.223487  -0.150087  
 -0.145123  -0.203816  -0.195856  
-0.00988135  -0.200118  -0.161069  
 -0.170055  -0.310075  -0.234395  
-0.0266697  -0.306652  -0.206635  
 -0.157749  -0.289997  -0.254883  
-0.0211392  -0.284047  -0.217921  
-0.0813517  -0.212081  -0.170861  
-0.0931597  -0.296594  -0.228405  
 -0.116738  -0.154445  -0.103674  
 -0.177809  -0.130465    -0.1338  
-0.0946975  -0.110936  -0.139017  
  0.105235  -0.127341 -0.0720289  
 -0.136654 -0.0583448 -0.0602856  
 0.0059477 -0.0573057 -0.0352425  
 -0.123474 -0.0367464 -0.0789889  
 0.0118393 -0.0338694 -0.0456016  
 -0.146874  -0.141406  -0.117594  
-0.00440408  -0.140193 -0.0924559  
 -0.133852  -0.119789  -0.136613  
0.00134791  -0.116691  -0.103023  
-0.0597028 -0.0454277 -0.0549618  
-0.0700975  -0.128419  -0.112453  
-0.0964156  0.0113239  0.0104277  
 -0.157446   0.035397 -0.0192312  
-0.0740413  0.0544934 -0.0245308  
  0.125704  0.0377857  0.0416165  
 -0.116496   0.106988  0.0532633  
 0.0260287   0.107846   0.078078  
 -0.103253   0.128254  0.0342748  
 0.0320399   0.130989  0.0674818  
 -0.126535  0.0244329 -0.00322994  
 0.0160403  0.0253228  0.0215293  
 -0.113323  0.0458857 -0.0220444  
 0.0219798  0.0486432  0.0111547  
-0.0395447   0.119687  0.0583798  
-0.0495773  0.0372172 0.00189488  
-0.0766109   0.176669   0.123776  
 -0.137477   0.200194  0.0932924  
 -0.053756   0.218748   0.087205  
  0.145702   0.202492   0.154123  
-0.0967105   0.271626   0.165089  
 0.0457276   0.272585   0.190455  
-0.0829938   0.291914   0.144532  
 0.0523475    0.29489   0.178637  
 -0.106666   0.189562   0.109761  
 0.0359345   0.190364   0.134444  
-0.0932042   0.210411  0.0900622  
 0.0421456   0.213217   0.123369  
-0.0195004   0.283948     0.1698  
-0.0295583   0.202063   0.114459  
-0.0577429   0.339997   0.235475  
 -0.117178   0.360021   0.201437  
 -0.033142   0.378222    0.19531  
  0.165142   0.365389   0.265501  
-0.0872115   0.351354   0.219921  
 0.0550211   0.353191   0.245756  
 -0.072727   0.369839   0.197947  
  0.061927   0.374747   0.233568  
-0.0099399   0.363434   0.224393  
 -0.241098  -0.288622  -0.387917  
 -0.232907  -0.283403  -0.306983  
 -0.297829   -0.20271  -0.240435  
 -0.306177  -0.200848  -0.325582  
 -0.223389  -0.193265  -0.282947  
 -0.312303  -0.293045   -0.30602  
 -0.321205  -0.292327  -0.391796  
 -0.236546  -0.282099  -0.343958  
 -0.301225  -0.196807     -0.279  
 -0.316411   -0.28845  -0.345735  
 -0.217713  -0.116965  -0.267971  
 -0.208138  -0.110105  -0.185104  
 -0.277687 -0.0348166  -0.123121  
 -0.286397 -0.0342895  -0.209042  
 -0.202001 -0.0265132  -0.165374  
 -0.288049  -0.118197   -0.18119  
  -0.29674  -0.117201  -0.266675  
 -0.212204  -0.109227  -0.222651  
 -0.281293 -0.0293977  -0.161798  
 -0.291722  -0.112641  -0.219804  
 -0.197403  0.0473165  -0.154539  
 -0.187668   0.055353 -0.0705487  
 -0.257794   0.129997  -0.010069  
 -0.266482   0.129297   -0.09726  
 -0.181563   0.137415 -0.0531359  
 -0.267709  0.0476458  -0.066219  
 -0.276454  0.0475437  -0.152676  
 -0.191783  0.0556795  -0.108569  
 -0.261418    0.13483 -0.0493555  
 -0.271347   0.052749  -0.105135  
 -0.176907   0.209897 -0.0447536  
 -0.167423   0.219046  0.0405074  
 -0.238537   0.292392  0.0989717  
 -0.246767   0.290098 0.00946389  
 -0.160438   0.298811  0.0538115  
 -0.247571   0.211584  0.0450166  
 -0.256167   0.209997 -0.0431329  
 -0.171406   0.218773 0.00178229  
 -0.242017   0.296319  0.0582887  
 -0.251095   0.215876 0.00514569  
 -0.154058   0.365881  0.0591068  
 -0.145385   0.374953   0.144303  
 -0.225755   0.366842   0.146879  
 -0.232981   0.362365  0.0555193  
 -0.148818   0.374257   0.105146  
 -0.228431    0.36884   0.104462  
  0.480903  -0.252289  -0.452624  
  0.666405  -0.236209  -0.440527  
  0.471256  -0.333749  -0.507718  
  0.657016  -0.317814  -0.495527  
  0.573092  -0.244767  -0.446418  
  0.563665  -0.326167  -0.501343  
  0.501232 -0.0886712  -0.341101  
   0.68671 -0.0729764  -0.329558  
  0.491074  -0.170321  -0.396791  
   0.67663  -0.154362  -0.384942  
  0.593409 -0.0813391   -0.33522  
  0.583283  -0.162866  -0.390753  
  0.521278  0.0745482  -0.229591  
  0.706413  0.0897085  -0.218678  
  0.511322 -0.00705467  -0.285369  
  0.696685  0.0083901   -0.27409  
  0.613279  0.0816253  -0.224005  
  0.603445 0.00015158  -0.279634  
  0.541251   0.238293    -0.1172  
  0.725303   0.252669  -0.107241  
  0.531231    0.15625  -0.173598  
  0.715928   0.171047  -0.163204  
   0.63281   0.245107  -0.111864  
  0.623026   0.163177  -0.168203  
  0.551872   0.320622 -0.0601158  
  0.736051   0.334997 -0.0499466  
  0.643581   0.327503 -0.0545466  
 -0.053018  -0.329044  0.0830653  
 0.0910023   -0.31118  0.0894759  
  0.136896   -0.21583   0.210557  
-0.0220373  -0.228122   0.202686  
 0.0301996  -0.237952   0.142688  
  0.126221  -0.298201   0.153354  
-0.0327798  -0.310439   0.145369  
 0.0196761  -0.320216  0.0859324  
 0.0578542  -0.221802   0.206545  
  0.047057  -0.304189   0.149152  
-0.0336574  -0.165941   0.195054  
  0.111356   -0.14706   0.202605  
  0.156752 -0.0521504   0.322914  
-0.00318821 -0.0651991   0.314064  
  0.049163 -0.0749888   0.254222  
  0.146866  -0.133811   0.266972  
-0.0126956  -0.146523   0.258615  
 0.0396919  -0.156411   0.198734  
 0.0772714 -0.0583954   0.318582  
 0.0675694  -0.139906   0.262837  
-0.0147649 -0.00341122   0.305494  
  0.130858  0.0160451   0.314039  
  0.176745   0.110977   0.434325  
 0.0165134   0.097459   0.424914  
 0.0687538  0.0878581   0.365281  
   0.16667  0.0294079   0.378646  
0.00653652  0.0161049   0.369462  
  0.058868  0.0064266   0.309733  
 0.0971124   0.104506   0.429724  
 0.0870834  0.0230438    0.37417  
  0.004999   0.159491   0.416707  
    0.1509   0.179224   0.425374  
  0.197063   0.274512   0.545714  
 0.0368328   0.260663   0.535852  
 0.0888536   0.251251   0.476481  
  0.186895   0.192588   0.489955  
 0.0265968   0.178826   0.480276  
 0.0787752   0.169451   0.420962  
   0.11744   0.267889   0.540859  
  0.107232   0.185995   0.485213  
 0.0249412   0.323799   0.528267  
  0.170738   0.342766    0.53639  
  0.206627   0.355944   0.600727  
 0.0462018   0.342261    0.59082  
 0.0986316   0.333219   0.532094  
  0.126816   0.349277   0.595736  
  0.865392  -0.341551  0.0332843  
  0.856698  -0.350616 -0.0519302  
  0.949861  -0.268052 -0.00658382  
  0.958097  -0.265759  0.0829319  
   0.87176  -0.274476    0.03857  
   0.93708  -0.342503 -0.0544917  
  0.944319  -0.338034  0.0368695  
  0.860141  -0.349924 -0.0127659  
  0.953344  -0.271981  0.0341023  
  0.939762  -0.344505 -0.0120744  
  0.888235  -0.185564   0.137149  
  0.878733  -0.194707  0.0518682  
  0.969117  -0.105656   0.102458  
  0.977811  -0.104961   0.189656  
  0.892882  -0.113079   0.145519  
  0.958894  -0.187243  0.0473717  
  0.967496  -0.185661    0.13553  
  0.882725  -0.194438   0.090601  
  0.972744  -0.110492   0.141747  
  0.962421  -0.191539  0.0872463  
  0.908731 -0.0229829   0.246934  
  0.898978 -0.0310132   0.162925  
  0.989009  0.0591577   0.215509  
  0.997725   0.058626   0.301438  
   0.91332  0.0508491   0.257757  
  0.979031 -0.0233048   0.158608  
  0.987782  -0.023207   0.245072  
  0.903102 -0.0313436   0.200952  
  0.992618  0.0537352   0.254189  
  0.982672 -0.0284115   0.197527  
   0.92904   0.141299   0.360366  
  0.919448   0.134445    0.27748  
   1.00915    0.22705   0.332822  
    1.0175   0.225186   0.417977  
  0.934706   0.217601   0.375328  
  0.999372   0.142538   0.273579  
   1.00807   0.141538   0.359072  
  0.923522   0.133563   0.315034  
   1.01255   0.221145   0.371389  
   1.00305   0.136978   0.312195  
  0.952418    0.31295   0.480308  
  0.944213   0.307739   0.399355  
   1.02362   0.317383   0.398406  
   1.03253   0.316657   0.484183  
  0.947859   0.306431   0.436337  
   1.02773   0.312782   0.438121  
  0.160451   -0.36881  -0.182945  
 0.0244262  -0.366749 -0.0798727  
-0.0613299  -0.383286 -0.0935714  
  0.137524  -0.377908   -0.18529  
 0.0976207  -0.287822 -0.0728222  
  0.162144  -0.293244  -0.130956  
-0.0060734  -0.295739 -0.0315259  
 0.0399216  -0.303656 -0.0829651  
 0.0875296  -0.369336  -0.128874  
  0.152053  -0.374765  -0.186933  
-0.0158465  -0.376402 -0.0871208  
 0.0300058  -0.384287  -0.138481  
 0.0714737  -0.297036 -0.0790966  
  0.061458  -0.378175  -0.134941  
  0.180202  -0.205412  -0.071128  
 0.0435678  -0.204183  0.0313326  
-0.0432745  -0.222736  0.0154171  
   0.15719  -0.214951   -0.07389  
  0.116441  -0.124673  0.0381267  
   0.18137  -0.129747   -0.01968  
 0.0119822  -0.133231  0.0781494  
 0.0584321  -0.140631  0.0272236  
  0.107018  -0.206323 -0.0173054  
  0.171745  -0.211581  -0.075307  
0.00280093  -0.214703  0.0231811  
  0.049046  -0.222362 -0.0280145  
 0.0901079  -0.133977  0.0314723  
 0.0807256   -0.21565 -0.0238437  
  0.199551 -0.0417456  0.0403635  
 0.0623978 -0.0410408    0.14209  
-0.0244455 -0.0594954   0.125879  
   0.17664 -0.0510294  0.0376669  
   0.13578  0.0389349   0.149887  
  0.200898  0.0341696  0.0923547  
 0.0312438  0.0302941   0.189846  
 0.0778228  0.0233065   0.139333  
  0.126076 -0.0429024  0.0938374  
  0.191128  -0.047812  0.0361908  
  0.021574 -0.0515372    0.13374  
 0.0681188 -0.0587207  0.0830314  
  0.109454  0.0297673    0.14338  
 0.0997587 -0.0521493  0.0872122  
  0.219047   0.122158   0.152688  
 0.0816769   0.122632   0.254417  
-0.00535419   0.104706   0.239109  
  0.196057   0.113213   0.150531  
  0.155134   0.203173   0.262523  
  0.220267   0.198516   0.205141  
 0.0501001   0.195026   0.303414  
 0.0965702   0.188324   0.253247  
  0.145424     0.1209   0.206204  
  0.210577   0.116235   0.148767  
 0.0407218    0.11236   0.246496  
 0.0872869    0.10555   0.196187  
  0.128517   0.194342   0.256581  
  0.118999   0.111851   0.199947  
  0.239065   0.286761   0.264885  
  0.101693   0.288039   0.367099  
 0.0137688   0.272284   0.353762  
  0.215719   0.278318   0.263127  
  0.165445   0.285906   0.318616  
  0.230455   0.281061   0.261132  
 0.0604157   0.278667   0.359954  
  0.106698   0.271768   0.309627  
  0.138791    0.27738   0.312777  
  0.146233  -0.267331  -0.170367  
-0.00761234  -0.273904  -0.288575  
 0.0266808  -0.293834  -0.333983  
   0.16634  -0.281387  -0.185406  
 0.0749158  -0.186014   -0.17685  
  0.168126   -0.19046  -0.116935  
 0.0200248  -0.199279  -0.251364  
   0.10278  -0.204179  -0.208559  
 0.0649839  -0.269025  -0.233018  
  0.158252  -0.272942  -0.172939  
 0.0101392  -0.282558  -0.307766  
 0.0929049  -0.286947  -0.264743  
  0.089877  -0.193717  -0.188634  
 0.0800145  -0.276567  -0.244785  
  0.166506  -0.102387 -0.0578749  
 0.0131022  -0.107548  -0.174949  
 0.0468878  -0.128166   -0.22087  
  0.186412  -0.116705 -0.0730533  
 0.0959253 -0.0212474 -0.0632742  
   0.18867 -0.0261157 -0.00414206  
   0.04091  -0.034578   -0.13783  
  0.123349 -0.0397692 -0.0956393  
 0.0854674  -0.103414  -0.120042  
   0.17838  -0.108174 -0.0605576  
 0.0304972  -0.116642  -0.194509  
  0.113042  -0.121782  -0.152064  
  0.110633 -0.0291693 -0.0754531  
  0.100254  -0.111243  -0.132028  
  0.187088  0.0617232  0.0549253  
 0.0338976  0.0565273  -0.061749  
   0.06747  0.0355202  -0.108348  
  0.206908  0.0472184  0.0393624  
  0.116508   0.142544  0.0488239  
  0.209174   0.137705   0.107902  
 0.0615544   0.128881 -0.0260454  
  0.143973   0.123786  0.0162091  
  0.106207  0.0607012 -0.00698392  
  0.198917  0.0558225  0.0520211  
 0.0511964  0.0472104 -0.0816773  
  0.133635  0.0420433 -0.0395455  
  0.131254   0.134485  0.0365008  
  0.120925  0.0527008 -0.0192693  
  0.207633    0.22546   0.166508  
 0.0548365   0.219798  0.0490615  
 0.0883697   0.198668 0.00257891  
  0.227458   0.210869   0.150984  
   0.13745   0.305624   0.159655  
  0.229689   0.301192   0.219393  
 0.0827325   0.291656  0.0843926  
   0.16469   0.287033    0.12742  
  0.126981   0.224227   0.104251  
  0.219475   0.219503   0.163616  
 0.0721443   0.210397  0.0291678  
  0.154392   0.205454  0.0717624  
  0.152095   0.297639   0.147535  
   0.14171    0.21615  0.0919875  
  0.227682   0.388576   0.278112  
 0.0753563   0.381609   0.159632  
  0.108504   0.361424   0.113884  
  0.247392   0.374345   0.262805  
  0.147201   0.386751   0.215431  
  0.239475   0.382835   0.275355  
 0.0924847    0.37275   0.140178  
  0.174393   0.368587   0.183374  
  0.161831   0.379026    0.20343  
  0.484243  -0.364296  -0.185418  
  0.639976  -0.357085 -0.0646965  
  0.620646  -0.335768 -0.00625278  
  0.455523  -0.351195  -0.181354  
  0.576315  -0.281294 -0.0657253  
  0.477271  -0.277302   -0.13181  
   0.64018   -0.26655  0.0168935  
  0.552812  -0.262995  -0.031028  
  0.566564  -0.362405  -0.121493  
  0.467479  -0.358951  -0.187773  
  0.630417  -0.347578 -0.0388613  
  0.543109  -0.344522 -0.0869768  
  0.563739  -0.273422 -0.0522014  
  0.554004  -0.354784  -0.108088  
  0.504293  -0.201186 -0.0738182  
  0.660518  -0.195326  0.0458246  
  0.640844   -0.17313   0.104936  
  0.475457  -0.187688 -0.0695203  
   0.59727  -0.118226  0.0450836  
  0.497769  -0.113799 -0.0203023  
  0.661419  -0.103847   0.127208  
  0.573559 -0.0997781   0.080134  
  0.586792  -0.199906 -0.0103346  
  0.487477  -0.195604 -0.0760259  
  0.650809  -0.185336  0.0720472  
  0.563127  -0.181435  0.0246034  
  0.584603   -0.11029  0.0587946  
  0.574138  -0.191948 0.00332477  
  0.524838 -0.0374485   0.037763  
  0.681461 -0.0320671   0.156612  
  0.661775 -0.0100544   0.215746  
  0.495979 -0.0240098  0.0421293  
  0.617852  0.0455643   0.157182  
  0.518262  0.0500357  0.0917486  
  0.682057  0.0595837   0.238964  
  0.594188   0.063769   0.191977  
   0.60757 -0.0363848   0.100889  
  0.508019 -0.0319084  0.0355849  
  0.671776 -0.0221936   0.182817  
    0.5839  -0.018041   0.135879  
  0.605226  0.0533605   0.170747  
  0.594934 -0.0285089   0.114559  
  0.545421   0.126665   0.150569  
  0.702257    0.13201   0.269823  
  0.682346   0.153597    0.32827  
   0.51646   0.139927   0.154537  
  0.638873   0.210344   0.270781  
  0.538797   0.214374   0.204529  
  0.702967   0.224312   0.352568  
  0.614773   0.228199   0.304934  
  0.628313   0.127734   0.213959  
  0.528548   0.132095   0.148159  
  0.692474   0.141647   0.295663  
  0.604501   0.145784   0.248418  
     0.626   0.217926   0.283962  
  0.615611   0.135439   0.227336  
  0.565698   0.291615   0.263066  
  0.722994   0.298417   0.383498  
  0.702577     0.3194   0.441516  
  0.536529   0.304564   0.266861  
  0.648809   0.293372   0.326957  
  0.548674    0.29684   0.260527  
  0.712864   0.307676   0.409024  
  0.624648   0.310998   0.361133  
  0.635865   0.300804   0.340125  
  0.467779  -0.262649  -0.169365  
  0.602448  -0.263762  -0.270446  
  0.697214  -0.247949  -0.261226  
  0.494305  -0.254111  -0.170223  
  0.550326  -0.179006  -0.166286  
  0.488016  -0.174439  -0.111121  
  0.657269  -0.170722  -0.209113  
  0.614009  -0.164016  -0.160561  
   0.54002  -0.261709  -0.222368  
  0.477831  -0.256971  -0.167108  
   0.64695  -0.254323  -0.265628  
   0.60388  -0.247453  -0.216937  
  0.579302  -0.170137  -0.162359  
   0.56903   -0.25315  -0.218544  
  0.487797 -0.0980683  -0.057178  
  0.622475 -0.0984148  -0.157811  
  0.716341  -0.080376  -0.146581  
  0.513971 -0.0890177 -0.0576351  
  0.569698 -0.0147774 -0.0536727  
  0.507397 -0.0101006 0.00164988  
  0.676139 -0.00600184 -0.0955739  
  0.632761 0.000998089 -0.0466543  
  0.560047 -0.0967434  -0.109981  
  0.497713 -0.0921648 -0.0547556  
  0.666658 -0.0880671  -0.152217  
  0.623296 -0.0812445  -0.103507  
   0.59838 -0.00557322  -0.049181  
   0.58883 -0.0876554   -0.10574  
  0.507305    0.06584  0.0551402  
  0.641763  0.0652668 -0.0454888  
  0.735433  0.0838259 -0.0333513  
  0.533392  0.0752232  0.0552233  
  0.589048   0.148844  0.0580987  
  0.526932    0.15382   0.113686  
  0.695404   0.157532  0.0161311  
  0.652153   0.164936  0.0654556  
  0.579406  0.0670654 0.00237845  
   0.51717  0.0718824  0.0578122  
   0.68581  0.0758323 -0.0394663  
  0.642466  0.0830256  0.0096468  
  0.617731   0.158178  0.0627318  
  0.608077  0.0763455 0.00698686  
  0.526672   0.229519    0.16665  
  0.660616   0.228438  0.0653144  
  0.754264   0.247068  0.0771135  
  0.552846   0.239147   0.166784  
  0.607907   0.312024   0.169094  
  0.546175   0.317329   0.224981  
  0.713489   0.320071   0.125861  
  0.670669   0.327966   0.175653  
  0.598486   0.230506   0.113552  
  0.536565   0.235658   0.169322  
  0.704593   0.239014  0.0711179  
  0.661541   0.246669   0.120697  
  0.636391   0.321256   0.173335  
  0.627123   0.239857   0.118061  
  0.546435   0.392938   0.278478  
   0.67981   0.391075   0.176585  
  0.772323   0.407627    0.18611  
  0.572516   0.402114   0.278192  
  0.618003    0.39356   0.225152  
  0.556267   0.398861   0.280961  
  0.723281   0.400771    0.18148  
  0.680587   0.408604   0.231173  
  0.646412   0.402417   0.229189  
  0.240686  -0.283012  -0.175966  
  0.230689  -0.284485  -0.160469  
  0.230609  -0.364844  -0.232012  
  0.220619  -0.366111  -0.216416  
  0.237123  -0.284793  -0.170119  
  0.227055  -0.366529  -0.226123  
  0.260298  -0.119284 -0.0642675  
  0.250357  -0.120659 -0.0488357  
  0.250504  -0.201181  -0.120091  
  0.240516  -0.202645  -0.104662  
  0.256746  -0.121041   -0.05847  
  0.246935   -0.20297  -0.114283  
  0.279993  0.0446529  0.0477188  
  0.270126  0.0434684  0.0633396  
   0.27014 -0.0373264 -0.00834615  
  0.260252 -0.0386075 0.00715466  
  0.276471   0.042976  0.0535988  
  0.266611 -0.0390439  -0.002522  
  0.299703   0.208744   0.160017  
  0.289684   0.207802   0.176022  
  0.289826   0.126659   0.103889  
  0.279919   0.125584   0.119704  
  0.296107   0.207169   0.166074  
  0.286282   0.125026    0.10986  
  0.309832   0.290958   0.215977  
  0.299741   0.290103   0.231952  
  0.306214   0.289428   0.222018  
  0.416345  -0.279789  -0.189545  
   0.39968  -0.272898  -0.197881  
  0.406476  -0.361524  -0.245505  
  0.389816  -0.354768   -0.25387  
  0.406905  -0.277094   -0.19669  
  0.397036  -0.358914  -0.252672  
  0.436632  -0.116078 -0.0778401  
  0.419898   -0.10912 -0.0860698  
  0.426465  -0.197985  -0.133681  
   0.40975  -0.191028  -0.141956  
  0.427162  -0.113352 -0.0849289  
  0.417002  -0.195255  -0.140791  
   0.45694  0.0479211  0.0342815  
  0.440213  0.0548063  0.0259473  
   0.44678  -0.034097 -0.0218763  
  0.430056 -0.0271701 -0.0301233  
   0.44748  0.0505986  0.0271289  
  0.437319 -0.0313925 -0.0289781  
  0.477344   0.212176   0.146885  
  0.460472   0.218953   0.138301  
  0.467148   0.129994  0.0906111  
  0.450366   0.136835   0.082133  
  0.467796   0.214781   0.139577  
  0.457657   0.132641  0.0833725  
   0.48727   0.294445   0.202831  
  0.470396   0.301138   0.194298  
   0.47771   0.296998   0.195549  
  0.234309  -0.187867 -0.0542598  
  0.245738  -0.195057 -0.0520797  
  0.224383  -0.270134  -0.110206  
  0.235818  -0.277256  -0.108078  
  0.240786  -0.190473 -0.0498159  
  0.230874  -0.272698  -0.105788  
  0.254711  -0.023614  0.0583409  
  0.266009 -0.0309033  0.0602905  
  0.244504  -0.105686 0.00201275  
  0.255849  -0.112931 0.00409663  
  0.261109 -0.0262871   0.062642  
  0.250928  -0.108329 0.00639345  
  0.275019   0.140384   0.170462  
  0.286342   0.133011   0.172305  
  0.264871  0.0584037   0.114498  
  0.276174  0.0510676   0.116363  
  0.281436   0.137658   0.174699  
  0.271274  0.0557013    0.11875  
  0.295306   0.304096   0.282168  
  0.306574   0.296773   0.284106  
  0.285186   0.222291   0.226303  
  0.296498   0.214911   0.228184  
  0.301702   0.301391   0.286454  
  0.291601   0.219556   0.230557  
  0.305175   0.385833   0.338129  
  0.316431   0.378636   0.340095  
  0.311568   0.383207   0.342435  
  0.409035  -0.184685  -0.065872  
  0.420919  -0.183589 -0.0833436  
   0.39891  -0.266892  -0.121832  
  0.410862  -0.265887  -0.139274  
  0.413464  -0.183099 -0.0727911  
  0.403359  -0.265353  -0.128736  
  0.428753 -0.0205954  0.0464188  
  0.440481 -0.0192575  0.0293339  
  0.418916  -0.102602 -0.0097471  
  0.430686  -0.101372 -0.0270282  
  0.433106 -0.0189092  0.0396758  
  0.423292  -0.100959 -0.0165814  
  0.448455   0.143347   0.158407  
  0.460252    0.14487   0.141508  
  0.438609  0.0613859   0.102483  
  0.450356  0.0628183  0.0855178  
  0.452836    0.14511   0.151744  
  0.442969  0.0631113   0.095795  
   0.46808   0.307083   0.270115  
  0.479923   0.308697   0.253145  
  0.458256   0.225247   0.214235  
  0.470094   0.226857   0.197336  
  0.472468   0.308867   0.263401  
  0.462651   0.227041   0.207561  
  0.478156    0.38892   0.326159  
  0.489992   0.390326   0.309092  
  0.482534   0.390607   0.319405  
  0.907627  -0.222971 -0.0800151  
  0.941643  -0.258253 -0.0334843  
  0.898021  -0.304765  -0.136088  
  0.929564   -0.33478 -0.0835702  
  0.923822  -0.242847  -0.058531  
  0.912692  -0.321613  -0.111418  
  0.927016 -0.0573434  0.0335864  
  0.960831 -0.0948589  0.0770016  
   0.91711  -0.140174 -0.0232474  
  0.950669  -0.176905  0.0213377  
  0.943035 -0.0781641  0.0536024  
  0.932956  -0.160586 -0.00264479  
  0.946972   0.108213   0.147366  
  0.980705   0.070265   0.190373  
  0.936942  0.0254202  0.0904178  
  0.970737 -0.0123211   0.133414  
  0.962933  0.0872627   0.167262  
  0.952936 0.00454762   0.110265  
  0.967579   0.274632    0.26207  
   1.00088   0.237814   0.307039  
  0.957071   0.191289   0.204532  
  0.991061   0.153756   0.248389  
  0.983335   0.254282   0.283068  
  0.973196   0.170616   0.224915  
  0.978756   0.358507    0.32007  
   1.01485   0.327022   0.371249  
  0.996092   0.341193   0.344447  
  0.324322  -0.209066   0.190301  
   0.19783  -0.212509   0.208741  
  0.314196  -0.291191    0.13402  
  0.187269  -0.294801   0.151777  
  0.261213  -0.210443   0.199033  
  0.250852  -0.292637   0.142409  
  0.344569 -0.0453266   0.302476  
   0.21788 -0.0487359   0.321132  
  0.334442  -0.127125   0.246478  
  0.207883   -0.13047   0.265117  
  0.281387 -0.0466554   0.311348  
  0.271314  -0.128433   0.255322  
  0.364811   0.118122   0.414242  
  0.237966   0.114545   0.432711  
  0.354675  0.0363934   0.358361  
  0.227869  0.0328992   0.376946  
  0.301559   0.116741   0.423053  
  0.291438  0.0350377   0.367216  
  0.385225   0.281968     0.5263  
  0.258301   0.278206   0.544334  
  0.374991   0.199951   0.470217  
  0.248138   0.196235   0.488461  
  0.321943   0.280517    0.53491  
  0.311732   0.198504   0.478921  
   0.39536   0.364103   0.582329  
  0.268058   0.359756   0.599547  
  0.331874   0.362289   0.590471  
 -0.256249   -0.25029  -0.169675  
  -0.28955  -0.213472  -0.214645  
 -0.267427  -0.334166  -0.227675  
 -0.303518  -0.302683  -0.278856  
 -0.272003   -0.22994  -0.190673  
 -0.284761  -0.316852  -0.252052  
 -0.235641 -0.0838704 -0.0549702  
 -0.269371  -0.045923 -0.0979784  
 -0.245741  -0.166946  -0.112136  
 -0.279727  -0.129414  -0.155995  
 -0.251601   -0.06292 -0.0748671  
 -0.261863  -0.146273   -0.13252  
 -0.215686  0.0816863  0.0588095  
 -0.249496   0.119201  0.0153931  
 -0.225612 -0.00107716  0.0019781  
 -0.259402   0.036663 -0.0410197  
 -0.231703   0.102507   0.038793  
 -0.241604  0.0197952 -0.0178698  
 -0.196297   0.247314   0.172411  
 -0.230308   0.282594   0.125879  
  -0.20578   0.164517   0.115643  
 -0.239335   0.201247   0.071057  
 -0.212489    0.26719   0.150926  
 -0.221623   0.184929  0.0950402  
 -0.186691   0.329107   0.228483  
 -0.218229   0.359121   0.175964  
  -0.20136   0.345954   0.203813  
  0.127746  -0.332185  -0.448236  
  0.233065  -0.337908  -0.455455  
   0.21773  -0.329427  -0.367768  
  0.130536  -0.257751  -0.465529  
   0.18362  -0.247883  -0.352013  
  0.184809  -0.259643  -0.471136  
  0.234869   -0.25153  -0.355337  
  0.119955  -0.340933  -0.523044  
  0.173325  -0.330671  -0.408582  
  0.174286   -0.34252  -0.528312  
  0.224632  -0.334116  -0.411738  
  0.182973  -0.254214  -0.411889  
  0.172539  -0.337117  -0.468792  
   0.14836  -0.166903  -0.334817  
  0.253607  -0.173226  -0.342687  
  0.238148  -0.164697  -0.255126  
  0.150799 -0.0938655  -0.353046  
  0.204012 -0.0837791  -0.239469  
  0.205145 -0.0957499  -0.358736  
  0.255302 -0.0874947  -0.242945  
  0.140715  -0.175691   -0.40916  
  0.193835  -0.165664  -0.295584  
  0.195012  -0.177596  -0.414845  
  0.245122  -0.169385  -0.299023  
  0.203344 -0.0902201  -0.299407  
  0.193191  -0.172076  -0.355501  
  0.168666 -0.00338423  -0.222812  
  0.273935 -0.00961779  -0.230712  
   0.25851 -0.000997723  -0.143078  
  0.171107  0.0693507  -0.241495  
  0.224413  0.0796604  -0.127728  
  0.225441  0.0675737  -0.247077  
  0.275646  0.0760031  -0.131153  
  0.160904 -0.0122465  -0.297214  
  0.214189 -0.00204251  -0.183539  
  0.215261 -0.0140802  -0.302871  
  0.265467 -0.00573364  -0.187013  
  0.223701   0.073156   -0.18771  
  0.213494 -0.00851692  -0.243502  
  0.189175   0.159925   -0.11136  
   0.29428   0.153878  -0.118943  
  0.278884   0.162547 -0.0313236  
  0.191487   0.232704  -0.130071  
   0.24474   0.243218 -0.0160525  
  0.245758    0.23107  -0.135418  
  0.295917   0.239644 -0.0192834  
  0.181344   0.151031  -0.185802  
  0.234644   0.161397 -0.0719154  
  0.235653   0.149314  -0.191266  
  0.285826   0.157782 -0.0752537  
   0.24405   0.236685 -0.0760468  
  0.233918   0.154885  -0.131894  
  0.208803   0.323467 0.000241676  
  0.314171    0.31771 -0.00696425  
  0.298655   0.326281  0.0806209  
  0.200972    0.31469 -0.0744718  
  0.254353   0.325035   0.039883  
  0.255479   0.313096   -0.07969  
  0.305638   0.321555  0.0367015  
  0.253635   0.318586 -0.0201983  
 0.0726413  -0.318385  -0.401339  
  0.109819  -0.242834    -0.3666  
 0.0136897  -0.250574  -0.453346  
 0.0995387  -0.325847  -0.423229  
0.00300218  -0.334259  -0.511181  
 0.0720865  -0.254374  -0.457922  
 0.0613925  -0.337894  -0.515726  
 0.0929644  -0.152946  -0.288122  
  0.130147 -0.0786591  -0.253817  
 0.0336369 -0.0867634   -0.34081  
  0.120014   -0.16048  -0.309926  
 0.0236183  -0.168482  -0.396888  
 0.0921849 -0.0905354  -0.345418  
 0.0821349  -0.172329  -0.401524  
  0.113325  0.0105655  -0.176019  
  0.150606  0.0846445  -0.142203  
 0.0539385  0.0761624   -0.22959  
   0.14034 0.00302434  -0.197892  
 0.0436907 -0.00527752  -0.285075  
  0.112496  0.0725317  -0.234024  
  0.102265 -0.00898857  -0.289634  
  0.134011   0.173759 -0.0648188  
  0.171081   0.248035 -0.0308946  
 0.0746366   0.239108   -0.11887  
  0.160934   0.166273 -0.0865577  
  0.064302   0.157633  -0.174237  
  0.133009   0.235692  -0.122904  
  0.122781   0.154124  -0.178482  
  0.153762   0.337037  0.0467519  
  0.180601   0.329677  0.0250483  
 0.0838718   0.320942 -0.0632476  
  0.142286   0.317654 -0.0673405  
 -0.249384  -0.316087  -0.488139  
 -0.233367  -0.253002  -0.494325  
 -0.317434  -0.231418  -0.436086  
 -0.243711  -0.337127  -0.551979  
  -0.33044  -0.319141  -0.498171  
 -0.317546  -0.254984  -0.501663  
 -0.329162  -0.340072  -0.560723  
 -0.228194  -0.147899  -0.371793  
 -0.213808 -0.0897979  -0.382002  
  -0.29807 -0.0670655  -0.322326  
 -0.223534   -0.17111  -0.437652  
 -0.308108  -0.148989  -0.378737  
 -0.298462 -0.0920235  -0.389885  
 -0.308358  -0.173462  -0.445589  
 -0.208282  0.0151877  -0.259885  
 -0.193778  0.0725273  -0.271543  
 -0.278217  0.0954858   -0.21168  
 -0.203879 -0.00854304  -0.326547  
 -0.288176  0.0142564  -0.266653  
 -0.278669  0.0701808  -0.279633  
 -0.288651 -0.0109078  -0.334558  
 -0.187771     0.1772  -0.150536  
  -0.17246   0.233836  -0.163465  
 -0.258114   0.256118  -0.104922  
 -0.183499   0.153452  -0.217019  
 -0.267946   0.175983  -0.157659  
  -0.25827   0.231298  -0.171844  
 -0.268561   0.150827  -0.225284  
 -0.165485   0.335919 -0.0441517  
 -0.162324   0.314509  -0.108793  
 -0.245145   0.331538 -0.0555353  
 -0.246946   0.309746  -0.119769  
  0.829838  -0.285539  -0.428331  
  0.928201  -0.191676  -0.357382  
  0.835203  -0.223053  -0.432517  
  0.920206  -0.279006  -0.418155  
  0.825242  -0.305498  -0.488018  
  0.924372  -0.215103  -0.420992  
  0.915608  -0.299416  -0.478583  
  0.849584  -0.119164  -0.314595  
  0.948451 -0.0277755  -0.244379  
  0.855224 -0.0600328  -0.321357  
  0.938725  -0.109623   -0.30054  
  0.845165  -0.141186  -0.376589  
  0.944702 -0.0522792   -0.30981  
   0.93488  -0.133632  -0.365268  
  0.869286  0.0436711  -0.203304  
  0.968051    0.13468  -0.133843  
  0.874721   0.102282  -0.210976  
  0.958296  0.0534845  -0.188819  
   0.86507  0.0212111  -0.266043  
  0.964324   0.109904  -0.199592  
  0.954598  0.0288274  -0.254556  
  0.888223   0.205688 -0.0937087  
  0.987112    0.29535 -0.0266656  
  0.892796   0.263849  -0.101982  
  0.977415   0.215203  -0.079735  
  0.884171   0.183228  -0.156147  
  0.983199   0.271106 -0.0912667  
  0.973856   0.190567  -0.145112  
  0.905428    0.36568  0.0142807  
  0.993408   0.371449  0.0229798  
  0.902479   0.344999  -0.045995  
   0.99136   0.349875 -0.0387489  
 -0.197908  -0.341149  0.0791887  
 -0.277768  -0.270952   0.119411  
 -0.183305   -0.23943   0.194807  
 -0.284051  -0.347015  0.0698586  
 -0.192978  -0.320565   0.138847  
 -0.272809  -0.246731   0.183834  
 -0.280964   -0.32548   0.131347  
 -0.180757  -0.181262   0.187027  
 -0.258677  -0.110294   0.226589  
 -0.165226 -0.0778731   0.303787  
 -0.268044  -0.190812   0.172487  
 -0.174681  -0.158817   0.248959  
 -0.253924 -0.0855281   0.292159  
 -0.263457  -0.166189    0.23768  
 -0.161809 -0.0192611    0.29661  
  -0.23907  0.0521584   0.337121  
 -0.145728  0.0844362   0.414163  
 -0.248918  -0.029099   0.281565  
 -0.155575 0.00319485    0.35885  
   -0.2343  0.0766541   0.402375  
 -0.244196 -0.00445144   0.347123  
 -0.142104   0.143569    0.40789  
 -0.218808   0.216066   0.450118  
 -0.125702   0.247444   0.525315  
 -0.229347   0.134006   0.393283  
 -0.135671   0.165587   0.469388  
 -0.213969   0.239477   0.513552  
 -0.224479   0.158006   0.457833  
 -0.122391   0.310005   0.521696  
 -0.210829   0.303393   0.510944  
 -0.115755   0.329896   0.580814  
 -0.205209   0.323777   0.571148  
  0.877992  -0.311264   0.137564  
  0.884334   -0.20933   0.256352  
  0.970022  -0.231621   0.197768  
  0.874206  -0.290015   0.201685  
  0.957064  -0.307053   0.148392  
  0.969867  -0.206876   0.264467  
   0.95855  -0.285332   0.212394  
  0.900277  -0.152554   0.243922  
  0.905646 -0.0480202   0.364433  
  0.990115  -0.070991   0.304532  
   0.89537  -0.128946   0.309906  
  0.979844  -0.151487   0.250513  
  0.990261  -0.045756   0.372261  
  0.980153  -0.126402   0.317913  
  0.920782 0.00945265   0.353267  
  0.925673   0.114303   0.474888  
   1.00996   0.091558   0.415174  
  0.915746   0.033049   0.419435  
   1.00007  0.0102378   0.359504  
   1.01005   0.116448   0.482512  
   1.00024  0.0353327   0.427186  
  0.940687   0.172534   0.465162  
  0.945224   0.277501   0.587199  
   1.02932   0.255909   0.528919  
  0.935398   0.195613   0.530533  
      1.02   0.173479   0.471583  
   1.02913   0.279407   0.594282  
   1.01995   0.197885   0.538215  
  0.961873   0.340719   0.581512  
  0.955571   0.361621   0.644852  
   1.04232   0.343615   0.591004  
   1.04075   0.364485   0.653337  
  0.846162  -0.244314  -0.252271  
  0.848166  -0.252391  -0.209588  
  0.944024  -0.153759  -0.207462  
  0.854686  -0.158216   -0.16912  
  0.943343  -0.163857  -0.143123  
  0.937552  -0.245327  -0.273676  
  0.846605  -0.246457  -0.229489  
  0.936404  -0.253852  -0.207739  
  0.943276   -0.15504  -0.172579  
  0.936994  -0.246584  -0.238578  
  0.863407 -0.0717419    -0.1318  
  0.865074 -0.0803401 -0.0893635  
  0.964307  0.0133701  -0.090598  
  0.873402 0.00890829 -0.0516259  
  0.963467 0.00373045  -0.026159  
  0.954712 -0.0697689  -0.148449  
  0.863625 -0.0739949  -0.108975  
  0.953812 -0.0797193  -0.084167  
  0.963613   0.012398 -0.0554437  
  0.954069 -0.0709875  -0.113464  
  0.882815  0.0933135 -0.0177038  
  0.884594  0.0853236  0.0251506  
  0.984081    0.17732  0.0215353  
  0.892786   0.173466  0.0611176  
  0.983408   0.168723  0.0870613  
  0.974194  0.0954038 -0.0340652  
  0.883102  0.0913889 0.00537236  
  0.973402  0.0862262  0.0307501  
  0.983529   0.176913  0.0572971  
   0.97356  0.0946621 0.00131573  
  0.902149   0.256727  0.0929556  
  0.904292   0.249679   0.136949  
   1.00399   0.338244   0.128765  
  0.911695   0.335993   0.169247  
   1.00387   0.331837   0.196994  
  0.993539   0.258374  0.0759564  
  0.902645   0.255287   0.116606  
  0.993022   0.250504   0.142364  
   1.00384   0.338972   0.165812  
  0.992998   0.258241   0.112047  
  0.918279   0.412751   0.196285  
  0.921908    0.40772   0.242137  
   1.00904   0.411484   0.174306  
  0.919479   0.412198   0.220674  
    1.0102   0.407026   0.245044  
   1.00908   0.412341   0.211795  
  0.606129  -0.305003   0.107901  
  0.513238  -0.298503   0.102894  
  0.658898  -0.209768   0.238743  
  0.568939  -0.220071   0.160384  
  0.525035  -0.207977   0.227414  
   0.64965  -0.291689   0.183251  
  0.559519  -0.301768   0.104526  
  0.515551  -0.289994   0.171841  
  0.591784  -0.209033   0.232211  
  0.582506  -0.291021   0.176723  
  0.625803  -0.141785   0.219155  
  0.532857  -0.134972   0.214442  
  0.679567 -0.0469188   0.349331  
  0.589474 -0.0567965   0.271521  
  0.545413 -0.0446497    0.33881  
  0.669215  -0.128355   0.294037  
  0.579132  -0.138377   0.215948  
  0.535174  -0.126329   0.283128  
  0.612286 -0.0459209   0.343251  
  0.602004  -0.127494   0.287745  
   0.64649  0.0212098    0.33009  
  0.553375   0.028305   0.325851  
  0.699783   0.115912   0.460438  
  0.609892   0.106393   0.383024  
  0.565709   0.118546   0.450342  
  0.689781  0.0344767   0.404772  
  0.599734  0.0247676   0.327143  
  0.555614  0.0369373    0.39452  
  0.632555   0.117097   0.454589  
  0.622503  0.0355761   0.398837  
  0.666706   0.184535   0.442041  
  0.573659   0.191796   0.437841  
  0.719614   0.279577   0.572832  
  0.630131    0.27047   0.495778  
  0.585949   0.282417   0.562816  
  0.709732   0.197575   0.516462  
  0.619983   0.188178   0.439111  
   0.57579    0.20037    0.50646  
  0.652597   0.280886   0.567056  
  0.642573   0.198865   0.510677  
  0.687172   0.350281   0.555865  
  0.594288   0.357142   0.551363  
  0.730339   0.363294   0.630947  
  0.640539    0.35373   0.552796  
   0.59657   0.365631   0.620413  
   0.66334   0.364414   0.625016  
 -0.207431   -0.38841  -0.103819  
 -0.210713  -0.383382   -0.14973  
 -0.292902  -0.313913 -0.0363567  
 -0.200691  -0.311664 -0.0768275  
 -0.292607    -0.3075  -0.104596  
 -0.297935  -0.387137 -0.0818759  
 -0.208468  -0.387858  -0.128241  
 -0.298942   -0.38269  -0.152644  
 -0.292664  -0.314637 -0.0734093  
 -0.297905  -0.388005  -0.119386  
 -0.191307    -0.2324 -0.000514017  
 -0.193098  -0.225345 -0.0445464  
 -0.272983  -0.152987  0.0708743  
 -0.181781  -0.149137  0.0313001  
 -0.272146  -0.144387 0.00533643  
  -0.28244  -0.234039  0.0164549  
 -0.191639  -0.230957 -0.0241874  
  -0.28176  -0.226168  -0.049966  
 -0.272356   -0.15258  0.0351041  
 -0.281826  -0.233908  -0.019645  
 -0.171973 -0.0689879   0.110144  
 -0.173401  -0.060989  0.0672514  
 -0.253208   0.010963   0.183008  
 -0.162397  0.0154205   0.144043  
 -0.252205  0.0206059   0.118557  
 -0.263096 -0.0710698   0.126475  
 -0.172097 -0.0670597  0.0870449  
  -0.26214 -0.0618897  0.0616476  
  -0.25244  0.0119354   0.147845  
 -0.262388 -0.0703286  0.0910857  
 -0.152564  0.0960681   0.224241  
 -0.153881   0.104675   0.181766  
 -0.232917   0.178091   0.299872  
 -0.143678   0.182545   0.261541  
 -0.232081   0.188194   0.235521  
 -0.243614  0.0941033   0.240859  
  -0.15262  0.0983247   0.201393  
  -0.24255   0.104056   0.176565  
 -0.232102   0.179375   0.264982  
 -0.242897  0.0953208   0.205866  
 -0.135328   0.268663   0.344738  
 -0.136975   0.276731   0.301997  
 -0.226463   0.269676   0.366105  
 -0.135606   0.270803   0.321926  
 -0.225143   0.278191   0.300141  
 -0.225823   0.270922   0.330988  
-0.0654394   -0.35883 -0.00992919  
 0.0865472  -0.342314 -0.0484397  
-0.0508368   -0.26289  0.0906246  
 0.0240728  -0.255182  0.0788201  
-0.0123355  -0.282258  0.0121329  
 0.0663696  -0.273407 -0.0103372  
-0.0608309  -0.344331  0.0344761  
 0.0138166  -0.337131  0.0223841  
 -0.022225  -0.363355 -0.0437532  
 0.0562424  -0.355116 -0.0665399  
0.00526182  -0.269072  0.0430241  
-0.00481507  -0.350643 -0.0131586  
-0.0470047  -0.197132   0.100403  
  0.106311  -0.178737  0.0637301  
-0.0328462  -0.100727   0.200541  
 0.0427175 -0.0924131   0.189826  
0.00570911  -0.119855   0.122022  
 0.0850868  -0.110438   0.100622  
 -0.041986  -0.181918   0.145597  
 0.0333857  -0.173798   0.134485  
-0.00343224  -0.201207  0.0670523  
 0.0757288  -0.191959  0.0452342  
 0.0235774    -0.1065   0.153477  
 0.0143628  -0.187849  0.0983332  
-0.0283673 -0.0344742    0.21054  
  0.125444 -0.0155474   0.174943  
-0.0135092  0.0620976   0.311522  
 0.0621192  0.0705686   0.300988  
 0.0249558  0.0433667   0.233408  
  0.104399  0.0528848   0.212107  
 -0.023267 -0.0193691   0.255835  
 0.0523324 -0.0109518   0.245294  
  0.015268 -0.0383051    0.17749  
 0.0946823 -0.0288106   0.156215  
 0.0428743  0.0565787   0.264719  
 0.0331476 -0.0250046   0.208928  
-0.00905385   0.128926   0.322642  
  0.145066   0.147899   0.286702  
0.00602317   0.225839   0.423563  
 0.0819231   0.234184   0.412647  
 0.0441332   0.207632   0.346235  
  0.123951   0.216849   0.324314  
-0.0037477   0.143747   0.367451  
 0.0719792   0.152237   0.356829  
  0.034541   0.125242   0.289735  
  0.114125   0.134715   0.268204  
 0.0623827   0.220466   0.376886  
 0.0525938    0.13833   0.320772  
 0.0109036   0.294932   0.435806  
  0.165224   0.312267   0.398584  
 0.0163071   0.308893   0.479825  
 0.0920618   0.316653   0.468623  
  0.054536   0.290972   0.402669  
  0.134269   0.299518   0.380409  
 0.0727093   0.303357   0.433096  
 -0.111969   -0.28627  -0.369011  
-0.0499655  -0.267954  -0.266303  
 -0.163598   -0.20035  -0.320663  
 -0.140984  -0.190281   -0.27063  
-0.0515263  -0.195533  -0.273385  
-0.0159917  -0.184934  -0.218267  
 -0.174508  -0.286242  -0.378991  
 -0.152339  -0.276429  -0.329089  
-0.0616171  -0.279571  -0.330225  
-0.0262594  -0.268847  -0.274933  
-0.0938766   -0.19164  -0.271547  
 -0.104406  -0.276511  -0.328946  
-0.0908753   -0.11867  -0.254047  
-0.0279903  -0.100195  -0.151243  
 -0.142062 -0.0347527  -0.204911  
 -0.119087 -0.0241378  -0.154227  
-0.0302073 -0.0304132  -0.158969  
0.00559265  -0.019545  -0.103534  
 -0.152426  -0.116982  -0.262094  
 -0.129575  -0.106643  -0.211721  
-0.0407145  -0.112582  -0.215957  
-0.00499623  -0.101883   -0.16071  
 -0.072178 -0.0260477  -0.156198  
-0.0827228   -0.10837  -0.213469  
-0.0702237  0.0451992  -0.140929  
-0.00714138  0.0644868 -0.0372918  
 -0.121626   0.128587 -0.0932983  
-0.0986403   0.139664 -0.0421188  
-0.00963361   0.133053 -0.0471805  
 0.0261289   0.144305 0.00864249  
 -0.131878  0.0470695  -0.148757  
 -0.108873  0.0579197 -0.0978117  
-0.0199565  0.0514107  -0.102749  
 0.0158517   0.062471 -0.0471277  
-0.0516726   0.137568 -0.0442683  
-0.0619491  0.0558795 -0.0998904  
-0.0492113    0.20798 -0.0308532  
 0.0135786   0.228117  0.0737305  
 -0.099693   0.289923  0.0142502  
-0.0769372   0.301418  0.0658475  
 0.0119794   0.295312  0.0622655  
 0.0475091   0.306898   0.118478  
 -0.111032   0.209736 -0.0389044  
-0.0881209   0.221044  0.0125333  
 0.0010546   0.214443  0.0076903  
 0.0367127    0.22589  0.0637386  
-0.0299029   0.299535   0.064439  
-0.0410172   0.218934  0.0104431  
-0.0279489   0.368415  0.0782757  
 0.0342881   0.388635   0.183082  
-0.0889895   0.368265  0.0681249  
-0.0663505   0.379402   0.119525  
 0.0219156   0.375597   0.117612  
 0.0573626    0.38708   0.173747  
-0.0197293   0.378863   0.119154  
  0.743822  -0.343449  0.0173691  
  0.678098  -0.364246 -0.0902075  
  0.813332   -0.26528  0.0795927  
  0.788751  -0.277052  0.0267432  
  0.703688  -0.270609  0.0329946  
  0.666469  -0.282454 -0.0246357  
  0.802608  -0.343583  0.0257544  
  0.778161  -0.355026 -0.0269257  
  0.693737  -0.350851 -0.0223239  
  0.656608  -0.362606 -0.0798864  
  0.743723  -0.274997   0.029378  
  0.733535  -0.354288 -0.0253093  
  0.765124  -0.183088   0.126409  
  0.698814  -0.203747  0.0191243  
   0.83526  -0.103964   0.187103  
  0.810451  -0.115301   0.134703  
   0.72532  -0.108382   0.142379  
   0.68786  -0.119877  0.0851656  
  0.824672  -0.185107   0.132716  
  0.799934   -0.19668  0.0800517  
  0.714629  -0.189761  0.0875294  
  0.677274  -0.201459  0.0300804  
  0.765497  -0.113048   0.138046  
  0.754844  -0.194409  0.0833454  
  0.786131 -0.0203289   0.236454  
  0.719533 -0.0401179   0.130143  
  0.855694  0.0593684   0.298705  
  0.830897  0.0485012    0.24681  
  0.745888  0.0550745   0.254156  
  0.708394  0.0439704    0.19734  
  0.845511 -0.0224511   0.242554  
  0.820683 -0.0335566   0.190395  
  0.735641 -0.0267459    0.19794  
  0.698136 -0.0380457   0.140933  
     0.786  0.0505627   0.249969  
  0.775773 -0.0313632   0.193664  
  0.806769    0.14353   0.349561  
  0.740381   0.124567   0.244097  
  0.877217   0.224966   0.414469  
  0.852791   0.214647   0.363217  
  0.767214   0.220207   0.368607  
  0.729989   0.209374   0.312102  
  0.866049   0.141595   0.355882  
  0.841384   0.131007   0.304303  
  0.756393   0.137244    0.31115  
  0.718984   0.126311   0.254524  
  0.807699   0.216164   0.365342  
  0.796541   0.132886   0.307243  
  0.827885   0.311193     0.4646  
  0.762366   0.292346    0.35918  
  0.888145   0.310897   0.472835  
  0.864151   0.300804   0.421686  
  0.777319   0.304293   0.425481  
  0.740268   0.293318    0.36879  
  0.818243   0.301073   0.422774  
  0.691668  -0.270499  -0.339363  
  0.692213  -0.201587  -0.325596  
  0.659215  -0.183344  -0.249693  
  0.573206  -0.192371  -0.220714  
  0.681926  -0.284559  -0.381808  
  0.648813   -0.26662  -0.306089  
  0.562899  -0.274988  -0.276786  
  0.635586  -0.196084  -0.276233  
  0.625262  -0.278909   -0.33241  
  0.711652  -0.104589  -0.226291  
  0.711768 -0.0378411  -0.213584  
  0.678416  -0.019091  -0.136906  
  0.592782 -0.0284044  -0.108519  
  0.702003  -0.119504  -0.269509  
  0.668826   -0.10097  -0.193223  
  0.583047  -0.110247  -0.164615  
  0.655118 -0.0321928  -0.164085  
  0.645392  -0.113957  -0.220137  
  0.730964  0.0588261  -0.114183  
    0.7311   0.125022   -0.10256  
  0.697664   0.144152 -0.0254983  
   0.61211   0.134967  0.0030105  
  0.721523  0.0436419  -0.157875  
  0.688104   0.062589 -0.0809797  
  0.602503  0.0533124 -0.0526124  
  0.674419    0.13093  -0.052797  
  0.664844  0.0494101  -0.108277  
  0.749612   0.221523 -0.00398798  
  0.749183   0.287294 0.00753304  
  0.715771   0.306619  0.0844979  
  0.630921   0.298017   0.114075  
  0.740261   0.206251  -0.047549  
  0.706823   0.225527  0.0295122  
  0.621506   0.216522  0.0584507  
  0.692833   0.293599  0.0577966  
  0.683665   0.212318 0.00240688  
  0.768146   0.383356   0.106494  
  0.759229   0.368823  0.0637431  
  0.725691   0.387776    0.14042  
  0.641056   0.379761   0.170281  
  0.702933   0.375225   0.114002  
  0.500979  -0.365296  -0.186054  
  0.523976  -0.275728  -0.126238  
  0.717236  -0.282464 -0.0432319  
  0.604181  -0.286697 -0.0811712  
  0.514309  -0.356642  -0.181809  
   0.70724  -0.361316  -0.097588  
  0.594445  -0.367122  -0.136547  
  0.625514  -0.281694 -0.0852921  
  0.615826   -0.36175  -0.140403  
  0.520973  -0.202579 -0.0747492  
  0.544213  -0.111846 -0.0146692  
  0.738307  -0.119612  0.0663467  
  0.625072   -0.12353  0.0294296  
  0.534094  -0.193969 -0.0705599  
  0.727952  -0.201447  0.0110609  
  0.614685   -0.20537 -0.0260282  
  0.646169  -0.118241  0.0254581  
  0.635908  -0.200257 -0.0301601  
  0.541341 -0.0385425  0.0370216  
  0.564417  0.0526936   0.098038  
   0.75867  0.0448064   0.179068  
  0.645488  0.0406895   0.141937  
   0.55428  -0.029622  0.0415139  
  0.748467 -0.0375273   0.122378  
  0.635264 -0.0414937  0.0854162  
  0.666468  0.0462932   0.138251  
  0.656288 -0.0360552  0.0816074  
  0.561928   0.125954     0.1503  
  0.585562   0.217974   0.212081  
  0.780696   0.211164   0.295271  
  0.667018   0.206121   0.256538  
  0.574814   0.135186   0.155017  
  0.769249   0.127534   0.236651  
  0.656045   0.123134    0.19912  
  0.688168   0.212159   0.253378  
  0.677016   0.128932   0.195604  
  0.582722    0.29134   0.263179  
  0.595991   0.300797   0.268142  
  0.792048    0.29625   0.352822  
  0.677399   0.289598   0.312912  
  0.698974     0.2959   0.309974  
  0.129144  -0.267002  -0.170515  
  0.126085  -0.193625  -0.119565  
-0.0687105  -0.186801  -0.202642  
 0.0451299  -0.181766  -0.163768  
  0.115656  -0.276447  -0.175625  
-0.0800564  -0.271876  -0.260182  
 0.0347526  -0.265235  -0.220137  
 0.0236621  -0.187803  -0.160804  
 0.0128587   -0.27154  -0.217396  
  0.149935  -0.101622   -0.05764  
  0.147228 -0.0283471 -0.00552498  
-0.0466835 -0.0204465 -0.0864456  
 0.0666563 -0.0163401 -0.0491767  
  0.136831  -0.110839 -0.0625026  
-0.0572633  -0.103173  -0.144028  
 0.0560992 -0.0987833  -0.106356  
 0.0453601 -0.0219411 -0.0456822  
 0.0348121  -0.104579  -0.103034  
  0.170521  0.0628721   0.055635  
  0.167432   0.136191   0.107181  
-0.0263198   0.143971  0.0262757  
 0.0870719   0.147878  0.0633301  
  0.157365  0.0539678  0.0509986  
-0.0364804  0.0618867 -0.0297562  
 0.0768805  0.0658423 0.00734361  
   0.06566   0.142593  0.0671104  
 0.0555406  0.0604067  0.0109613  
  0.190889   0.226908   0.167406  
  0.187669   0.300074   0.218751  
-0.00524829   0.306826   0.135861  
  0.107962   0.311048   0.173938  
  0.177551   0.218314   0.163072  
 -0.015964   0.225806  0.0815627  
 0.0974592   0.229719    0.11879  
 0.0863144   0.306046   0.177864  
  0.075921   0.224608   0.122729  
  0.210883   0.389629   0.278714  
  0.197337   0.380989   0.274323  
0.00474316   0.385689   0.190226  
  0.117697   0.391481   0.229319  
 0.0960018   0.386108   0.232978  
  0.198334  -0.349867  -0.177965  
  0.237587  -0.254305  -0.111935  
  0.129412  -0.246626  0.0329245  
  0.149448   -0.26415 -0.0527574  
  0.227507  -0.336347  -0.168075  
  0.119168  -0.328779 -0.0234769  
  0.139289  -0.346128  -0.108996  
  0.182574  -0.249659 -0.0343188  
  0.172424  -0.331754 -0.0905808  
  0.218266  -0.186071 -0.0658601  
  0.257334 -0.0905873 1.24916e-05  
  0.148786 -0.0832902   0.144721  
  0.168749   -0.10075    0.05886  
  0.247496   -0.17243 -0.0559022  
  0.139155  -0.164914  0.0889772  
  0.159143  -0.182439 0.00315125  
  0.202144 -0.0861272  0.0775702  
  0.192409  -0.167861  0.0217286  
  0.237777 -0.0224151  0.0458147  
  0.277088  0.0731553   0.111823  
  0.168361  0.0800046   0.256199  
   0.18823  0.0627572   0.170502  
  0.267183 -0.00872512  0.0558959  
  0.158511 -0.00165622   0.200416  
  0.178443 -0.0190141   0.114607  
  0.221785  0.0773943   0.189229  
  0.211919 -0.00437812   0.133366  
  0.257494   0.141375   0.157781  
  0.297111   0.237059   0.223739  
  0.188372   0.243669    0.36783  
  0.208048   0.226615   0.282447  
  0.287065   0.155076   0.167787  
  0.178322   0.161765   0.312045  
  0.198085   0.144607   0.226489  
  0.241797   0.241183   0.301021  
  0.231747   0.159236    0.24514  
  0.277617    0.30558   0.269746  
  0.307201   0.319161   0.279708  
  0.198444   0.325812   0.423698  
  0.218246   0.308916   0.338422  
  0.251904   0.323327   0.356949  
 -0.107078  -0.307611  -0.439656  
-0.0759191   -0.24741  -0.460549  
  -0.16762  -0.226421  -0.407941  
 -0.086406  -0.331356  -0.518341  
 -0.177774  -0.311064  -0.465521  
 -0.153903  -0.249453  -0.478255  
 -0.164371  -0.333657  -0.536211  
-0.0867033   -0.14097  -0.325447  
-0.0561107  -0.083751     -0.348  
  -0.14705 -0.0620177  -0.293988  
-0.0660517  -0.165348  -0.404003  
 -0.157131  -0.143724  -0.350429  
 -0.134268 -0.0860673  -0.365871  
 -0.144152  -0.167551  -0.421811  
-0.0663774  0.0223363  -0.213154  
-0.0358677  0.0789366  -0.237055  
 -0.126767   0.100738  -0.183031  
-0.0460997 -0.00237018  -0.292347  
 -0.136966  0.0194679  -0.238246  
 -0.114169   0.076415  -0.255203  
 -0.124337 -0.00478378  -0.310375  
-0.0454051    0.18488  -0.103141  
-0.0147436   0.241372  -0.127118  
 -0.105014   0.262218 -0.0749741  
-0.0254024   0.160192  -0.182084  
 -0.116117   0.181727  -0.128652  
-0.0927854   0.238307   -0.14615  
 -0.103708   0.157472  -0.200552  
-0.0245886   0.346511 0.00693549  
-0.00549156   0.323013 -0.0716083  
-0.0945559   0.342135 -0.0200359  
-0.0832461   0.319608 -0.0909218  
  0.800689  -0.258824  -0.334651  
  0.912533  -0.161149  -0.252587  
  0.827932  -0.186347  -0.323126  
  0.905466  -0.251387  -0.315944  
  0.817335  -0.270992  -0.380119  
  0.921884  -0.173843  -0.302506  
  0.914741  -0.263245  -0.365146  
  0.819763 -0.0901118  -0.218782  
  0.932421 0.00485951  -0.136515  
  0.846779 -0.0216999  -0.209051  
  0.922818 -0.0777745   -0.19371  
  0.836883  -0.103344  -0.265137  
  0.942095 -0.00889625  -0.187847  
  0.932493 -0.0911754  -0.244592  
   0.83911  0.0736084  -0.106181  
  0.951974   0.168315 -0.0249123  
   0.86591   0.141068  -0.098191  
  0.942225  0.0866356 -0.0802388  
  0.856416  0.0599067  -0.153206  
  0.961688   0.154004 -0.0768348  
  0.951938  0.0725928  -0.131938  
   0.85795   0.236155 0.00361633  
  0.971111   0.329393  0.0819127  
   0.88319   0.301823  0.0087277  
  0.961345   0.249008    0.02923  
  0.875286   0.222128 -0.0435826  
  0.980831   0.314723  0.0299162  
  0.971001    0.23453 -0.0228207  
  0.874626   0.395015   0.110519  
  0.976275   0.402505   0.128998  
  0.892109   0.381402  0.0636996  
    0.9861   0.388781  0.0777139  
  -0.16684  -0.370573   -0.01714  
 -0.261715  -0.305054  0.0107216  
 -0.175612  -0.277461  0.0845969  
 -0.266857  -0.378127  -0.036255  
 -0.184446  -0.356922  0.0297422  
 -0.271453  -0.290357  0.0627786  
 -0.276706  -0.364372  0.0150907  
 -0.150239  -0.211852  0.0895934  
 -0.242554  -0.143999   0.117538  
 -0.158309  -0.116726   0.191467  
 -0.251929  -0.224685  0.0634032  
 -0.167692  -0.197773   0.136859  
 -0.252283  -0.129657   0.169524  
 -0.261598  -0.210176   0.115518  
 -0.131392 -0.0493217   0.199375  
 -0.222996  0.0194539   0.229138  
 -0.139173  0.0460341   0.302317  
 -0.232803 -0.0623204   0.172863  
 -0.148812 -0.0355691   0.246468  
 -0.232683    0.03324   0.280533  
 -0.242529 -0.0482464   0.224627  
 -0.112039     0.1144   0.311976  
 -0.203083   0.185477   0.345216  
 -0.120308   0.210672   0.416406  
 -0.213392   0.102091   0.286336  
 -0.129274   0.127678   0.358393  
 -0.212452   0.198197   0.395193  
 -0.223082   0.115521   0.337282  
-0.0930099   0.283218   0.427971  
 -0.196046   0.275754   0.408665  
 -0.109768   0.295412   0.473481  
 -0.205332   0.287623   0.457913  
  0.742868  -0.320628  0.0922586  
  0.729137  -0.216249   0.222817  
   0.82036  -0.236898   0.170999  
  0.719897  -0.297915   0.167324  
  0.809887  -0.316796   0.116093  
  0.805923  -0.213446   0.240326  
  0.796388  -0.294761   0.185112  
  0.763708  -0.159036   0.202252  
  0.750261   -0.05383    0.33273  
  0.842101 -0.0754383   0.279013  
  0.739801  -0.135081   0.277764  
  0.831464  -0.156417   0.224642  
  0.827297 -0.0515588   0.349371  
  0.816843  -0.132613   0.294721  
  0.784666 0.00347161   0.312222  
   0.77049   0.108844   0.443657  
  0.862373  0.0872989   0.389947  
  0.760488    0.02747   0.388014  
  0.852295 0.00582175   0.334217  
  0.847389   0.110917   0.460029  
  0.837463  0.0296372   0.404541  
  0.804959   0.166742   0.424469  
  0.790269   0.272476   0.556171  
  0.882906   0.251671   0.503872  
  0.780422   0.190431   0.499648  
  0.872436    0.16899   0.446362  
  0.867006   0.274282   0.572385  
  0.857266   0.192394   0.515958  
  0.825335   0.333419   0.538739  
  0.800778   0.356433   0.614013  
  0.893079   0.336333   0.561479  
  0.877476   0.358483   0.630354  
  0.151624  -0.182478   -0.11048  
  0.227395   -0.19138 -0.0689634  
  0.141617  -0.265133  -0.166464  
  0.217351  -0.273715  -0.124879  
  0.232771  -0.188264 -0.0589218  
    0.2228  -0.270563  -0.114849  
   0.17248 -0.0178096 0.00287076  
  0.247941 -0.0268866  0.0439834  
  0.162104  -0.100013 -0.0538243  
   0.23771  -0.109076 -0.0125146  
  0.253241  -0.023917  0.0538338  
  0.243021  -0.106036 -0.00257328  
   0.19288   0.146258   0.115163  
  0.268143   0.137317    0.15629  
  0.182692  0.0642624  0.0591997  
  0.258061  0.0552375   0.100247  
  0.273498    0.14017   0.166036  
  0.263382  0.0581469   0.110041  
  0.213424   0.309741   0.226499  
   0.28834   0.301127   0.268006  
   0.20316   0.228125    0.17085  
  0.278252   0.219313   0.212168  
  0.293755   0.303908    0.27773  
  0.283641    0.22211   0.221885  
  0.223209    0.39105   0.282318  
  0.298195   0.382669   0.323882  
  0.303625   0.385557   0.333656  
  0.421799  -0.279666  -0.161099  
  0.452318  -0.188424  -0.106137  
  0.382858  -0.193663 -0.0472911  
  0.442134  -0.270695  -0.162113  
  0.372776  -0.275751   -0.10328  
   0.39457  -0.188994 -0.0544546  
  0.384463   -0.27113  -0.110432  
  0.441908  -0.115476 -0.0491213  
  0.472036 -0.0244094 0.00604603  
  0.402762 -0.0296627   0.064761  
  0.462218  -0.106356 -0.0500635  
  0.392834  -0.111646 0.00872706  
  0.414389 -0.0249676  0.0576853  
  0.404505  -0.106955 0.00160152  
  0.461638  0.0483512  0.0628664  
  0.491594    0.13936   0.117899  
  0.422541   0.134256   0.176686  
  0.481837  0.0574896  0.0620506  
  0.412664  0.0523043   0.120754  
  0.434121   0.138952    0.16963  
  0.424264  0.0570006   0.113705  
  0.481191   0.212054   0.174576  
  0.511043   0.302949    0.22954  
  0.442314   0.298081   0.288565  
   0.50129    0.22117   0.173665  
  0.432405   0.216174   0.232597  
   0.45382   0.302731   0.281433  
  0.443951   0.220856   0.225502  
  0.501132   0.375862    0.28666  
  0.521158   0.384828   0.285657  
  0.452381   0.380047   0.344622  
  0.463894   0.384651   0.337491  
  0.191559  -0.278183  -0.128315  
  0.261757  -0.272986  -0.187264  
  0.181439  -0.360058  -0.184441  
  0.251685  -0.354954  -0.243332  
  0.252162  -0.278432  -0.184299  
  0.242083   -0.36035  -0.240363  
  0.210968  -0.114627 -0.0166991  
  0.281505  -0.109185 -0.0753935  
  0.201293  -0.196421 -0.0724479  
  0.271656   -0.19109  -0.131296  
  0.271838   -0.11467 -0.0725074  
   0.26202  -0.196566  -0.128372  
  0.230504  0.0491148  0.0951341  
  0.301261  0.0547114  0.0365174  
  0.220712 -0.0327713  0.0391356  
  0.291369 -0.0272448 -0.0194706  
  0.291553   0.049235  0.0394289  
  0.281685 -0.0327267 -0.0165892  
  0.250212   0.213124   0.207316  
  0.321158   0.218703   0.148565  
  0.240314   0.131054   0.151243  
  0.311183   0.136687  0.0925495  
  0.311362   0.213259   0.151572  
   0.30143   0.131218  0.0955149  
  0.260407   0.295415   0.263294  
   0.33125   0.300803   0.204551  
  0.321476   0.295406   0.207548  
  0.498524  -0.285427  -0.133768  
  0.423278  -0.276814  -0.175443  
  0.488741  -0.366732  -0.189585  
  0.413423  -0.358355  -0.231319  
  0.417899  -0.279597  -0.185104  
   0.40803  -0.361244  -0.241029  
   0.51907  -0.121946 -0.0224349  
  0.443475  -0.113004 -0.0637285  
  0.508789  -0.203813 -0.0781209  
  0.433367     -0.195  -0.119606  
  0.438157   -0.11586 -0.0734115  
  0.428013    -0.1978   -0.12926  
   0.53947   0.042124  0.0898594  
  0.463678  0.0511999  0.0485792  
  0.529258 -0.0399491   0.033529  
  0.453557 -0.0309245 -0.00768548  
  0.458414  0.0482283   0.038792  
  0.448273 -0.0338361 -0.0174155  
  0.560329   0.206797   0.203218  
  0.484225   0.215695   0.161529  
  0.549846    0.12433   0.146558  
  0.473909   0.133389   0.105078  
  0.478885   0.212578   0.151551  
  0.468635   0.130348  0.0952006  
  0.570337   0.289456   0.259203  
   0.49427   0.298031   0.217445  
  0.488856   0.294877   0.207478  
  0.132281  -0.231709   0.106899  
  0.121877  -0.313997  0.0502821  
  0.163415  -0.220909    0.15554  
    0.1529   -0.30323  0.0987514  
  0.151852 -0.0682994   0.218971  
  0.142121   -0.14993   0.163143  
  0.183241 -0.0573223   0.267827  
  0.173367  -0.139011     0.2119  
  0.171599  0.0948842   0.330386  
  0.161658   0.013287   0.274674  
  0.203172   0.105892   0.379315  
  0.193142  0.0242839   0.323596  
  0.191785   0.258454   0.441819  
  0.181663   0.176596   0.386149  
  0.223476   0.269498     0.4908  
  0.213295   0.187601   0.435071  
  0.201643     0.3403   0.497439  
  0.233202   0.351134   0.546173  
  0.813173  -0.276095 -0.0249772  
  0.802324  -0.352978 -0.0775927  
  0.874085   -0.26844  -0.028533  
  0.862588  -0.344153 -0.0796487  
  0.833849  -0.113315   0.083965  
  0.823677   -0.19516  0.0286059  
  0.894019  -0.105132  0.0810255  
   0.88396  -0.186997   0.025418  
  0.854151    0.05131   0.196883  
  0.843971 -0.0311583   0.140022  
  0.914188  0.0597846   0.194207  
  0.904069 -0.0227467   0.137173  
  0.875892   0.218308   0.314179  
  0.864554     0.1343   0.254582  
   0.93524   0.226998   0.311446  
   0.92449   0.143074   0.251941  
   0.88875   0.305692   0.374044  
  0.949026    0.31598   0.373559  
 -0.164481  -0.193963  -0.221774  
 -0.177339  -0.281347  -0.281636  
 -0.223865  -0.202654  -0.219048  
 -0.237652  -0.291637   -0.28116  
 -0.142737 -0.0269649  -0.104477  
 -0.153141  -0.109955  -0.162176  
 -0.202812 -0.0354405  -0.101808  
 -0.213114  -0.118729  -0.159542  
 -0.122436    0.13766 0.00844113  
 -0.132558  0.0555034 -0.0476159  
 -0.182642   0.129476  0.0113735  
 -0.192693  0.0470907 -0.0447743  
 -0.101758   0.300439   0.117383  
 -0.112263   0.219504  0.0637999  
 -0.162707   0.292783   0.120931  
 -0.172583   0.211341  0.0669809  
-0.0909088   0.377324       0.17  
  -0.15121   0.368497   0.172048  
  0.368216   -0.29597  -0.153588  
  0.487656  -0.201303  -0.171779  
  0.402948  -0.205929 -0.0964961  
  0.410908  -0.223491  -0.173347  
  0.477467  -0.283578  -0.227753  
  0.392859  -0.288026  -0.152476  
  0.400842  -0.305574  -0.229298  
  0.447894  -0.212805  -0.168736  
   0.43778  -0.294948  -0.224688  
  0.388337  -0.131906 -0.0416176  
  0.507481 -0.0374217 -0.0598098  
  0.422928 -0.0419871  0.0154677  
  0.431027   -0.05962 -0.0614758  
  0.497621  -0.119291  -0.115809  
  0.412969  -0.123933 -0.0405199  
     0.421  -0.141522  -0.117416  
  0.467883 -0.0489552 -0.0568677  
  0.457931  -0.130835  -0.112813  
  0.408313  0.0319875  0.0703181  
  0.526989   0.126146  0.0518785  
  0.442685   0.121825   0.127319  
  0.450851   0.104065    0.05031  
  0.517277  0.0443782 -0.00389728  
  0.432829  0.0399277  0.0714176  
  0.440971   0.022231 -0.00556973  
  0.487546   0.114672  0.0548646  
  0.477751  0.0328694 -0.000969037  
  0.428147   0.195803   0.182202  
  0.546359   0.289611   0.163542  
   0.46244   0.285588   0.239241  
  0.470663    0.26777   0.162327  
   0.53663   0.207868    0.10762  
  0.452531   0.203697   0.183234  
  0.460724   0.185892   0.106251  
  0.507169   0.278283   0.166755  
  0.497313   0.196453   0.110729  
  0.448132    0.35974   0.294314  
  0.556507   0.371588   0.219756  
  0.472515   0.367603   0.295348  
  0.480728   0.349847   0.218493  
  0.517288   0.360344   0.222957  
   -0.1055    -0.2853   0.042076  
 -0.114588  -0.254595   0.137652  
 -0.114783  -0.365294 -0.0129725  
  -0.12433  -0.335783  0.0818271  
 -0.111874  -0.270706  0.0882627  
 -0.121374  -0.351238  0.0328709  
-0.0880976  -0.123778   0.150295  
-0.0967994 -0.0928917   0.246936  
-0.0971786  -0.204906  0.0958272  
 -0.105944  -0.173908   0.192271  
-0.0943745  -0.109172   0.196893  
 -0.103457  -0.190198   0.142384  
-0.0688456  0.0392898   0.261501  
-0.0773656  0.0696546   0.357607  
-0.0785329 -0.0423529   0.205683  
-0.0871665 -0.0116679    0.30219  
-0.0750547  0.0536118   0.307801  
-0.0847945 -0.0278623    0.25219  
-0.0500068   0.203936   0.375251  
-0.0577258   0.233128   0.469383  
-0.0592696   0.121178   0.318059  
-0.0675063   0.151174   0.413454  
-0.0558453   0.217648   0.420586  
-0.0653606   0.135297   0.363996  
-0.0396359   0.288382   0.432405  
-0.0475445   0.316346   0.525825  
-0.0454676   0.301563    0.47744  
  -0.10007  -0.211944  -0.345442  
 -0.234877  -0.213661  -0.376631  
 -0.110129  -0.296184  -0.402563  
 -0.246219  -0.300292  -0.435663  
 -0.166583  -0.212096  -0.362269  
  -0.17707  -0.297382  -0.420254  
-0.0791419 -0.0471669  -0.231336  
 -0.213938 -0.0483342  -0.260888  
-0.0894671  -0.129116  -0.288048  
 -0.223902  -0.130299  -0.317439  
  -0.14549 -0.0470905  -0.247415  
 -0.155747  -0.129074   -0.30429  
-0.0586581   0.115898  -0.119989  
 -0.193532   0.114623  -0.149699  
-0.0689605  0.0344589   -0.17534  
 -0.203763  0.0333691  -0.204741  
 -0.125109   0.115916  -0.136167  
 -0.135355  0.0345388  -0.191504  
-0.0369179   0.277827 -0.0110516  
  -0.17183   0.275285 -0.0433028  
 -0.047942   0.197099 -0.0653389  
 -0.183224   0.195601 -0.0952814  
 -0.103165   0.277234 -0.0284491  
 -0.114467   0.196959 -0.0818594  
-0.0268638   0.358143  0.0442835  
 -0.160504   0.352737 0.00968331  
-0.0925776   0.356348  0.0259356  
  0.754122   -0.25246   0.108431  
  0.883813  -0.250816   0.136191  
  0.744044  -0.332736  0.0531323  
  0.872475  -0.328253  0.0832209  
  0.817734  -0.252274   0.123386  
  0.807124  -0.331353   0.069038  
  0.775876 -0.0905727   0.217286  
  0.905502 -0.0901544   0.242585  
  0.765162  -0.171757   0.162665  
  0.895196  -0.171129   0.188166  
  0.839671 -0.0909794   0.231057  
  0.829037  -0.172013   0.176758  
  0.796346  0.0724688   0.328604  
  0.925904  0.0728005    0.35377  
  0.786172 -0.00914618   0.272625  
  0.915731 -0.00890109   0.297622  
  0.860045  0.0720132   0.342287  
  0.849913 -0.00961028   0.286384  
  0.817255   0.237231   0.442719  
  0.946831   0.238123     0.4695  
  0.806657   0.154406   0.385307  
  0.935868   0.154764   0.410315  
  0.881115   0.237006    0.45714  
  0.870288   0.153989   0.399147  
  0.827329   0.321527   0.499892  
  0.958182   0.324761   0.528551  
  0.891621   0.322327    0.51516  
  0.755087  -0.179578  -0.280601  
  0.758438  -0.208676    -0.3736  
  0.744695  -0.263934  -0.337696  
  0.748246  -0.291831  -0.430009  
  0.758651  -0.193276   -0.32525  
  0.748258  -0.277103   -0.38205  
  0.773935  -0.014944  -0.166905  
  0.778081 -0.0451862  -0.261841  
  0.764366  -0.096835  -0.223463  
  0.768232  -0.126723  -0.317701  
   0.77787 -0.0292423  -0.212513  
  0.768187  -0.110936  -0.268712  
  0.793188    0.14814 -0.0556813  
  0.797514    0.11739  -0.151135  
  0.783622  0.0667026  -0.111082  
  0.787882  0.0361472  -0.206406  
  0.797191   0.133565  -0.101578  
   0.78761  0.0522388  -0.156891  
  0.810616   0.309722   0.052653  
   0.81534    0.27918 -0.0416944  
  0.802262   0.229282 -0.00119142  
  0.806648   0.198431 -0.0964308  
  0.814725   0.295179 0.00720054  
  0.806264   0.214611 -0.0470371  
  0.819963   0.389811   0.107779  
  0.825154   0.360466   0.014216  
  0.824299   0.375816  0.0626799  
  0.309829  -0.305424  -0.161397  
  0.325763  -0.326052  -0.310567  
  0.388475  -0.238316   -0.24402  
  0.349033  -0.219083 -0.0949415  
  0.326401  -0.235867  -0.182851  
  0.378438  -0.320379  -0.299947  
  0.338992  -0.301146  -0.150945  
  0.316346  -0.318007  -0.238872  
  0.368574  -0.230847  -0.172853  
  0.358524  -0.312931  -0.228829  
  0.329988  -0.141272 -0.0493054  
  0.346027  -0.161865  -0.198515  
  0.408742 -0.0744597  -0.132147  
  0.369193 -0.0550808   0.017082  
  0.346698 -0.0718622 -0.0707659  
  0.398635  -0.156344  -0.188085  
  0.359128  -0.137063 -0.0389242  
  0.336566  -0.153817  -0.126789  
  0.388793 -0.0669128 -0.0608934  
  0.378706  -0.148847  -0.116869  
  0.350162  0.0226693  0.0627166  
  0.366267 0.00188041 -0.0865887  
  0.428725   0.089149 -0.0203678  
  0.389196   0.108804   0.128999  
   0.36683  0.0919014  0.0411218  
  0.418763 0.00735143 -0.0762544  
   0.37921  0.0268685  0.0730498  
  0.356779   0.010028 -0.0148104  
  0.408779  0.0968333  0.0509558  
  0.398809   0.014968 -0.00496151  
  0.370244   0.186526    0.17465  
  0.386367   0.165533  0.0253109  
  0.448684   0.252852   0.091752  
  0.409163   0.272658   0.241008  
  0.386884   0.255687   0.153162  
  0.438682   0.170964  0.0356131  
  0.399177   0.190726   0.184977  
   0.37687   0.173777  0.0971039  
  0.428734   0.260604   0.163014  
  0.418745   0.178698   0.106935  
  0.390147   0.350428   0.286688  
  0.406322   0.329471   0.137529  
  0.458714   0.334959   0.147946  
   0.41913   0.354659   0.297053  
  0.396779   0.337687   0.209221  
  0.438718   0.342651   0.219123  
  0.134017  -0.336515  -0.180814  
  0.128599  -0.231846   -0.12308  
   0.23528  -0.244145  -0.116361  
  0.207874  -0.211273 -0.0974568  
   0.11802  -0.314006   -0.17897  
  0.225044  -0.325993  -0.172212  
  0.197587   -0.29356   -0.15336  
  0.226832  -0.227634  -0.104192  
  0.216559  -0.309693  -0.160067  
  0.154731   -0.17242 -0.0687792  
  0.149387  -0.066531 -0.00961636  
   0.25558 -0.0795278 -0.00384898  
  0.228513 -0.0463851  0.0157584  
   0.13915   -0.14914  -0.066347  
  0.245484  -0.161856 -0.0601374  
  0.218291  -0.128777 -0.0408566  
  0.247298  -0.062857 0.00867495  
  0.237143  -0.145231 -0.0477782  
   0.17487 -0.00749851  0.0440375  
  0.169409  0.0983555   0.103335  
   0.27557  0.0850175   0.108682  
  0.248591   0.118152   0.128346  
  0.159446  0.0159331  0.0469022  
  0.265608 0.00274934  0.0524077  
  0.238586  0.0359059   0.072134  
  0.267324   0.101708   0.121244  
  0.257346  0.0194383  0.0649929  
  0.194575   0.157417   0.157145  
  0.188955   0.263111   0.216065  
  0.295194   0.249575   0.221321  
  0.268479   0.282381   0.240439  
  0.179272   0.180808    0.15976  
  0.285444   0.167317   0.165029  
  0.258568   0.200365   0.184447  
  0.287053    0.26614   0.233633  
  0.277239   0.183982   0.177479  
  0.213625    0.32189   0.269614  
  0.198445   0.344558   0.271762  
  0.304953   0.331443   0.277173  
  0.278221   0.363811   0.296206  
  0.296792   0.347789   0.289445  
  0.321352  -0.206508 -0.0312799  
  0.352612  -0.201783 -0.0326203  
  0.311333  -0.288557 -0.0873022  
  0.342578  -0.283817 -0.0886263  
  0.337024  -0.204255 -0.0276248  
     0.327  -0.286288 -0.0836385  
  0.341491 -0.0424538   0.080814  
   0.37266  -0.037767  0.0793978  
  0.331426   -0.12447  0.0247737  
  0.362649  -0.119769  0.0233891  
  0.357121 -0.0402202  0.0844234  
  0.347081  -0.122232  0.0284026  
  0.361569   0.121527    0.19279  
  0.392593   0.126198   0.191344  
  0.351537  0.0395425   0.136814  
  0.382638  0.0442212   0.135382  
   0.37713   0.123763   0.196388  
  0.367135  0.0417766   0.140415  
  0.381586   0.285446   0.304762  
   0.41252   0.290102   0.303311  
   0.37159   0.203493   0.248768  
  0.402547   0.208154   0.247311  
  0.397109   0.287686   0.308365  
   0.38712   0.205729   0.252366  
  0.391523   0.367411   0.360755  
  0.422531   0.372089   0.359336  
  0.407083   0.369663   0.364371  
  0.342684  -0.324066  -0.181263  
   0.31363  -0.240003  -0.111765  
  0.336031  -0.259368   -0.20591  
  0.291466  -0.257745  -0.178606  
  0.303701  -0.322002  -0.167813  
   0.32611  -0.341328    -0.2619  
   0.28146  -0.339744   -0.23465  
  0.316141   -0.25784   -0.19669  
  0.306182  -0.339818  -0.252701  
  0.362552  -0.160195 -0.0692479  
   0.33364 -0.0761775 0.000260219  
  0.356062 -0.0954576 -0.0939412  
  0.311386 -0.0938767 -0.0666207  
  0.323629  -0.158081 -0.0557219  
  0.346029  -0.177419  -0.149916  
  0.301438  -0.175809  -0.122589  
  0.336131 -0.0939345 -0.0847042  
  0.326132  -0.175891  -0.140683  
   0.38271 0.00363987  0.0426702  
   0.35371  0.0876599   0.112169  
  0.376167  0.0685149  0.0180359  
  0.331316  0.0700395  0.0452994  
   0.34366 0.00573366  0.0562041  
  0.366109 -0.0134776 -0.0379669  
  0.321336 -0.0119251 -0.0106712  
  0.356161  0.0700255  0.0272528  
  0.346136 -0.0119604 -0.0287359  
  0.402942   0.167573   0.154727  
  0.373939   0.251666   0.224223  
  0.396324   0.232576   0.130151  
    0.3514   0.234037   0.157301  
  0.363809   0.169633   0.168185  
  0.386243   0.150531  0.0740852  
  0.341341   0.152026   0.101299  
  0.376291    0.23406    0.13931  
  0.366216   0.152032  0.0832761  
  0.423113   0.331795   0.266878  
  0.383982   0.333763   0.280233  
  0.406342   0.314637   0.186177  
  0.361443   0.316086   0.213302  
  0.386318   0.316106   0.195324  
  0.497667  -0.297548  -0.177217  
  0.522378  -0.238762  -0.123665  
  0.416114  -0.225235  -0.128923  
  0.442866  -0.258037  -0.148032  
  0.512888  -0.320209  -0.179361  
  0.406355  -0.307103  -0.184775  
  0.433124  -0.339466  -0.203798  
  0.424277  -0.241797  -0.141232  
  0.414537  -0.323446  -0.197043  
  0.516716  -0.133074 -0.0647473  
  0.541923 -0.0740063 -0.0109343  
  0.435739 -0.0606775 -0.0162839  
  0.462754 -0.0938083 -0.0359386  
  0.532061  -0.156458 -0.0673595  
  0.425865  -0.142977 -0.0726305  
  0.452777  -0.176021   -0.09204  
  0.444006 -0.0773649 -0.0288422  
  0.434091  -0.159639 -0.0850779  
  0.536422  0.0318407  0.0483595  
  0.561946  0.0908802   0.102017  
  0.455728   0.103868  0.0962472  
  0.482832  0.0707294   0.076649  
  0.551887 0.00841616   0.045498  
  0.445701  0.0215906  0.0399906  
  0.472759 -0.0115616  0.0202734  
  0.464031     0.0872  0.0837266  
  0.453984 0.00490473  0.0274086  
  0.556561   0.196762   0.161176  
  0.582733   0.256195    0.21548  
  0.476029   0.268485   0.208759  
  0.503471   0.235617   0.189864  
  0.572183   0.173489   0.158747  
  0.465825   0.186195   0.152536  
  0.493053   0.153121   0.133264  
  0.484497   0.251977   0.196593  
  0.474186   0.169573    0.14018  
  0.577274   0.360857    0.27321  
  0.593312   0.338355   0.271369  
  0.486264   0.350332    0.26461  
  0.513758   0.317904   0.245768  
   0.49477   0.334036   0.252468  
  0.493239  -0.265597  -0.169951  
  0.497755  -0.197912  -0.117101  
   0.41589  -0.198476  -0.103211  
  0.488114  -0.280221  -0.173042  
  0.406003  -0.280668  -0.159115  
  0.411872  -0.211265   -0.11581  
  0.402058  -0.293313  -0.171693  
   0.51247  -0.100433 -0.0571502  
  0.516945 -0.0328716 -0.00362433  
  0.435427 -0.0339231 0.00964219  
  0.507224  -0.115333 -0.0603545  
  0.425605  -0.116169 -0.0468012  
  0.431448 -0.0466853 -0.00303499  
  0.421599  -0.128968 -0.0594417  
  0.532004  0.0642349  0.0560466  
  0.536833   0.131821   0.109111  
  0.455331   0.130459   0.122029  
   0.52685  0.0494863  0.0528307  
  0.445354  0.0482757  0.0659074  
  0.451403    0.11779   0.109427  
  0.441396  0.0355547  0.0532383  
  0.551803   0.228661     0.1681  
  0.556883   0.296348   0.221217  
  0.475295    0.29465   0.233949  
  0.546835   0.214177   0.165249  
  0.465306   0.212626   0.178029  
  0.471539   0.282199   0.221617  
  0.461444   0.200044   0.165562  
  0.571803   0.391769   0.279476  
  0.567163   0.377708   0.276891  
   0.48542   0.376244   0.289805  
  0.481718   0.363897   0.277464  
  0.139386  -0.367438  -0.187055  
  0.154352  -0.272011  -0.128813  
   0.23596  -0.270319  -0.141536  
  0.144071  -0.353371  -0.184487  
  0.225835  -0.351913  -0.197391  
   0.23974  -0.257863  -0.129215  
  0.229561  -0.339561  -0.185062  
  0.159385  -0.204332 -0.0756794  
  0.174402  -0.107484 -0.0167067  
  0.255924  -0.106128 -0.0296156  
    0.1644   -0.18984 -0.0728455  
  0.245949  -0.188295 -0.0856159  
  0.259876 -0.0934543 -0.0170246  
  0.249836  -0.175708 -0.0731599  
  0.179185  -0.039905  0.0363741  
   0.19429  0.0572089  0.0960286  
  0.275828  0.0582544  0.0827715  
  0.184385 -0.0251491  0.0395734  
  0.265901 -0.0239444  0.0265061  
  0.279831  0.0710214  0.0954373  
  0.269883 -0.0112187  0.0391639  
  0.198718   0.124763   0.149572  
  0.213479    0.22225   0.209506  
  0.295364   0.222808   0.195625  
  0.204011   0.139671   0.152759  
  0.285649   0.140501   0.139215  
  0.299406   0.235602   0.208213  
   0.28968   0.153304   0.151844  
  0.217947   0.289929   0.262374  
  0.223119    0.30456   0.265448  
  0.305251      0.305   0.251529  
  0.309221   0.317649   0.264096  
  0.403518  -0.335451  -0.187133  
  0.382114  -0.247463  -0.134764  
  0.369154  -0.264628   -0.20781  
  0.372294  -0.329382  -0.190754  
  0.359275  -0.346557  -0.263792  
  0.352142  -0.261926  -0.211236  
  0.342244  -0.343872  -0.267218  
  0.423357  -0.171698 -0.0751957  
  0.402244 -0.0836524 -0.0228439  
  0.389258  -0.100755 -0.0958996  
  0.392134  -0.165557  -0.078783  
  0.379171  -0.182699  -0.151843  
  0.372205 -0.0980231 -0.0992924  
  0.362147  -0.179982  -0.155256  
  0.443709 -0.00792677  0.0366191  
  0.422524  0.0802023  0.0891066  
   0.40948  0.0631975  0.0160898  
  0.412384 -0.00173515   0.033099  
  0.399369 -0.0187871 -0.0399357  
  0.392367  0.0659472  0.0126937  
  0.382283 -0.0160449   -0.04332  
  0.464056   0.155999   0.148801  
  0.442799   0.244315   0.201366  
  0.429664   0.227297   0.128307  
  0.432668   0.162205   0.145214  
  0.419585   0.145219  0.0721907  
  0.412534   0.230028   0.124857  
  0.402455   0.147968  0.0687663  
  0.484158   0.320403   0.261061  
   0.45281   0.326506   0.257426  
  0.439644   0.309407   0.184336  
  0.422537   0.312107   0.180888  
   0.36638   -0.19791 -0.0366867  
  0.356327  -0.279959 -0.0926857  
  0.386362 -0.0339067  0.0753297  
  0.376389    -0.1159  0.0193185  
   0.40622   0.130039   0.187263  
  0.396304  0.0480722   0.131313  
  0.426083   0.293915   0.299199  
  0.416134    0.21198   0.243209  
  0.436124   0.375901    0.35524  
  0.428217  -0.269251  -0.163336  
  0.418403  -0.350706  -0.219155  
   0.44828   -0.10527 -0.0514916  
  0.438233  -0.187363  -0.107454  
  0.468414  0.0590919  0.0609446  
   0.45832 -0.0231124 0.00462491  
  0.489014   0.223779   0.174053  
  0.478642   0.141377   0.117514  
   0.49917   0.306115   0.229965  
   0.22248  -0.199447 -0.0815784  
  0.212324  -0.281783  -0.137489  
  0.243079 -0.0347613   0.031529  
  0.232852  -0.117046 -0.0250396  
  0.263214     0.1296   0.143965  
  0.253173  0.0474426  0.0878484  
  0.283277    0.29358   0.255809  
  0.273261   0.211693   0.199927  
   0.29309   0.375036   0.311629  
  0.276351  -0.265779  -0.188482  
  0.266304  -0.347774   -0.24454  
  0.296193  -0.101931 -0.0765403  
  0.286293  -0.183854  -0.132483  
  0.316031  0.0619779  0.0353705  
  0.306096 -0.0199836 -0.0206027  
  0.336025   0.225965    0.14737  
  0.326006   0.143958  0.0913732  
  0.346086   0.308025   0.203364  
  0.517115  -0.189601   -0.16662  
  0.506855  -0.272051  -0.222633  
  0.536742  -0.025596 -0.0544063  
   0.52698  -0.107495  -0.110526  
   0.55615   0.137979  0.0573015  
  0.546485   0.056214 0.00156042  
  0.575277    0.30131   0.168677  
  0.565687   0.219665    0.11291  
  0.585416   0.383121   0.224845  
 0.0629768  -0.181725  -0.167251  
 0.0528772  -0.264931  -0.223479  
 0.0842483 -0.0166697 -0.0532043  
 0.0737294 -0.0989587  -0.110176  
  0.104756   0.147315  0.0590822  
 0.0945057  0.0653853 0.00319976  
  0.125711     0.3104   0.169775  
  0.115204   0.229058   0.114502  
  0.135461   0.391214   0.225381  
   0.58734  -0.286053 -0.0764354  
  0.577589  -0.366852  -0.132033  
  0.608302  -0.122976  0.0342418  
  0.597852  -0.204718 -0.0211729  
  0.628809  0.0410097   0.146529  
  0.618552 -0.0410462  0.0901234  
  0.650089   0.206076   0.260594  
   0.63933   0.123302   0.203508  
  0.660194   0.289296   0.316831  
  0.124773  -0.276627 -0.0657558  
  0.114634  -0.358422   -0.12193  
  0.143835  -0.113349  0.0455614  
  0.134328   -0.19501  -0.010015  
  0.163223   0.050189   0.157239  
  0.153487  -0.031604   0.101281  
  0.182834   0.214191   0.269456  
  0.172976   0.132079   0.213359  
  0.193106   0.296674    0.32548  
  0.212994  -0.305328  -0.217928  
  0.276695  -0.224747  -0.125857  
  0.271075  -0.208778 -0.0635152  
  0.266668  -0.306937  -0.181919  
  0.261091  -0.290924  -0.119555  
  0.299894  -0.208336 -0.0420153  
  0.289886  -0.290419 -0.0980473  
   0.23315  -0.140806  -0.105583  
  0.296982 -0.0606471 -0.0136206  
  0.291298 -0.0446672  0.0487317  
  0.286837  -0.142643 -0.0697138  
  0.281173  -0.126683 -0.00737983  
  0.320071 -0.0442565  0.0701442  
  0.309979  -0.126275  0.0140745  
   0.25353   0.023065 0.00658535  
  0.317241   0.103192    0.09832  
  0.311561   0.119245   0.160708  
  0.307114  0.0212824  0.0423772  
  0.301429  0.0372985   0.104754  
  0.340233   0.119704   0.182125  
  0.330156  0.0377308   0.126154  
  0.273923   0.186763   0.118363  
  0.337357   0.267002   0.210262  
  0.331686   0.283085   0.272611  
  0.327341   0.185094   0.154269  
  0.321665   0.201171   0.216643  
  0.360293   0.283602   0.294075  
   0.35029   0.201659   0.238091  
  0.293725   0.350477   0.230296  
   0.34718    0.34893   0.266259  
  0.341537   0.365006   0.328596  
  0.370187   0.365549   0.350061  
-0.0636514  -0.355525  -0.186218  
 0.0437464  -0.265587  -0.129714  
-0.0867669  -0.256312  -0.144584  
 0.0331888  -0.346905  -0.185258  
-0.0977631  -0.338271  -0.200569  
 0.0201245  -0.244174    -0.1373  
0.00920683  -0.326316  -0.193266  
-0.0430504  -0.192304 -0.0750638  
 0.0640936  -0.100483  -0.017032  
-0.0660505 -0.0905133 -0.0309126  
 0.0540004  -0.183093  -0.073483  
-0.0762309  -0.173363 -0.0877481  
 0.0409855 -0.0784993 -0.0235596  
 0.0307477  -0.161279 -0.0804072  
-0.0230282 -0.0270877  0.0379309  
 0.0839948  0.0645829  0.0961306  
 -0.046118  0.0748513  0.0826176  
 0.0740936 -0.0179608  0.0394858  
-0.0560351 -0.00782763  0.0258397  
  0.060971  0.0866685  0.0897271  
 0.0510305  0.0041021  0.0331062  
-0.00350155   0.138413   0.151903  
  0.102954   0.230114   0.210148  
 -0.027038    0.24062   0.196708  
  0.093678   0.147274   0.153067  
-0.0363669   0.157674   0.139573  
 0.0802412   0.251909   0.203064  
 0.0707562   0.169318   0.146425  
 0.0144196   0.304815   0.266313  
  0.112161   0.312475   0.266246  
-0.0181455   0.322814   0.252981  
 0.0894277   0.333486   0.258846  
  0.388828  -0.303614 -0.0189523  
  0.374831  -0.229697 -0.0410116  
  0.351216  -0.217884  0.0619574  
  0.365034  -0.311631 -0.0970265  
  0.341361  -0.299881 0.00587057  
  0.329086  -0.226471 -0.0227978  
  0.319202  -0.308474 -0.0788726  
  0.408633  -0.139831  0.0930537  
  0.394974 -0.0659449  0.0709517  
  0.371391  -0.054173   0.174006  
  0.384862  -0.147805  0.0150024  
  0.361285  -0.135991   0.118036  
  0.349171 -0.0627132   0.089255  
  0.339114  -0.144569  0.0332737  
  0.428954  0.0237718   0.204866  
   0.41525   0.097784   0.182847  
  0.391635   0.109413   0.285837  
  0.405108  0.0159091   0.126874  
  0.381504  0.0276111   0.229908  
  0.369333   0.100992   0.201123  
  0.359238  0.0191309   0.145178  
  0.449304   0.187515   0.316909  
  0.435607   0.261867   0.295095  
  0.412048   0.273398   0.398009  
  0.425419   0.179748   0.238928  
  0.401815   0.191317    0.34187  
  0.389671   0.264987   0.313221  
  0.379483   0.182931   0.257146  
  0.469668   0.352086    0.42937  
  0.445675   0.344134   0.351196  
  0.422168   0.355674   0.454118  
  0.399736    0.34716   0.369255  
  0.696864  -0.280472  -0.173917  
  0.608334  -0.205771  -0.117752  
  0.738345  -0.216276  -0.104314  
  0.599127  -0.288132   -0.17385  
  0.729452  -0.298469  -0.160587  
  0.631079  -0.227562  -0.110668  
  0.621893  -0.309139  -0.166451  
  0.714786   -0.11407 -0.0595084  
  0.627293 -0.0402402 -0.00373477  
  0.757425 -0.0505068 0.00977621  
   0.61761  -0.122931 -0.0606707  
  0.747674   -0.13333 -0.0471791  
   0.65035 -0.0623211 0.00266834  
  0.640564  -0.144971 -0.0540301  
  0.734313  0.0514301  0.0544639  
  0.647195   0.124826   0.109428  
  0.777357   0.114858   0.123306  
  0.637195  0.0423035  0.0529099  
  0.767342  0.0321721   0.066554  
  0.670335   0.102847   0.115955  
   0.66029  0.0202454  0.0592892  
  0.754335   0.216646   0.167458  
  0.667542   0.289928   0.222109  
  0.798074   0.280656   0.236977  
  0.657288   0.207436   0.165878  
  0.787538   0.197707   0.180142  
  0.691196   0.268521   0.229694  
  0.680573   0.185626   0.172802  
  0.774936   0.379867   0.278612  
  0.678099   0.371247   0.277653  
  0.809069   0.362614   0.292962  
  0.702113   0.350662    0.28566  
   0.22038  -0.236392  -0.236426  
  0.283585  -0.246644  -0.280243  
  0.210297  -0.318843  -0.292628  
  0.273468  -0.328956  -0.336376  
   0.27628  -0.237708  -0.204963  
   0.26621  -0.319975  -0.261063  
  0.240768 -0.0722358  -0.124003  
  0.303991 -0.0826134  -0.168016  
  0.230578   -0.15419  -0.180138  
  0.293811  -0.164536  -0.224071  
  0.296637 -0.0736285  -0.092718  
  0.286468  -0.155591  -0.148799  
  0.261168  0.0913963 -0.0121475  
  0.324261  0.0810055 -0.0561679  
   0.25096 0.00959506 -0.0680248  
  0.314131 -0.000794007  -0.112072  
  0.316912  0.0900967  0.0191755  
  0.306778 0.00824451 -0.0367463  
  0.281413   0.255057   0.099677  
  0.344436   0.244719  0.0558347  
  0.271356   0.173207  0.0437318  
  0.334379   0.162831 -0.000211182  
  0.337055   0.253848   0.131141  
  0.327024   0.171956  0.0751251  
  0.291118    0.33691   0.155667  
  0.354244   0.326681   0.111885  
  0.346852   0.335783   0.187157  
 -0.312214  -0.213124  -0.378068  
 -0.326618  -0.303195  -0.442701  
 -0.292687 -0.0476127  -0.262742  
 -0.302929  -0.130077  -0.319837  
 -0.272804   0.115397  -0.151585  
 -0.282779  0.0339306  -0.206724  
 -0.252899    0.27592 -0.0451405  
 -0.262483   0.195912 -0.0976176  
 -0.239205    0.34923 0.00212974  
  0.749783  -0.229362  -0.437334  
  0.740242  -0.311414  -0.492656  
  0.770026  -0.066313  -0.326443  
  0.760015  -0.147604  -0.381809  
  0.789652  0.0961545  -0.215842  
  0.779968  0.0149496  -0.271123  
  0.807965   0.258495  -0.105435  
  0.799019   0.177263  -0.160783  
  0.818373   0.340408 -0.0485966  
 -0.101658  -0.233947   0.199383  
 -0.112039  -0.315837   0.142561  
-0.0833565 -0.0716379    0.30974  
-0.0927261  -0.152735   0.254695  
-0.0637303  0.0908169   0.420325  
-0.0736728  0.0095595   0.365013  
-0.0434818   0.253846   0.531194  
-0.0537164   0.172094   0.475676  
-0.0339432   0.335894   0.586508  
  0.964543  -0.251513   0.137754  
  0.950862  -0.324834  0.0904888  
  0.984443 -0.0909954     0.2442  
  0.974122   -0.17151   0.190236  
   1.00432  0.0720122   0.355355  
  0.994417 -0.00953013   0.299339  
   1.02384   0.237526   0.470675  
   1.01457   0.154476    0.41245  
   1.03824   0.327586   0.535308  
  0.152799   -0.29353  -0.133093  
  0.142695   -0.37473  -0.188838  
   0.23579  -0.278586  -0.152728  
  0.225704  -0.360174  -0.208625  
   0.17225  -0.129719  -0.021754  
   0.16249  -0.211761 -0.0774919  
  0.255599  -0.114599 -0.0409861  
   0.24569  -0.196671 -0.0968844  
  0.191944  0.0345736   0.090635  
  0.182117 -0.0475978  0.0342824  
  0.275443  0.0496575  0.0712943  
  0.265539 -0.0324809   0.015066  
  0.211088   0.199372   0.204039  
  0.201591   0.116855   0.147333  
  0.294989   0.214105   0.184083  
   0.28525   0.131839   0.127708  
  0.221046   0.282019   0.260043  
  0.304965   0.296368   0.240001  
  0.199863  -0.210346   -0.13837  
  0.189928  -0.292715  -0.194449  
  0.258532  -0.201373 -0.0530021  
  0.248582  -0.283538  -0.109025  
  0.220217   -0.04614 -0.0258928  
  0.210013  -0.128142 -0.0821128  
  0.278762 -0.0372471  0.0592908  
  0.268626  -0.119267 0.00314751  
  0.240684   0.117602  0.0860354  
  0.230441  0.0357485  0.0301517  
  0.299062   0.126664    0.17128  
   0.28891    0.04472   0.115333  
  0.261007   0.281236   0.197759  
  0.250913   0.199427   0.141859  
  0.319234   0.290476   0.283139  
  0.309191    0.20858   0.227191  
  0.270766   0.363057   0.253752  
  0.329088   0.372378   0.339127  
  0.437086  -0.261714  -0.133173  
    0.4273  -0.343553  -0.189168  
  0.383084  -0.268784  -0.206237  
  0.373212  -0.350694  -0.262224  
  0.457383 -0.0980377 -0.0214216  
  0.447175  -0.179886 -0.0772641  
  0.403236  -0.104947 -0.0943674  
  0.393122  -0.186877  -0.150287  
  0.477817   0.065758  0.0905353  
  0.467607 -0.0161564  0.0344808  
  0.423504  0.0589909  0.0176303  
  0.413371 -0.0229886 -0.0384118  
   0.49815   0.229945   0.202978  
  0.488012   0.147767   0.146748  
  0.443709   0.223108   0.129898  
  0.433626   0.141014  0.0737631  
  0.508078   0.312255   0.259024  
  0.453661   0.305245   0.185915  
  0.499474  -0.175125  -0.111434  
  0.489515  -0.257767  -0.167437  
   0.41592  -0.189842 -0.0915761  
  0.405944  -0.272104  -0.147494  
  0.518622 -0.0103303 0.00196286  
  0.508974 -0.0926108 -0.0547325  
  0.435469 -0.0253963  0.0212089  
   0.42566  -0.107577 -0.0352036  
  0.538317   0.153962   0.114351  
   0.52845  0.0718408  0.0583143  
  0.455313   0.138859   0.133488  
  0.445373  0.0567417  0.0774364  
  0.557772   0.317774   0.225694  
  0.548079   0.236004    0.17009  
  0.475124   0.302847   0.245232  
  0.465223   0.220931   0.189387  
  0.567876   0.398979   0.281441  
  0.485209   0.384436   0.301129  
 -0.039797  -0.382215  -0.159649  
 0.0568663  -0.296161  -0.117623  
-0.0370946  -0.291075  -0.118816  
 0.0467655  -0.376688  -0.172894  
 -0.047139  -0.371056  -0.173564  
 0.0560449   -0.28303  -0.124376  
 0.0457504  -0.363841  -0.179718  
-0.0206786  -0.221076 -0.0503094  
  0.076228   -0.13219 -0.00654187  
-0.0174792  -0.126689 -0.00755849  
 0.0664652  -0.214383 -0.0622977  
-0.0273707  -0.209087 -0.0635464  
 0.0758914    -0.1185 -0.0125745  
 0.0659542  -0.200912 -0.0686613  
-0.00114867 -0.0566786  0.0614593  
 0.0959251  0.0324294   0.106204  
0.00225495  0.0382937   0.105571  
  0.086108 -0.0499258   0.049644  
-0.00757516 -0.0442581  0.0488289  
 0.0957016  0.0463736   0.100402  
 0.0858387 -0.0360947   0.043782  
 0.0181152   0.108452   0.175492  
  0.114582   0.197972   0.220675  
 0.0207591   0.204469   0.220898  
  0.105458   0.114992    0.16331  
 0.0118168   0.121112   0.162908  
   0.11447    0.21198   0.214765  
  0.105304   0.129025   0.157467  
 0.0362492   0.276131   0.290639  
  0.124168   0.281206   0.277032  
 0.0297251   0.288369   0.277881  
   0.12383   0.294863   0.271029  
  0.481293  -0.317105 -0.0352765  
  0.454574  -0.243479 -0.0517723  
  0.445023  -0.227685  0.0252595  
  0.444864  -0.325297  -0.107759  
  0.435355   -0.30952 -0.0307164  
  0.414591  -0.235837 -0.0511875  
  0.404848  -0.317715  -0.107179  
  0.501036  -0.153574  0.0765325  
   0.47488 -0.0798588  0.0599622  
  0.465304 -0.0640642   0.137034  
  0.464653  -0.161663 0.00413424  
  0.455096   -0.14585  0.0811837  
  0.434798 -0.0721284  0.0606763  
  0.424634  -0.153971 0.00477619  
  0.521588 0.00989529   0.188091  
  0.495345   0.083802   0.171836  
  0.485723  0.0995052   0.248855  
  0.485126 0.00195447   0.115829  
  0.475527  0.0177048   0.192892  
  0.455171  0.0915812   0.172569  
  0.444989 0.00971331   0.116579  
  0.542016    0.17361   0.300264  
  0.515714   0.248008    0.28432  
  0.506124   0.263666    0.36133  
  0.505546   0.165781   0.228027  
  0.495915   0.181444   0.304999  
   0.47553   0.255729   0.284936  
  0.465352   0.173556   0.228702  
  0.562285   0.338572   0.412995  
  0.525717   0.330456   0.340481  
  0.516248   0.346216   0.417617  
  0.485576   0.338081   0.341075  
  0.674912  -0.251793  -0.198219  
  0.596591  -0.173639  -0.128257  
  0.690461  -0.180131  -0.128496  
  0.587004  -0.256871  -0.184613  
  0.681494  -0.264029  -0.185477  
  0.596757  -0.187642  -0.122362  
  0.587396  -0.270524  -0.178626  
  0.693049 -0.0841175 -0.0830771  
   0.61525 -0.00809672 -0.0137888  
  0.708966 -0.0139564   -0.01317  
  0.605717 -0.0906586 -0.0708937  
  0.699404 -0.0967746 -0.0705074  
  0.615526 -0.0220357 -0.00800034  
  0.605924  -0.104687 -0.0650649  
  0.712313  0.0810125   0.030955  
  0.634947   0.156523  0.0989572  
  0.728701   0.151026  0.0999589  
  0.625067  0.0742584  0.0427714  
  0.718796  0.0685953  0.0435715  
  0.635337   0.142838   0.104976  
  0.625389  0.0604325  0.0486192  
  0.731844    0.24541   0.142724  
   0.65431   0.320493   0.210039  
  0.748316   0.315412   0.211217  
   0.64471   0.238715   0.154713  
  0.738592   0.233424   0.155947  
  0.655183   0.307367   0.216777  
  0.645274   0.225249   0.161063  
  0.750963   0.406551   0.252067  
   0.66441   0.401022   0.265311  
  0.758361   0.395393   0.265966  
  0.665477   0.388179    0.27212  
  0.361572  -0.335549  -0.449836  
  0.427977  -0.249321  -0.386493  
   0.35317  -0.249457  -0.326042  
   0.41808  -0.331114  -0.442108  
  0.343114  -0.331542  -0.381979  
  0.408841  -0.244336  -0.317383  
  0.398855  -0.326302  -0.373195  
  0.381807  -0.171613  -0.338084  
  0.448315 -0.0856081  -0.274813  
  0.373554  -0.085578  -0.214069  
  0.438162  -0.167393  -0.330677  
   0.36339  -0.167446  -0.270036  
  0.429153 -0.0805611  -0.205612  
  0.419023  -0.162395  -0.261509  
  0.402085 -0.00807037  -0.226305  
  0.468357  0.0777487  -0.163177  
  0.393697  0.0779556  -0.102287  
  0.458377 -0.00393041  -0.219024  
  0.383647 -0.00380571   -0.15818  
  0.449155  0.0829101  -0.093908  
   0.43919 0.00117848  -0.149766  
  0.422198   0.155436  -0.114415  
  0.488382   0.241423 -0.0508638  
  0.413814   0.241665 0.00988192  
   0.47833   0.159504  -0.107194  
  0.403747   0.159761 -0.0462898  
   0.46914   0.246572  0.0183012  
  0.459114   0.164686 -0.0379227  
  0.442467   0.319539 -0.00177861  
  0.498691   0.323676 0.00566912  
  0.423822   0.323764  0.0660952  
  0.479273   0.328753  0.0746281  
-0.0392885  -0.308763 -0.0778159  
-0.0488347  -0.388175  -0.132425  
 0.0514634  -0.303881  -0.104935  
  0.041484  -0.384362  -0.160279  
-0.0209607   -0.14588  0.0315655  
-0.0303931  -0.227675 -0.0235642  
 0.0703353   -0.14045 0.00557987  
 0.0607765  -0.222398 -0.0498706  
-0.00152558  0.0183192   0.143947  
-0.0112424 -0.0638769  0.0874649  
 0.0898766  0.0238326   0.118018  
 0.0801194 -0.0583635  0.0615696  
 0.0167883   0.184156    0.25922  
0.00788489   0.100833    0.20122  
  0.108521   0.189158   0.232317  
 0.0993518   0.106247   0.175049  
 0.0264492   0.268727   0.316307  
  0.118398   0.272575   0.288696  
 0.0586279  -0.223084  -0.307737  
  0.152462   -0.22932   -0.25934  
 0.0486421  -0.306182   -0.36423  
  0.142413  -0.311981  -0.315659  
    0.1269  -0.216645  -0.229197  
  0.116951  -0.299332  -0.285432  
 0.0790645 -0.0587475  -0.194792  
  0.172858  -0.065069   -0.14672  
 0.0688499  -0.140658  -0.251112  
   0.16265  -0.147012  -0.202941  
   0.14734 -0.0523324   -0.11647  
  0.137094  -0.134303  -0.172771  
 0.0996557   0.104528 -0.0831968  
  0.193374  0.0984332 -0.0349469  
 0.0893154  0.0229248   -0.13883  
   0.18309  0.0167036 -0.0907475  
  0.167922   0.111185 -0.00467549  
  0.157602  0.0294529 -0.0604487  
  0.120428   0.267631  0.0277906  
  0.213787   0.261918  0.0766179  
  0.110116   0.186088 -0.0277696  
  0.203663   0.180163  0.0207857  
  0.188468   0.274565    0.10674  
  0.178272   0.192884  0.0509762  
  0.130029    0.34916   0.083709  
  0.223423   0.343665   0.132589  
  0.198134   0.356243   0.162717  
  0.558178  -0.245619  0.0320236  
  0.548565  -0.327226 -0.0239364  
  0.501103  -0.253586 -0.0455113  
  0.491408   -0.33531  -0.101499  
  0.578837 -0.0823721   0.143233  
  0.568431  -0.164001  0.0876871  
  0.521586 -0.0901251  0.0660071  
  0.511268  -0.171865  0.0102993  
   0.59943  0.0810152   0.254924  
  0.589173 -0.000709643   0.198934  
  0.542146  0.0734702   0.177858  
  0.531887 -0.00835178   0.121819  
  0.619868    0.24535   0.367763  
  0.609666   0.162955   0.311236  
  0.562573   0.237758   0.290515  
  0.552388   0.155457   0.234144  
   0.62986   0.328247    0.42414  
  0.572507    0.32034    0.34668  
  0.694281  -0.159825  -0.166753  
  0.684618  -0.244391  -0.223835  
  0.602319   -0.16485   -0.13979  
  0.592441  -0.248261  -0.196165  
  0.712597 0.00601055 -0.0514837  
  0.703186 -0.0765035  -0.108756  
  0.620967 0.000473125 -0.0254965  
  0.611491 -0.0819405 -0.0825251  
  0.732033    0.17021  0.0608976  
  0.722314  0.0882069 0.00499793  
  0.640509   0.164756  0.0869417  
  0.630725  0.0826692  0.0309517  
  0.750363   0.333095   0.170283  
  0.741466   0.252006   0.116029  
  0.659385   0.328188   0.197461  
  0.650069   0.246704   0.142394  
  0.759911    0.41251   0.224895  
  0.669365   0.408675   0.252808  
  0.336663  -0.259025  -0.462585  
  0.326553  -0.341093  -0.518536  
  0.408866  -0.256385  -0.456781  
  0.398992  -0.338091  -0.512227  
  0.357056 -0.0952165  -0.350568  
  0.346876  -0.177026   -0.40652  
  0.429228 -0.0926569  -0.345002  
  0.419054  -0.174396   -0.40083  
  0.377299  0.0682118  -0.238813  
  0.367195 -0.0134991  -0.294697  
  0.449389  0.0707041  -0.233331  
  0.439349 -0.0109718  -0.289186  
  0.397562   0.231979  -0.126596  
  0.387431   0.150011  -0.182802  
  0.469555   0.234506  -0.120969  
  0.459449   0.152474  -0.177297  
  0.407788   0.314159 -0.0702229  
   0.47999   0.316763 -0.0642091  
  0.165825  -0.239495  -0.304011  
  0.155663  -0.322228  -0.360449  
  0.186217 -0.0753049   -0.19142  
   0.17603  -0.157219   -0.24759  
  0.206679  0.0881597 -0.0796712  
  0.196424 0.00644618  -0.135478  
  0.227038   0.251684  0.0319479  
  0.216938   0.169892 -0.0239028  
  0.236649   0.333456  0.0879001  
  0.770849  -0.165788  -0.147163  
  0.777101  -0.158366  -0.200325  
  0.762232  -0.251627  -0.205557  
  0.767885  -0.244468  -0.258509  
  0.772894   -0.15856  -0.170644  
  0.763913  -0.244743    -0.2291  
  0.789223 0.000880667  -0.030715  
  0.795463 0.00776275 -0.0842408  
  0.779648 -0.0820104 -0.0882676  
  0.785995 -0.0747261  -0.141546  
  0.791161 0.00793167 -0.0542038  
  0.781646 -0.0747995  -0.111726  
   0.80879   0.165676   0.082258  
  0.814793   0.171704   0.027887  
  0.798987  0.0833908  0.0260509  
  0.805155  0.0898878 -0.0278357  
  0.810598   0.172313  0.0583574  
  0.800877  0.0902538 0.00239058  
  0.827834   0.329215   0.191985  
  0.832693   0.333793   0.135867  
  0.818567   0.247788   0.137825  
   0.82418    0.25322  0.0826316  
  0.829012   0.335041   0.167019  
  0.820169   0.254106   0.113458  
   0.83697   0.407506   0.245397  
  0.841314   0.411662   0.189143  
  0.837805   0.412902   0.220219  
 -0.116653   -0.30488 -0.0995767  
 -0.121768  -0.309461 -0.0433729  
 -0.125788  -0.383168  -0.152986  
 -0.130382  -0.387324 -0.0966414  
 -0.117971  -0.310711 -0.0745739  
 -0.126761  -0.388566  -0.127768  
-0.0976097  -0.141341  0.0101489  
  -0.10387  -0.147375  0.0645993  
 -0.107387  -0.223453 -0.0454178  
 -0.113256  -0.228891 0.00985668  
-0.0995577  -0.147984  0.0340834  
 -0.109129  -0.229776 -0.0210164  
-0.0780431  0.0234547   0.123122  
-0.0845395  0.0165654   0.176726  
-0.0878075 -0.0590554  0.0663559  
-0.0942315 -0.0655596   0.120322  
-0.0801212  0.0163972   0.146644  
 -0.089837 -0.0659248  0.0900497  
  -0.05967   0.190124   0.239573  
  -0.06618   0.182696   0.292817  
-0.0684687   0.106346   0.180675  
-0.0750721   0.099054   0.234033  
-0.0618552    0.18289   0.263089  
-0.0706063  0.0991286   0.204167  
-0.0510557   0.275968    0.29797  
-0.0569688   0.268809   0.351012  
-0.0528798   0.269083   0.321554  
  0.509225  -0.225521  0.0908609  
  0.625813  -0.238552   0.103554  
  0.499679  -0.307266  0.0349355  
  0.616276  -0.320018  0.0476728  
   0.56666  -0.232333  0.0952987  
  0.557148  -0.313975  0.0393787  
  0.529643 -0.0620645   0.202358  
  0.646711 -0.0756038   0.214258  
  0.519357  -0.143756   0.146645  
  0.636211  -0.157082    0.15896  
   0.58727 -0.0690831   0.206472  
  0.576888  -0.150684   0.150935  
  0.550112   0.101321   0.314045  
  0.667258  0.0875389   0.325716  
   0.53991  0.0196061   0.258119  
  0.657044 0.00592804   0.269807  
  0.607792   0.094184   0.318049  
  0.597579  0.0125209   0.262137  
   0.57048   0.265502   0.426701  
  0.687624   0.251833   0.438721  
  0.560283   0.183207    0.37021  
  0.677437   0.169393   0.382013  
  0.628129    0.25842   0.430852  
  0.617961   0.176051   0.374272  
  0.580711   0.348394   0.483292  
  0.697707   0.335162   0.495444  
  0.638298   0.341496   0.487517  
  0.841828   -0.27244  -0.177164  
  0.940851  -0.199061 -0.0975181  
  0.778822  -0.191757  -0.117528  
  0.931967  -0.284047  -0.156937  
  0.770407  -0.276088  -0.175197  
  0.840915  -0.207434  -0.100384  
   0.83226  -0.290904  -0.157873  
  0.859176  -0.103029 -0.0593583  
  0.960442 -0.0324273  0.0176412  
  0.797642 -0.0253497 -0.00205275  
  0.950571  -0.115595 -0.0397135  
  0.787957  -0.108341 -0.0593603  
  0.860108 -0.0412518  0.0143114  
  0.850322  -0.124238 -0.0428271  
   0.87877  0.0628312  0.0550671  
  0.980366   0.133099   0.131388  
   0.81744   0.139948   0.111419  
  0.970356  0.0503464  0.0746213  
  0.807502  0.0573426  0.0548471  
  0.880007   0.124237   0.127991  
  0.870017     0.0415  0.0712206  
  0.898687   0.227965   0.167929  
   1.00082   0.298389   0.244381  
  0.837574   0.304993   0.223533  
  0.990316   0.215854   0.188035  
  0.827476    0.22255   0.167811  
  0.900563   0.289976   0.241413  
  0.890107   0.207069   0.184787  
  0.918128     0.3894    0.27689  
   1.01031   0.379493   0.299292  
   0.84761    0.38503   0.278101  
  0.911075   0.371544   0.297137  
  0.423857  -0.294576  0.0944414  
  0.393279  -0.206903   0.218502  
  0.416291  -0.216842  0.0947725  
  0.383318  -0.288967   0.162496  
  0.406583  -0.298747  0.0387881  
  0.371883  -0.211845   0.141551  
  0.362003  -0.293859  0.0854751  
  0.443658  -0.130803    0.20629  
  0.413572 -0.0432441   0.330449  
  0.436558 -0.0531978   0.206641  
  0.403392   -0.12503   0.274519  
   0.42638  -0.134981   0.150742  
  0.392135 -0.0481616   0.253566  
  0.381988  -0.129956   0.197612  
  0.464042  0.0326644   0.317998  
  0.433862   0.120178   0.442203  
  0.456908   0.110318   0.318441  
  0.423723  0.0384594   0.386308  
  0.446742  0.0285476   0.262504  
  0.412422    0.11533   0.365359  
  0.402276  0.0335759   0.309445  
  0.484371   0.196269   0.429999  
  0.454266   0.284073   0.554471  
  0.477335   0.274375   0.430831  
   0.44403   0.202021   0.498252  
  0.467094   0.192218   0.374528  
  0.432857    0.27928    0.47759  
  0.422605   0.197201   0.421397  
  0.504957   0.361114   0.542973  
    0.4646   0.366536   0.611022  
  0.487564   0.356936    0.48721  
   0.44308   0.361671   0.533874  
 -0.206836   -0.36506  -0.184495  
  -0.28951   -0.27405  -0.151985  
 -0.126286  -0.280653  -0.131139  
 -0.299001  -0.355154  -0.206896  
 -0.136322  -0.360689  -0.185707  
 -0.189254  -0.265634  -0.149019  
 -0.199766  -0.347203  -0.204743  
 -0.187395  -0.203624 -0.0755341  
 -0.269056  -0.108759 -0.0389925  
 -0.106151  -0.115606 -0.0190246  
 -0.279006  -0.191514 -0.0956395  
 -0.116188  -0.198209 -0.0754161  
 -0.168698 -0.0998952 -0.0355968  
 -0.178799  -0.182727 -0.0923931  
 -0.167479 -0.0384905  0.0373278  
 -0.249132  0.0567675  0.0747547  
-0.0863539  0.0496913  0.0944475  
 -0.259046 -0.0260061  0.0177746  
-0.0962143 -0.0330009  0.0375475  
 -0.148799  0.0655941  0.0780833  
 -0.158708 -0.0171576   0.021174  
 -0.147885    0.12737   0.151753  
 -0.229541   0.223401   0.189914  
-0.0675346   0.216099   0.209923  
 -0.239261   0.139935   0.132109  
-0.0766685   0.132683   0.151755  
 -0.129606   0.231776   0.192779  
 -0.139014    0.14858   0.135222  
 -0.130538   0.296781    0.26956  
 -0.220657   0.308387   0.249333  
-0.0591197    0.30043   0.267593  
 -0.120952   0.315246   0.250267  
  0.798269  -0.279753 -0.00186939  
  0.787553  -0.356975 -0.0549129  
  0.819555  -0.117593   0.106368  
  0.809211  -0.199178  0.0514318  
  0.839946  0.0466215   0.218889  
   0.82974 -0.0356494   0.162249  
  0.861893   0.213272   0.335947  
  0.850409    0.12938   0.276548  
  0.874051    0.30015   0.395103  
 -0.150267  -0.188919  -0.243456  
 -0.162422  -0.275791  -0.302605  
 -0.128317 -0.0222703  -0.126399  
 -0.138781  -0.105028  -0.184059  
 -0.107925   0.141944  -0.013879  
  -0.11811  0.0600004 -0.0697603  
-0.0866363   0.304105  0.0943617  
  -0.09758   0.223529  0.0410576  
-0.0759227   0.381333   0.147412  
 0.0785398  -0.243079  0.0909901  
 0.0681624  -0.325289  0.0344117  
 0.0976986 -0.0799432   0.202658  
 0.0881607  -0.161459   0.147029  
  0.117256  0.0831261   0.313932  
  0.107398 0.00157728   0.258245  
  0.137291   0.246664   0.425371  
  0.127233   0.164803   0.369693  
  0.147252   0.328744   0.481128  
  0.762444  -0.167235   -0.24042  
   0.75248  -0.252354  -0.298024  
  0.848665  -0.158837  -0.227429  
   0.84025  -0.247366   -0.28773  
  0.780994 -0.00191018  -0.125622  
  0.771523 -0.0840479  -0.182573  
  0.867509 0.00720576  -0.111003  
  0.857868 -0.0753715  -0.168176  
  0.800252   0.161495 -0.0140638  
  0.790673   0.079949  -0.069556  
  0.886811    0.17091 0.000860178  
  0.877188  0.0891811  -0.054578  
  0.817772   0.323043  0.0938002  
  0.809418   0.242831  0.0405042  
  0.905017   0.332544   0.107876  
  0.896263   0.252039  0.0554361  
  0.826668   0.402511   0.148387  
  0.911963   0.407816   0.158734  
   0.69273  -0.248075   0.101404  
  0.682939  -0.329104  0.0456578  
  0.679172  -0.228376   0.165988  
  0.669805  -0.309852   0.110225  
  0.714084 -0.0856296   0.211271  
  0.703425  -0.166955   0.156321  
  0.700242 -0.0656879   0.276242  
  0.689728  -0.147038   0.221129  
  0.734623  0.0774448   0.322643  
  0.724416 -0.00415455   0.266701  
  0.720654  0.0972263    0.38744  
  0.710534  0.0157241   0.331647  
  0.755224   0.241943   0.436097  
  0.744887   0.159335   0.379153  
  0.740771   0.261285   0.500345  
  0.730731   0.178947   0.443617  
    0.7652   0.325627   0.492929  
  0.751099   0.344988   0.557604  
 -0.031562  -0.216171   -0.33342  
-0.0415248  -0.299769  -0.390184  
-0.0115735  -0.233893  -0.389052  
-0.0218474  -0.317471  -0.446149  
-0.0109471 -0.0516629  -0.220001  
 -0.021225  -0.133571  -0.276516  
0.00862392 -0.0697428  -0.276103  
-0.00149286  -0.151506  -0.332327  
0.00961535   0.111456  -0.108576  
-0.000725949  0.0299565  -0.164037  
 0.0290835  0.0932473   -0.16482  
 0.0187742  0.0117971  -0.220271  
 0.0309234   0.273976 0.00143491  
 0.0202616   0.192814 -0.0535711  
 0.0501038   0.256023 -0.0544188  
 0.0395963   0.174639  -0.109643  
 0.0406897   0.355059  0.0572104  
 0.0595184   0.337489 0.00141091  
 -0.108516  -0.298735 -0.000826724  
 -0.117376  -0.378139 -0.0553673  
 -0.194895  -0.308216 -0.0152714  
 -0.201822  -0.383462 -0.0660845  
-0.0909984  -0.137198   0.107003  
 -0.100165  -0.218528  0.0524429  
 -0.176684  -0.146594  0.0917277  
 -0.186139  -0.227719  0.0371538  
-0.0717409  0.0262044   0.218558  
-0.0814193  -0.055654   0.162492  
 -0.157382  0.0171088   0.203588  
 -0.167061 -0.0648655   0.147163  
-0.0531937   0.191535   0.333379  
-0.0622677   0.108344   0.275512  
 -0.138529   0.183156   0.320024  
 -0.147739  0.0996881   0.260763  
-0.0432424     0.2767   0.391021  
 -0.130135   0.271725   0.380375  
  0.307446  -0.255519  -0.394713  
  0.297295   -0.33775  -0.450793  
   0.29459  -0.251693  -0.338233  
  0.284445  -0.333992  -0.394372  
  0.327879 -0.0916075  -0.282562  
    0.3177  -0.173456  -0.338552  
  0.315018 -0.0877206  -0.226043  
  0.304835  -0.169609  -0.282074  
  0.348133  0.0718819  -0.170771  
  0.338017 -0.00985431  -0.226652  
  0.335277  0.0758251  -0.114228  
  0.325155 -0.00593899  -0.170123  
  0.368366   0.235597 -0.0586751  
   0.35826   0.153678  -0.114784  
  0.355482   0.239528 -0.00218067  
  0.345398   0.157632  -0.058262  
  0.378347   0.317651 -0.00248545  
  0.365346   0.321532  0.0539148  
  0.260626  -0.259885  -0.465668  
  0.250284   -0.34238  -0.522259  
  0.281021 -0.0960192  -0.353437  
  0.270851  -0.177872  -0.409493  
  0.301308  0.0673952  -0.241686  
  0.291158 -0.0143075  -0.297549  
  0.321604   0.231047   -0.12972  
  0.311486   0.149188  -0.185755  
   0.33158   0.313155 -0.0737172  
  0.708888  -0.174409  -0.245509  
   0.69854   -0.25844  -0.302332  
  0.727713 -0.00969204  -0.131846  
  0.718219 -0.0916929  -0.188474  
   0.74696   0.153625 -0.0203692  
  0.737386  0.0720476 -0.0758564  
  0.764661   0.315694  0.0886587  
  0.756049   0.234924  0.0343499  
  0.774233   0.396052   0.144045  
-0.0417957  -0.204962  -0.300941  
-0.0517478  -0.288712  -0.357682  
-0.0208407 -0.0401743  -0.187085  
-0.0312417  -0.122203  -0.243828  
-0.000251745   0.123096 -0.0754998  
 -0.010597   0.041536  -0.130999  
  0.021243   0.285462  0.0342329  
 0.0104314   0.204456  -0.020579  
 0.0310976   0.366194   0.089833  
  0.698721  -0.260166  0.0648423  
  0.688845   -0.34084 0.00927921  
  0.720255 -0.0978602   0.174463  
  0.709564  -0.179198   0.119586  
  0.740831  0.0653826   0.286017  
  0.730596 -0.0163161   0.229944  
  0.761789   0.230178   0.399917  
  0.751226   0.147404   0.342765  
  0.771756   0.314004   0.456714  
-0.0584302  -0.291327 0.00594253  
-0.0679634  -0.371622  -0.049397  
-0.0407619  -0.129304   0.114885  
-0.0498472  -0.210591  0.0601893  
-0.0215161  0.0340003   0.226349  
-0.0311896 -0.0477359   0.170363  
-0.00270345   0.198731   0.340054  
-0.0120214   0.116001   0.282983  
0.00763163   0.282827   0.396921  
  0.851821  -0.173955  -0.132617  
  0.844094  -0.261055  -0.192599  
  0.772439  -0.176917  -0.131391  
  0.764029  -0.262169   -0.18955  
  0.870852 -0.00699408 -0.0159517  
  0.861123 -0.0901402 -0.0734142  
  0.791017 -0.0102984 -0.0152907  
  0.781391 -0.0932732 -0.0727645  
  0.890515    0.15813  0.0973742  
  0.880677  0.0756664  0.0411151  
  0.810705    0.15478  0.0979605  
  0.800831  0.0723226  0.0415686  
  0.910319   0.322214   0.207898  
  0.900489   0.240434   0.153459  
  0.830319   0.319069   0.208811  
  0.820622   0.237148   0.153945  
  0.918951   0.400044   0.260399  
  0.839808   0.398054   0.262661  
  0.478106  -0.214456   0.153612  
  0.468539  -0.296307  0.0977365  
  0.462775   -0.22066  0.0908475  
  0.453164  -0.302486   0.034905  
  0.498461 -0.0509346   0.265227  
  0.488228  -0.132649   0.209426  
  0.483099 -0.0570924   0.202546  
  0.472873  -0.138839   0.146727  
  0.518836   0.112442    0.37692  
  0.508678  0.0307366   0.321003  
  0.503511   0.106372   0.314302  
  0.493326  0.0246228   0.258367  
    0.5392   0.276477   0.489467  
  0.528991   0.194296   0.433009  
  0.523913   0.270494   0.426834  
  0.513691   0.188269   0.370429  
  0.549618   0.359402   0.546278  
   0.53416   0.353231   0.483336  
  -0.19908  -0.297877  -0.115501  
  -0.20771  -0.375706     -0.168  
 -0.119088  -0.294732  -0.116412  
 -0.128576  -0.373715  -0.170261  
 -0.179275  -0.133793 -0.00497716  
 -0.189248  -0.216097 -0.0610618  
-0.0994735  -0.130442 -0.00556215  
 -0.109391   -0.21281 -0.0615463  
 -0.159612  0.0313312   0.108349  
 -0.169437 -0.0513293   0.051282  
-0.0797863   0.034636   0.107689  
   -0.0896 -0.0479849  0.0508297  
 -0.140581   0.198293   0.225015  
 -0.149884   0.114478   0.165812  
-0.0612089   0.201255   0.223791  
-0.0701602   0.117611   0.165163  
 -0.132856   0.285395      0.285  
-0.0527999   0.286509   0.281952  
  0.941241  -0.179164  -0.118862  
  0.933394  -0.266914  -0.181206  
  0.961102 -0.0118785 -0.00260555  
  0.951355 -0.0952522 -0.0603716  
  0.981053   0.153459   0.110954  
  0.971035  0.0707919   0.054384  
   1.00155   0.317674   0.222418  
  0.990821   0.235732   0.166921  
   1.00934   0.395593   0.273618  
  0.459185  -0.207254   0.221937  
  0.449461  -0.289287   0.166192  
  0.479505 -0.0437415   0.333629  
  0.469296  -0.125489   0.277807  
   0.49981   0.119596   0.445305  
  0.489684  0.0379182   0.389431  
  0.520165   0.283503   0.557707  
  0.509944   0.201444   0.501407  
  0.530653   0.366342   0.614806  
 -0.290269  -0.293336  -0.130021  
 -0.298057  -0.371255  -0.181221  
 -0.269768  -0.129121  -0.018558  
 -0.279536  -0.211394  -0.074525  
 -0.249818  0.0362165  0.0950017  
  -0.25975 -0.0464539  0.0380122  
 -0.229956   0.203502   0.211259  
 -0.240071    0.11959   0.152768  
  -0.22211   0.291253   0.273603  
  0.324789  -0.214754 -0.0731368  
  0.344749 -0.0506903  0.0389193  
   0.36474   0.113426   0.150974  
  0.384756   0.277453   0.262968  
  0.326659  -0.255275  -0.177339  
   0.34667 -0.0912515 -0.0653511  
  0.366659  0.0728636   0.046702  
  0.386618    0.23693   0.158763  
  0.325686  -0.268153  -0.243445  
  0.345689  -0.104152   -0.13148  
  0.365725   0.059935 -0.0194464  
  0.385758   0.223997   0.092616  
  0.325587  -0.195815  0.0130674  
  0.345621 -0.0317506   0.125136  
  0.365659   0.132332   0.237166  
  0.385665   0.296328   0.349122  
  0.326595  -0.270348  -0.236484  
  0.346594  -0.106343  -0.124511  
  0.366599  0.0577395 -0.0124845  
    0.3866   0.221788  0.0995599  
  0.324686  -0.196461 -0.00413822  
  0.344688 -0.0324122   0.107907  
  0.364692   0.131669   0.219933  
   0.38469   0.295674   0.331904  
  0.325994  -0.219995 -0.0592517  
  0.346058 -0.0559172  0.0528228  
  0.366088   0.108206   0.164888  
  0.386062    0.27223   0.276881  
  0.325261  -0.248732  -0.187485  
  0.345236 -0.0847091 -0.0754945  
  0.365268  0.0794139  0.0365707  
  0.385333   0.243494   0.148648  
  0.325952  -0.211212 -0.0305584  
  0.346015 -0.0471286   0.081529  
  0.366054   0.116985   0.193586  
  0.386043   0.280994   0.305555  
  0.325803  -0.218596 -0.0602454  
  0.345844 -0.0545357   0.051805  
  0.365871   0.109574   0.163858  
  0.385857   0.273595   0.275854  
  0.325975  -0.232587  -0.106546  
  0.346009 -0.0685391 0.00548516  
  0.366024  0.0955757   0.117543  
     0.386   0.259612   0.229561  
  0.325769  -0.228163 -0.0964744  
  0.345792 -0.0641195  0.0155537  
  0.365809  0.0999863   0.127604  
  0.385799   0.264016   0.239614  
  0.326032  -0.242576  -0.143323  
  0.346049  -0.078543 -0.0313099  
  0.366058   0.085563  0.0807393  
  0.386045   0.249604   0.192765  
  0.325783  -0.234893  -0.121487  
  0.345796 -0.0708571 -0.00946894  
   0.36581   0.093246   0.102579  
  0.385806    0.25728   0.214596  
  0.325478  -0.223832 -0.0890747  
  0.345483 -0.0597923  0.0229502  
  0.365497   0.104308   0.134995  
  0.385501   0.268335   0.247003  
  0.325557  -0.236442  -0.134287  
  0.345552 -0.0724105  -0.022273  
  0.365567  0.0916931  0.0897751  
  0.385582   0.255732   0.201797  
  0.325864  -0.247287  -0.165845  
  0.345867 -0.0832623 -0.0538404  
  0.365881  0.0808363   0.058203  
  0.385889   0.244878   0.170231  
  0.325273  -0.221393  -0.085803  
  0.345266 -0.0573514  0.0262244  
  0.365275   0.106751    0.13827  
  0.385286   0.270779   0.250277  
   0.32532  -0.228549  -0.111839  
  0.345305 -0.0645102 0.000183776  
  0.365315  0.0995977   0.112235  
  0.385335   0.263635   0.224252  
  0.325211  -0.208455 -0.0387108  
   0.34522 -0.0444097  0.0733251  
  0.365234   0.119681   0.185361  
  0.385236   0.283696   0.297351  
   0.32562  -0.219244 -0.0678758  
  0.345644 -0.0551957  0.0441593  
  0.365665   0.108906   0.156205  
  0.385659   0.272928   0.268206  
   0.32607  -0.249379  -0.168305  
  0.346079 -0.0853543 -0.0563021  
  0.366088  0.0787454  0.0557415  
  0.386083   0.242788   0.167771  
   0.32612  -0.261296  -0.211429  
  0.346122 -0.0972833 -0.0994413  
  0.366137  0.0668058  0.0125933  
  0.386146   0.230852   0.124631  
  0.325726  -0.255161  -0.197843  
  0.345723 -0.0911456 -0.0858522  
  0.365747   0.072952  0.0261905  
  0.385773   0.237004   0.138232  
  0.325556  -0.243267  -0.159614  
  0.345546 -0.0792397 -0.0476073  
  0.365565   0.084866  0.0644425  
  0.385591   0.248913   0.176475  
  0.326371  -0.252369  -0.172398  
  0.346384 -0.0883427 -0.0603993  
  0.366383   0.075764  0.0516484  
  0.386361   0.239815   0.163688  
  0.325463  -0.251877  -0.192774  
   0.34545 -0.0878588 -0.0807835  
   0.36548  0.0762504  0.0312693  
  0.385525   0.240314   0.143325  
  0.325078  -0.221366 -0.0914082  
  0.345052 -0.0573177  0.0206275  
  0.365054   0.106794   0.132681  
  0.385075   0.270828    0.24469  
  0.324995   -0.21107 -0.0534624  
  0.344986  -0.047023  0.0585744  
  0.364989   0.117075   0.170615  
  0.384995   0.281094   0.282608  
  0.324995    -0.1954 0.00464626  
  0.345009 -0.0313517   0.116692  
  0.365026   0.132726   0.228717  
  0.385028   0.296729   0.340689  
  0.324602   -0.20469 -0.0370431  
  0.344579 -0.0406315  0.0750105  
   0.36457   0.123468   0.187049  
  0.384571    0.28748   0.299025  
  0.326142  -0.232395 -0.0998846  
  0.346197 -0.0683308  0.0121648  
  0.366211  0.0957993   0.124236  
  0.386168   0.259845   0.236261  
  0.325349  -0.238663  -0.149094  
  0.345325 -0.0746291 -0.0370803  
  0.365343   0.089487  0.0749783  
  0.385382    0.25354   0.187016  
  0.325168  -0.236685  -0.147992  
  0.345126  -0.072641 -0.0359689  
  0.365142  0.0914896  0.0761025  
  0.385198   0.255556   0.188156  
  0.325434  -0.262426  -0.228952  
  0.345431 -0.0984229  -0.116988  
  0.365472  0.0656776 -0.00494263  
   0.38552   0.229751   0.107133  
   0.32574  -0.205619  -0.016943  
  0.345783 -0.0415509  0.0951248  
  0.365821   0.122548   0.207168  
  0.385819   0.286552   0.319137  
  0.326276  -0.258044  -0.196262  
  0.346281 -0.0940262 -0.0842701  
  0.366287   0.070068  0.0277679  
  0.386284   0.234114   0.139804  
  0.326311  -0.272806  -0.249598  
  0.346313  -0.108804  -0.137627  
   0.36633  0.0552734 -0.0256027  
  0.386344   0.219322  0.0864437  
  0.326779  -0.266543  -0.219394  
  0.346776  -0.102534  -0.107422  
   0.36677  0.0615585 0.00461121  
  0.386756   0.225614   0.116662  
  0.326232  -0.242839  -0.138429  
   0.34626 -0.0787987 -0.0264118  
  0.366264  0.0853193  0.0856469  
  0.386231   0.249369   0.197683  
  0.325142  -0.227913  -0.115158  
  0.345108 -0.0638649 -0.00312566  
  0.365114   0.100255   0.108935  
  0.385147     0.2643   0.220958  
  0.325263  -0.256954  -0.214639  
  0.345252 -0.0929463  -0.102673  
  0.365292  0.0711678 0.00938428  
  0.385358   0.235254   0.121476  
  0.325452  -0.207172 -0.0287031  
  0.345476 -0.0431202  0.0833414  
  0.365501   0.120972   0.195379  
    0.3855   0.284983   0.307363  
  0.326385  -0.244517  -0.140454  
  0.346419 -0.0804736 -0.0284372  
  0.366417   0.083653  0.0836286  
  0.386369   0.247714   0.195679  
  0.324992  -0.225051  -0.108956  
  0.344944  -0.060991 0.00309126  
  0.364944   0.103137   0.115158  
  0.384981   0.267184    0.22718  
  0.325963  -0.263173  -0.221202  
  0.345964 -0.0991632  -0.109219  
  0.365986  0.0649249 0.00281478  
  0.386005   0.228975   0.114857  
   0.32598  -0.271764  -0.250971  
  0.345984  -0.107764  -0.139004  
  0.366012  0.0563154 -0.0269768  
  0.386035   0.220369  0.0850764  
  0.326889  -0.264043  -0.207917  
  0.346887  -0.100033 -0.0959484  
  0.366873  0.0640686  0.0160913  
  0.386845   0.228134   0.128153  
  0.324472  -0.196808  -0.008746  
  0.344464 -0.0327545   0.103306  
  0.364459   0.131331   0.215333  
  0.384453   0.295335   0.327298  
  0.325339  -0.195447  0.0101327  
  0.345363 -0.0313915   0.122189  
  0.365394   0.132688   0.234216  
  0.385398   0.296687   0.346181  
  0.314998  -0.277389 -0.0513606  
  0.314686  -0.278449 -0.0601442  
     0.315  -0.293049  -0.109457  
  0.315214  -0.290436 -0.0947079  
  0.324838  -0.195923 0.000244474  
  0.325104  -0.201922  -0.017023  
  0.324845  -0.203759 -0.0287879  
  0.325099  -0.209757 -0.0460931  
   0.31484  -0.277912 -0.0557616  
  0.315107  -0.283907 -0.0730246  
  0.314847  -0.285743 -0.0847881  
  0.315102  -0.291737  -0.102089  
   0.32497  -0.202834 -0.0229138  
  0.314973  -0.284818 -0.0789145  
     0.335  -0.113385  0.0606669  
  0.334686  -0.114446  0.0518816  
  0.334989  -0.129059 0.00255056  
  0.335213  -0.126444  0.0173025  
  0.344846 -0.0318757   0.112289  
  0.345115  -0.037875  0.0950178  
   0.34484 -0.0397108  0.0832531  
  0.345098 -0.0457119  0.0659418  
  0.334841  -0.113909  0.0562641  
  0.335107  -0.119909  0.0389938  
  0.334842  -0.121746  0.0272284  
  0.335097  -0.127747 0.00991935  
  0.344974 -0.0387874  0.0891257  
  0.334971  -0.120822  0.0331021  
  0.355019  0.0506896   0.172712  
   0.35469  0.0496307   0.163927  
  0.354986  0.0350271   0.114599  
  0.355228  0.0376375   0.129347  
  0.364857   0.132203   0.224314  
  0.365131    0.12621   0.207048  
  0.364843   0.124379   0.195286  
  0.365107   0.118381   0.177979  
  0.354852  0.0501661   0.168308  
  0.355123  0.0441696   0.151039  
  0.354841   0.042336   0.139275  
  0.355102  0.0363361   0.121964  
  0.364983   0.125299   0.201157  
  0.354979  0.0432578   0.145147  
   0.37503   0.214741   0.284708  
  0.374692   0.213686   0.275923  
  0.374992     0.1991   0.226618  
  0.375238   0.201704   0.241362  
  0.384857   0.296207   0.336286  
  0.385132   0.290218    0.31903  
  0.384845   0.288391   0.307269  
  0.385111   0.282398   0.289971  
  0.374859   0.214219   0.280305  
  0.375134   0.208229   0.263045  
  0.374844   0.206401   0.251283  
   0.37511   0.200405   0.233981  
  0.384985    0.28931    0.31314  
  0.374986   0.207319   0.257154  
   0.39502   0.378691   0.396666  
  0.394688   0.377635   0.387882  
  0.394998   0.363055   0.338587  
   0.39523   0.365658   0.353331  
  0.394852    0.37817   0.392264  
  0.395125   0.372181   0.375008  
  0.394845   0.370352   0.363247  
  0.395109   0.364361   0.345951  
  0.394982   0.371272   0.369119  
  0.324899  -0.188474  0.0279306  
  0.324516  -0.189859  0.0178872  
  0.314903  -0.270468 -0.0280826  
  0.314515  -0.271852 -0.0381243  
  0.324698  -0.188936  0.0236166  
    0.3147  -0.270929 -0.0323955  
  0.344916 -0.0244253   0.139984  
  0.344523  -0.025811   0.129937  
  0.334905  -0.106458  0.0839561  
  0.334519  -0.107844  0.0739107  
   0.34471  -0.024889   0.135667  
  0.334703  -0.106921  0.0796406  
  0.364937   0.139644   0.252002  
  0.364529   0.138261   0.241956  
  0.354928  0.0576121   0.196001  
  0.354527  0.0562278   0.185955  
  0.364724   0.139181   0.247685  
  0.354718  0.0571487   0.191684  
  0.384939    0.30364   0.363961  
  0.384525    0.30226   0.353916  
  0.374941   0.221655   0.307986  
  0.374529   0.220275    0.29794  
  0.384723   0.303178   0.359646  
  0.374726   0.221193    0.30367  
  0.394929   0.385603   0.419937  
  0.394521   0.384222   0.409893  
  0.394716   0.385142   0.415623  
  0.316319  -0.354769  -0.305575  
  0.316597   -0.35231  -0.292462  
  0.316276  -0.340005  -0.252242  
  0.316126  -0.343259  -0.267408  
  0.326458  -0.271581  -0.243033  
  0.326215  -0.267056  -0.230521  
  0.326429  -0.264203  -0.216381  
  0.326202  -0.259672  -0.203841  
  0.316463  -0.353544  -0.299011  
  0.316222  -0.349018    -0.2865  
   0.31643  -0.346164   -0.27236  
  0.316205  -0.341634  -0.259821  
  0.326326  -0.265633  -0.223445  
  0.316331  -0.347595  -0.279424  
  0.336309  -0.190819  -0.193617  
  0.336593   -0.18836  -0.180503  
  0.336278  -0.176051  -0.140272  
  0.336118  -0.179305  -0.155441  
  0.346458  -0.107577   -0.13106  
  0.346216  -0.103048  -0.118542  
  0.346431  -0.100191  -0.104398  
  0.346205 -0.0956567 -0.0918512  
  0.336456  -0.189593  -0.187051  
  0.336213  -0.185067  -0.174537  
  0.336429  -0.182212  -0.160395  
  0.336202  -0.177679  -0.147852  
  0.346328  -0.101623  -0.111463  
  0.336325  -0.183642   -0.16746  
   0.35632 -0.0267677 -0.0816219  
  0.356596 -0.0243038 -0.0685046  
  0.356285 -0.0119805 -0.0282552  
  0.356129 -0.0152406 -0.0434286  
  0.366469  0.0565021 -0.0190348  
  0.366233  0.0610351 -0.00651208  
  0.366436  0.0638975 0.00763451  
  0.366216  0.0684346  0.0201847  
  0.356463 -0.0255398  -0.075054  
  0.356224 -0.0210089 -0.0625327  
  0.356434 -0.0181487 -0.0483872  
  0.356211 -0.0136127 -0.0358376  
  0.366338  0.0624628 0.000567443  
  0.356333  -0.019582 -0.0554534  
  0.376339   0.137307  0.0304229  
    0.3766   0.139774  0.0435407  
  0.376287   0.152103  0.0837908  
  0.376143   0.148841  0.0686163  
  0.386477    0.22055  0.0930095  
  0.386244   0.225083    0.10553  
  0.386434   0.227945   0.119675  
  0.386219    0.23248    0.13222  
  0.376474   0.138536    0.03699  
   0.37624   0.143069  0.0495122  
  0.376436   0.145932  0.0636586  
  0.376219   0.150469  0.0762072  
  0.386344    0.22651   0.112607  
  0.376343   0.144497  0.0565911  
  0.396341   0.301311   0.142451  
    0.3966   0.303776   0.155565  
   0.39628   0.316094   0.195799  
  0.396143   0.312834   0.180629  
  0.396475   0.302538   0.149015  
  0.396241   0.307068   0.161532  
  0.396432   0.309929   0.175675  
  0.396216   0.314461   0.188217  
  0.396341   0.308494   0.168609  
  0.315704  -0.350107  -0.299415  
  0.315741   -0.33712   -0.25382  
  0.315485  -0.333828  -0.248744  
  0.315457  -0.344371  -0.284917  
  0.325722  -0.261668  -0.220646  
  0.325553  -0.265289    -0.2362  
   0.32559   -0.25352  -0.195306  
  0.325458  -0.257158  -0.210864  
  0.315738  -0.343624   -0.27662  
  0.315573  -0.347239  -0.292168  
  0.315608  -0.335476  -0.251281  
  0.315481  -0.339106  -0.266832  
  0.325584  -0.259413  -0.215755  
  0.315604  -0.341366  -0.271726  
  0.335682  -0.186169  -0.187469  
   0.33572   -0.17317  -0.141855  
  0.335451  -0.169886  -0.136787  
  0.335426  -0.180443  -0.172978  
  0.345721 -0.0976592  -0.108667  
  0.345553  -0.101288  -0.124236  
  0.345583 -0.0895033 -0.0833158  
   0.34545 -0.0931467 -0.0988862  
  0.335716   -0.17968  -0.164663  
  0.335547  -0.183306  -0.180225  
  0.335581  -0.171529  -0.139319  
  0.335448  -0.175171  -0.154884  
   0.34558 -0.0954038  -0.103776  
  0.335577  -0.177426  -0.159773  
  0.355704  -0.022112 -0.0754723  
  0.355733 -0.00909887 -0.0298356  
  0.355461 -0.00580675 -0.0247633  
  0.355447 -0.0163763 -0.0609754  
  0.365751  0.0664342 0.00337207  
  0.365592  0.0628057 -0.0121968  
  0.365611  0.0745994  0.0287314  
  0.365486  0.0709588  0.0131632  
  0.355733 -0.0156152 -0.0526541  
  0.355569 -0.0192447 -0.0682259  
  0.355593 -0.00745427 -0.0272976  
  0.355464 -0.0110971 -0.0428697  
  0.365613  0.0686952 0.00826775  
  0.355593 -0.0133572 -0.0477615  
  0.375745   0.141976  0.0365883  
  0.375763    0.15499   0.082217  
  0.375505   0.158295  0.0873041  
  0.375499   0.147725     0.0511  
  0.385781   0.230491   0.115423  
  0.385632   0.226873  0.0998714  
  0.385645   0.238656   0.140779  
  0.385533   0.235028   0.125229  
  0.375769   0.148474  0.0594023  
  0.375616   0.144849  0.0438415  
   0.37563   0.156641  0.0847614  
  0.375512   0.153005  0.0692019  
  0.385651   0.232757   0.120325  
  0.375636   0.150738  0.0643017  
  0.395752   0.305989   0.148624  
  0.395772   0.318984   0.194228  
  0.395527   0.322294    0.19932  
  0.395517   0.311743   0.163139  
  0.395778   0.312476   0.171424  
  0.395627   0.308865   0.155878  
  0.395645   0.320636   0.196774  
  0.395533   0.317013   0.181229  
  0.395649   0.314743   0.176325  
  0.315594  -0.277811 -0.0429449  
  0.315743  -0.287609 -0.0729471  
   0.32587  -0.201496 -0.000530307  
  0.325673  -0.192365  0.0259738  
  0.325668  -0.200715 -0.00192907  
  0.315875  -0.283494 -0.0565425  
  0.315682  -0.274366 -0.0300444  
  0.315673  -0.282708 -0.0579372  
  0.325785  -0.196755  0.0133766  
  0.315793  -0.278755 -0.0426389  
    0.3356  -0.113791  0.0690993  
  0.335758  -0.123596   0.039086  
  0.345921 -0.0374161   0.111557  
  0.345709 -0.0282961   0.138054  
  0.345706 -0.0366484   0.110139  
  0.335891  -0.119465  0.0555095  
  0.335686  -0.110338   0.082012  
  0.335683  -0.118691  0.0541013  
  0.345827 -0.0326808    0.12546  
  0.335801  -0.114726  0.0694156  
  0.355642  0.0502945   0.181162  
  0.355806  0.0405017   0.151156  
  0.365965   0.126681   0.223599  
  0.365751   0.135783   0.250081  
  0.365745   0.127442   0.222176  
  0.355947  0.0446366   0.167591  
  0.355732  0.0537475   0.194079  
  0.355728  0.0454005   0.166167  
  0.365871   0.131407   0.237494  
  0.355852  0.0493672    0.18149  
  0.375668   0.214346    0.29315  
  0.375826   0.204568    0.26316  
  0.385968   0.290676   0.335549  
  0.385761   0.299772   0.362023  
  0.385747   0.291442   0.334138  
  0.375974   0.208698   0.279582  
  0.375762   0.217794   0.306058  
  0.375752   0.209459   0.278164  
  0.385879   0.295398   0.349439  
  0.375882   0.213421   0.293474  
  0.395647   0.378281    0.40509  
  0.395797   0.368501   0.375105  
  0.395945   0.372618    0.39151  
  0.395743   0.381722   0.417988  
  0.395727   0.373393   0.390106  
  0.395858   0.377344   0.405402  
  0.314798  -0.296733   -0.12913  
  0.314603  -0.286676 -0.0930444  
  0.324695  -0.209722 -0.0550807  
  0.324594   -0.21112 -0.0631771  
  0.324367  -0.200708 -0.0255403  
  0.314699  -0.291705  -0.111078  
  0.314601  -0.293108  -0.119176  
  0.314364  -0.282701 -0.0815474  
   0.32447  -0.205779 -0.0439647  
  0.314471  -0.287769 -0.0999682  
  0.334767  -0.132736 -0.0171158  
  0.334591  -0.122672  0.0189788  
  0.344664 -0.0456605  0.0569744  
  0.344546 -0.0470443  0.0488963  
  0.344341  -0.036642  0.0865246  
  0.334679  -0.127704 0.000940886  
  0.334569  -0.129094 -0.00714679  
  0.334355  -0.118685  0.0304879  
  0.344433  -0.041707  0.0681052  
  0.334451  -0.123754  0.0120649  
   0.35474  0.0313691  0.0949525  
  0.354573    0.04142   0.131037  
  0.364654   0.118447   0.169021  
  0.364531   0.117074   0.160951  
  0.364327   0.127455    0.19856  
  0.354656   0.036395   0.113004  
  0.354534  0.0350166   0.104932  
  0.354333  0.0454091   0.142552  
  0.364417   0.122401    0.18015  
  0.354422  0.0403492   0.124137  
  0.374746   0.195459   0.206979  
  0.374569   0.205492   0.243044  
  0.384661   0.282467   0.281005  
   0.38454   0.281094    0.27293  
   0.38432   0.291461   0.310521  
  0.374656   0.200476   0.225021  
  0.374533   0.199105    0.21695  
  0.374322   0.209477   0.254547  
  0.384416   0.286413   0.292118  
  0.374415   0.204427   0.236142  
  0.394771   0.359402   0.318939  
  0.394578   0.369432   0.354999  
  0.394672   0.364417   0.336977  
  0.394557   0.363034   0.328895  
  0.394327   0.373408   0.366491  
  0.394428   0.368355   0.348085  
  0.326398  -0.279509  -0.272217  
  0.326778  -0.277425  -0.260009  
  0.316408  -0.361473  -0.328192  
  0.316782  -0.359388  -0.315986  
  0.326599  -0.278695  -0.266821  
  0.316606  -0.360659  -0.322798  
    0.3464  -0.115513  -0.160258  
  0.346774  -0.113427  -0.148048  
  0.336396  -0.197525  -0.216242  
  0.336774   -0.19544  -0.204033  
  0.346598  -0.114698   -0.15486  
  0.336596   -0.19671  -0.210845  
  0.366421  0.0485554 -0.0482396  
  0.366781  0.0506464 -0.0360286  
   0.35641 -0.0334818  -0.104257  
  0.356776 -0.0313927 -0.0920464  
  0.366612  0.0493722 -0.0428416  
  0.356604 -0.0326656 -0.0988589  
  0.386438   0.212604  0.0638139  
  0.386787   0.214694  0.0760211  
  0.376432   0.130588 0.00778818  
  0.376784   0.132679   0.019998  
  0.386624    0.21342  0.0692088  
  0.376619   0.131404  0.0131849  
  0.396434   0.294598   0.119827  
  0.396787   0.296687   0.132032  
  0.396622   0.295413   0.125221  
  0.315291  -0.330673  -0.243447  
  0.315196  -0.318638  -0.203962  
  0.325079   -0.23509  -0.145501  
  0.325165  -0.247857  -0.187418  
  0.325227  -0.242711  -0.167742  
  0.315112  -0.317041   -0.20147  
    0.3152   -0.32979  -0.243374  
  0.315257  -0.324657  -0.223708  
  0.325138  -0.241503  -0.166652  
  0.315173  -0.323444  -0.222614  
  0.335241  -0.166741    -0.1315  
  0.335141  -0.154682 -0.0919906  
  0.345026 -0.0710369 -0.0334683  
  0.345134 -0.0838318 -0.0754295  
  0.345194 -0.0786773 -0.0557355  
  0.335045  -0.153083 -0.0894956  
  0.335141  -0.165867  -0.131435  
  0.335204  -0.160714  -0.111749  
  0.345095 -0.0774637 -0.0546414  
  0.335108  -0.159504  -0.110658  
  0.355246 -0.00265055 -0.0194698  
  0.355127  0.0094229  0.0200641  
  0.365038  0.0931015  0.0786103  
  0.365165  0.0802985  0.0366425  
  0.365217  0.0854505  0.0563338  
  0.355024   0.011031  0.0225685  
  0.355142 -0.00176989 -0.0194027  
  0.355199  0.0033844 0.000293823  
  0.365117  0.0866721  0.0574354  
  0.355098 0.00460187 0.00139104  
    0.3753   0.161467   0.092617  
  0.375168    0.17354   0.132138  
  0.385104   0.257175   0.190672  
  0.385243    0.24439   0.148738  
   0.38528   0.249524     0.1684  
  0.375067   0.175155    0.13465  
  0.375203   0.162357  0.0926976  
  0.375248   0.167503   0.112375  
  0.385191   0.250756   0.169516  
  0.375151   0.168729   0.113484  
  0.395343   0.325475   0.204643  
  0.395217   0.337521   0.244138  
  0.395129   0.339137   0.246652  
  0.395259   0.326375   0.204735  
  0.395294   0.331498   0.224388  
  0.395212    0.33273   0.225504  
  0.315566  -0.318408   -0.19027  
   0.31557  -0.325228  -0.215593  
  0.315869  -0.329251  -0.221826  
   0.32556  -0.239856  -0.146948  
  0.325707  -0.241865  -0.150068  
  0.325643  -0.249216  -0.178734  
  0.325806   -0.25123  -0.181837  
  0.315571   -0.32182  -0.202929  
  0.315714   -0.32383   -0.20605  
  0.315658  -0.331176  -0.234711  
  0.315816  -0.333192  -0.237817  
  0.325681  -0.245544  -0.164397  
  0.315692  -0.327507  -0.220378  
  0.335552  -0.154442 -0.0782872  
  0.335547   -0.16127  -0.103618  
  0.335863   -0.16529  -0.109849  
  0.345552 -0.0758267 -0.0349378  
  0.345706 -0.0778374  -0.038059  
  0.345636  -0.085195 -0.0667347  
  0.345805 -0.0872094 -0.0698388  
  0.335553  -0.157857 -0.0909506  
  0.335704  -0.159867 -0.0940705  
  0.335636  -0.167222  -0.122742  
  0.335802  -0.169235  -0.125845  
  0.345677 -0.0815194 -0.0523928  
  0.335676  -0.163548  -0.108402  
  0.355558 0.00964083  0.0337503  
  0.355553 0.00281188 0.00841516  
  0.355874 -0.00121398 0.00217909  
  0.365569  0.0882779  0.0771111  
  0.365722  0.0862636  0.0739869  
  0.365659  0.0789072   0.045312  
  0.365824  0.0768881  0.0422039  
  0.355558 0.00622472  0.0210851  
  0.355713 0.00421236  0.0179625  
  0.355645 -0.00314556  -0.010715  
  0.355813 -0.00516211 -0.0138207  
  0.365695   0.082582  0.0596534  
  0.355684 0.000530119  0.0036279  
  0.375576   0.173728   0.145793  
   0.37558   0.166904   0.120466  
  0.375887   0.162871   0.114223  
  0.385589   0.252321   0.189138  
  0.385734   0.250304   0.186012  
  0.385685   0.242957   0.157349  
   0.38584   0.240934   0.154237  
   0.37558   0.170314   0.133132  
   0.37573   0.168298   0.130006  
  0.375674   0.160946   0.101337  
  0.375834   0.158924  0.0982263  
  0.385714   0.246626   0.171684  
  0.375707   0.164618   0.115675  
  0.395582   0.337701   0.257783  
  0.395593   0.330886   0.232464  
  0.395885   0.326852   0.226221  
   0.39559   0.334292   0.245125  
  0.395731   0.332276      0.242  
  0.395685   0.324933   0.213341  
  0.395838   0.322911    0.21023  
  0.395713     0.3286   0.227674  
  0.316775  -0.348498  -0.275369  
  0.326693  -0.268446  -0.227935  
  0.327015  -0.272938  -0.240363  
  0.316692  -0.350405  -0.283912  
  0.317014  -0.354893  -0.296337  
  0.326914  -0.275388  -0.250829  
  0.316915  -0.357348  -0.306805  
  0.336778  -0.184555  -0.163414  
  0.346691  -0.104439  -0.115962  
  0.347006  -0.108937  -0.128404  
  0.336692  -0.186458  -0.171954  
  0.337011  -0.190954  -0.184389  
  0.346907  -0.111388  -0.138869  
   0.33691  -0.193403  -0.194853  
  0.356774 -0.0204898 -0.0514128  
   0.36669  0.0596478 -0.00393236  
  0.366999  0.0551468 -0.0163789  
  0.356691 -0.0223977  -0.059954  
  0.357003 -0.0268978 -0.0724008  
  0.366907  0.0526896 -0.0268469  
  0.356906 -0.0293519 -0.0828662  
  0.376763   0.143597  0.0606407  
  0.386684   0.223699   0.108114  
   0.38699   0.219203  0.0956772  
  0.376687   0.141684  0.0520944  
  0.376994   0.137184   0.039652  
  0.386906   0.216741  0.0852046  
  0.376906   0.134724  0.0291811  
  0.396756   0.307601   0.172666  
  0.396684   0.305686   0.164118  
  0.396994   0.301196   0.151687  
  0.396908   0.298733   0.141215  
  0.315331  -0.310517  -0.167824  
  0.315482  -0.305805  -0.145064  
   0.31528  -0.303365  -0.141792  
   0.32544  -0.232494  -0.123066  
  0.325297  -0.224971 -0.0988189  
  0.325519  -0.230137  -0.111679  
  0.325376   -0.22261 -0.0874411  
   0.31545   -0.31446  -0.179049  
  0.315305  -0.306941  -0.154806  
  0.315525  -0.312107  -0.167664  
  0.315382  -0.304583   -0.14343  
  0.325409  -0.227552  -0.105251  
  0.315417  -0.309522  -0.161237  
  0.335309  -0.146545 -0.0558353  
  0.335479  -0.141826 -0.0330687  
  0.335267  -0.139386 -0.0297958  
   0.34543 -0.0684587 -0.0110479  
  0.345285  -0.060931  0.0132064  
  0.345519 -0.0661015 0.000341042  
  0.345376 -0.0585701  0.0245844  
  0.335432  -0.150492 -0.0670644  
  0.335289  -0.142966 -0.0428133  
  0.335516  -0.148134 -0.0556756  
  0.335374  -0.140604 -0.0314347  
  0.345404 -0.0635146  0.0067712  
  0.335404  -0.145548 -0.0492467  
  0.355307  0.0175436  0.0562099  
  0.355491  0.0222583  0.0789742  
  0.355269  0.0247002  0.0822492  
  0.365443   0.095647   0.101002  
  0.365295   0.103174   0.125255  
  0.365532  0.0980005   0.112388  
  0.365387    0.10553   0.136629  
  0.355434  0.0135938  0.0449768  
  0.355288  0.0211217  0.0692319  
  0.355524  0.0159496  0.0563648  
  0.355381  0.0234806  0.0806085  
  0.365415   0.100589   0.118818  
  0.355408  0.0185372  0.0627957  
  0.375325   0.181632   0.168251  
  0.375502   0.186337   0.191006  
  0.375281   0.188781   0.194281  
  0.385462   0.259685   0.213022  
   0.38531   0.267207   0.237267  
  0.385541   0.262033   0.224402  
  0.385395   0.269558   0.248637  
  0.375453   0.177682   0.157019  
  0.375303   0.185206   0.181268  
  0.375538   0.180032   0.168402  
  0.375393    0.18756    0.19264  
  0.385428   0.264621   0.230832  
  0.375423    0.18262   0.174832  
   0.39534     0.3456   0.280235  
  0.395497     0.3503   0.302985  
  0.395287   0.352743   0.306259  
  0.395464   0.341652   0.269006  
  0.395313   0.349171   0.293249  
  0.395539   0.344001   0.280387  
  0.395394   0.351523   0.304619  
  0.395428   0.346587   0.286815  
  0.315784  -0.316861  -0.177472  
  0.325826  -0.241091  -0.143668  
  0.325631  -0.229362  -0.105279  
  0.315829  -0.323057  -0.199652  
  0.315634  -0.311333  -0.161266  
  0.325671  -0.235615  -0.127674  
  0.315676  -0.317582  -0.183658  
  0.335788   -0.15289 -0.0654851  
  0.345833 -0.0770608 -0.0316571  
  0.345641 -0.0653244 0.00674221  
  0.335828  -0.159091 -0.0876697  
  0.335634  -0.147358 -0.0492754  
  0.345675 -0.0715815 -0.0156585  
  0.335671  -0.153613 -0.0716731  
  0.355804  0.0111946   0.046555  
  0.365847  0.0870403  0.0803886  
  0.365655  0.0987772   0.118789  
   0.35584 0.00498933  0.0243647  
  0.355649  0.0167269  0.0627663  
  0.365689  0.0925201  0.0963879  
  0.355682  0.0104691  0.0403644  
   0.37581   0.175278   0.158594  
  0.385848   0.251078   0.192411  
  0.385656   0.262808   0.230801  
  0.375849   0.169074   0.136407  
  0.375658   0.180808   0.174802  
  0.385695   0.256555   0.208407  
  0.375694   0.174553   0.152404  
  0.395798   0.339248    0.27058  
  0.395843   0.333049   0.248398  
  0.395649   0.344774   0.286784  
  0.395691   0.338524   0.264392  
   0.31607  -0.331343  -0.224287  
  0.316029   -0.32454  -0.199304  
  0.325965  -0.248334  -0.167072  
  0.326053  -0.245978  -0.155816  
  0.325904  -0.238737  -0.132402  
  0.315968  -0.330298  -0.223054  
  0.316051  -0.327941  -0.211797  
  0.315903  -0.320703  -0.188386  
  0.325937  -0.243536   -0.14974  
  0.315937  -0.325501  -0.205722  
  0.336074  -0.167383  -0.112311  
   0.33604  -0.160576 -0.0873236  
  0.345971 -0.0843096  -0.055068  
  0.346065 -0.0819487 -0.0438079  
   0.34592 -0.0747019 -0.0203866  
  0.335967  -0.166337  -0.111077  
  0.336058  -0.163979 -0.0998189  
  0.335911  -0.156735 -0.0764018  
  0.345947 -0.0795063   -0.03773  
  0.335941  -0.161537 -0.0937418  
  0.356085 -0.00330524 -0.000282799  
  0.356056  0.0035098  0.0247135  
  0.365983  0.0797891  0.0569752  
  0.366074  0.0821541  0.0682385  
  0.365931  0.0894026  0.0916619  
  0.355978 -0.00226113 0.000951324  
  0.356071 0.000102149  0.0122134  
  0.355927 0.00735033  0.0356371  
  0.365958  0.0845954  0.0743159  
  0.355954  0.0025441  0.0182916  
  0.376088    0.16078   0.111762  
  0.376054   0.167598   0.136759  
  0.385985   0.243831   0.169003  
  0.386065   0.246196   0.180266  
  0.385923    0.25344   0.203683  
  0.375986   0.161824   0.112995  
  0.376071   0.164189   0.124259  
   0.37593   0.171436   0.147679  
  0.385954   0.248635    0.18634  
  0.375958   0.166629   0.130335  
  0.396078   0.324762   0.223761  
  0.396036   0.331573   0.248751  
   0.39598   0.325805   0.224993  
  0.396057   0.328168   0.236254  
  0.395914   0.335408   0.259668  
  0.395948   0.330606   0.242328  
  0.315621  -0.301219  -0.123867  
  0.315767  -0.310134  -0.152461  
  0.325545  -0.221533 -0.0784791  
  0.325693  -0.223703 -0.0821735  
  0.325775  -0.231527  -0.108982  
  0.315547  -0.303508  -0.134469  
  0.315692  -0.305676  -0.138163  
  0.315774  -0.313496  -0.164968  
   0.32566   -0.22653 -0.0937285  
  0.315661  -0.308502  -0.149716  
   0.33563  -0.137233 -0.0118646  
  0.335779  -0.146156 -0.0404675  
   0.34556 -0.0574905  0.0335498  
  0.345716  -0.059657  0.0298582  
  0.345792 -0.0674871 0.00304041  
   0.33555  -0.139526  -0.022471  
  0.335703  -0.141694 -0.0261644  
  0.335782  -0.149522 -0.0529781  
  0.345676 -0.0624885  0.0182975  
  0.335666  -0.144524 -0.0377222  
  0.355657  0.0268566   0.100186  
  0.355803  0.0179343  0.0715803  
  0.365577   0.106609   0.145594  
  0.365735   0.104447   0.141907  
  0.365807  0.0966173   0.115089  
   0.35557  0.0245605  0.0895744  
  0.355728  0.0223962  0.0858849  
  0.355802  0.0145656  0.0590656  
  0.365693   0.101614   0.130345  
  0.355686  0.0195635  0.0743227  
  0.375666   0.190933   0.212213  
  0.375807   0.182017   0.183617  
  0.385575   0.270634   0.257599  
  0.385727   0.268473   0.253912  
    0.3858   0.260649   0.227103  
  0.375579   0.188637   0.201604  
  0.375735   0.186476   0.197917  
  0.375807   0.178649   0.171104  
  0.385689   0.265642   0.242354  
  0.375694   0.183644   0.186356  
  0.395646   0.354889   0.324184  
  0.395786   0.345979   0.295595  
  0.395567   0.352597    0.31358  
  0.395715   0.350435   0.309892  
   0.39579   0.342615   0.283086  
  0.395679   0.347606   0.298335  
  0.315967  -0.314554   -0.16253  
  0.326002  -0.237579   -0.12494  
  0.325872  -0.230376  -0.101507  
  0.315996  -0.319544  -0.180923  
  0.315868  -0.312345  -0.157493  
  0.325887  -0.234554  -0.116958  
  0.315883  -0.316522  -0.172942  
  0.335992  -0.150579 -0.0505386  
  0.346027 -0.0735389 -0.0129191  
  0.345901   -0.06633  0.0105226  
  0.336014  -0.155575 -0.0689374  
  0.335886  -0.148368 -0.0454998  
  0.345908 -0.0705143 -0.00493579  
  0.335897   -0.15255 -0.0609543  
  0.356021  0.0135192   0.061515  
  0.366037  0.0905717  0.0991343  
  0.365917  0.0977799   0.122576  
  0.356035 0.00851675  0.0431074  
  0.355913  0.0157259  0.0665508  
  0.365922   0.093593   0.107115  
  0.355918  0.0115398  0.0510901  
  0.376016   0.177611    0.17356  
  0.386018   0.254611   0.211157  
  0.385901   0.261813    0.23459  
  0.376031   0.172607   0.155153  
  0.375913   0.179813   0.178591  
  0.385909   0.257628   0.219133  
  0.375918   0.175626   0.163132  
  0.395983   0.341574   0.285539  
  0.396005   0.336577   0.267139  
  0.395886   0.343775   0.290569  
  0.395897   0.339594   0.275115  
  0.315799  -0.300573  -0.116238  
  0.325712  -0.218916 -0.0640635  
  0.325877   -0.22559  -0.083395  
   0.31571  -0.300893  -0.120055  
  0.315871  -0.307562  -0.139383  
  0.325786  -0.224645 -0.0827835  
  0.315783  -0.306618  -0.138772  
  0.335822  -0.136579 -0.0042272  
  0.345744 -0.0548632   0.047978  
  0.345915 -0.0615354  0.0286463  
  0.335726  -0.136903 -0.00804944  
  0.335895  -0.143578 -0.0273821  
  0.345817 -0.0605955  0.0292523  
    0.3358  -0.142635 -0.0267728  
  0.355862  0.0275214   0.107837  
  0.365768   0.109242   0.160027  
  0.365936   0.102578   0.140703  
  0.355759  0.0271912   0.104007  
   0.35593  0.0205228  0.0846776  
  0.365837   0.103513   0.141304  
  0.355831    0.02146  0.0852811  
   0.37587   0.191603   0.219865  
  0.385758   0.273263   0.272026  
  0.385917   0.266607    0.25271  
  0.375767    0.19127   0.216034  
  0.375931    0.18461   0.196715  
  0.385824    0.26754   0.253311  
  0.375835   0.185543   0.197315  
  0.395836   0.355549   0.331827  
  0.395741   0.355221   0.328002  
  0.395898   0.348564   0.308685  
  0.395808     0.3495   0.309288  
  0.315455  -0.289156 -0.0847022  
  0.325534  -0.213205 -0.0482842  
  0.325593  -0.206388 -0.0228327  
  0.325761  -0.212102 -0.0385904  
  0.315536  -0.295185  -0.104279  
  0.315596  -0.288374 -0.0788338  
   0.31576  -0.294086 -0.0945882  
  0.325646  -0.212648 -0.0434431  
  0.315647  -0.294629 -0.0994392  
  0.335461  -0.125158  0.0273145  
  0.345558 -0.0491547  0.0637556  
  0.345626 -0.0423291  0.0892213  
  0.345804 -0.0480378  0.0734687  
  0.335544  -0.131192 0.00773008  
  0.335606   -0.12437  0.0331895  
  0.335779  -0.130082   0.017433  
  0.345679  -0.048592  0.0686047  
   0.33566  -0.130633  0.0125749  
  0.355491  0.0389282   0.139366  
  0.365582   0.114943   0.175798  
  0.365658   0.121766   0.201261  
  0.365836   0.116067   0.185518  
  0.355572  0.0328959   0.119781  
  0.355644  0.0397211   0.145248  
  0.355824  0.0340175     0.1295  
  0.365707   0.115509    0.18065  
  0.355696  0.0334606   0.124633  
  0.375505   0.202993   0.251378  
  0.385578   0.278959   0.287791  
  0.385655   0.285774   0.313239  
  0.385828    0.28008   0.297501  
  0.375584   0.196967   0.231801  
  0.375662   0.203786   0.257257  
  0.375838   0.198092   0.241518  
  0.385701   0.279524   0.292639  
  0.375709   0.197533   0.236652  
  0.395487   0.366942    0.36334  
  0.395565   0.360919   0.343768  
  0.395638   0.367729   0.369212  
  0.395806   0.362031   0.353471  
  0.395684    0.36148   0.348613  
  0.315984  -0.301975  -0.115245  
  0.316124  -0.314359  -0.155866  
  0.326232  -0.233424  -0.100339  
  0.326083  -0.220471 -0.0578422  
  0.326053  -0.226195 -0.0795665  
  0.316207  -0.315385  -0.156318  
  0.316068  -0.302454  -0.113838  
  0.316038  -0.308167  -0.135554  
  0.326139  -0.226921 -0.0789019  
  0.316118  -0.308894  -0.134889  
  0.336026   -0.13797 -0.00322215  
  0.336171   -0.15038 -0.0438691  
  0.346296 -0.0693519  0.0117201  
  0.346161 -0.0563801  0.0542513  
  0.346114  -0.062123  0.0324964  
  0.336267  -0.151405  -0.044319  
  0.336123  -0.138439 -0.00180298  
  0.336084  -0.144174 -0.0235437  
  0.346213 -0.0628383  0.0331765  
  0.336179  -0.144895 -0.0228713  
  0.356079  0.0261472   0.108863  
  0.356211  0.0137355  0.0682024  
  0.366308  0.0947862   0.123798  
  0.366191    0.10775   0.166323  
  0.366136   0.102005   0.144566  
   0.35631  0.0127183  0.0677613  
  0.356184  0.0256882   0.110296  
  0.356132  0.0199429  0.0885357  
  0.366234   0.101298   0.145253  
  0.356231  0.0192319  0.0892205  
  0.376082   0.190239   0.220895  
  0.376196   0.177841   0.180259  
  0.386254   0.258841   0.235833  
   0.38616   0.271776   0.278314  
  0.386102    0.26604   0.256575  
  0.376288   0.176833   0.179826  
  0.376184   0.189785    0.22233  
  0.376125   0.184042   0.200581  
  0.386191   0.265338   0.257266  
   0.37622   0.183339   0.201271  
  0.396032   0.354173   0.332844  
  0.396141   0.341799   0.292233  
  0.396221   0.340793   0.291802  
  0.396125   0.353711    0.33427  
  0.396072   0.347988   0.312542  
  0.396156    0.34728   0.313228  
  0.325347  -0.216139 -0.0638862  
  0.325142  -0.216228 -0.0696321  
  0.315351  -0.298116  -0.119879  
  0.315147  -0.298203  -0.125624  
  0.325244   -0.21618 -0.0667633  
  0.315248  -0.298156  -0.122755  
  0.345354 -0.0520963  0.0481443  
  0.345133 -0.0521834  0.0423999  
  0.335349  -0.134131 -0.00787668  
  0.335135  -0.134219 -0.0136222  
  0.345243  -0.052137  0.0452669  
  0.335241  -0.134172  -0.010754  
  0.365368      0.112   0.160185  
  0.365139   0.111917   0.154443  
  0.355362  0.0299531   0.104168  
  0.355134  0.0298676  0.0984246  
  0.365253    0.11196   0.157309  
  0.355247  0.0299128   0.101291  
  0.385371   0.276021   0.272185  
  0.385148   0.275941   0.266444  
  0.375372   0.194026   0.216192  
  0.375144   0.193945    0.21045  
  0.385259   0.275983   0.269309  
  0.375258   0.193987   0.213315  
  0.395366   0.357985   0.328166  
   0.39515   0.357903   0.322424  
  0.395258   0.357946    0.32529  
  0.325989  -0.254297  -0.188644  
   0.32617  -0.253714  -0.182286  
  0.315995   -0.33626  -0.244625  
   0.31617  -0.335677  -0.238267  
   0.32608  -0.254007  -0.185461  
  0.316083   -0.33597  -0.241442  
  0.345991 -0.0902783 -0.0766477  
  0.346177 -0.0896928 -0.0702882  
  0.335988  -0.172303  -0.132652  
  0.336173  -0.171719  -0.126294  
  0.346085  -0.089987 -0.0734639  
  0.336081  -0.172012  -0.129469  
  0.366006  0.0738164  0.0353919  
  0.366184  0.0744045  0.0417528  
  0.355998 -0.00823237 -0.0206313  
  0.356182 -0.00764525  -0.014271  
  0.366096  0.0741085  0.0385761  
  0.356091 -0.00794052 -0.0174471  
  0.386014   0.237861   0.147424  
   0.38618   0.238449   0.153785  
  0.376012   0.155851  0.0914135  
  0.376184    0.15644  0.0977747  
  0.386098   0.238152   0.150608  
  0.376099   0.156143  0.0945975  
  0.396011   0.319839   0.203418  
  0.396175   0.320426   0.209778  
  0.396094    0.32013   0.206601  
  0.315368  -0.320621   -0.20507  
   0.32545  -0.240963  -0.154356  
  0.325417  -0.245274  -0.170937  
  0.315467  -0.322923  -0.210334  
  0.315438  -0.327228   -0.22691  
  0.325526  -0.247245  -0.174836  
  0.315544  -0.329202  -0.230812  
  0.335332  -0.156664 -0.0930958  
  0.345434 -0.0769335 -0.0423466  
  0.345398 -0.0812474  -0.058935  
  0.335438  -0.158965 -0.0983595  
  0.335402  -0.163279  -0.114945  
  0.345514 -0.0832212 -0.0628357  
  0.335515   -0.16525  -0.118844  
  0.355329 0.00742766  0.0189468  
  0.365453   0.087177  0.0697073  
  0.365422  0.0828662  0.0531216  
   0.35544 0.00512045  0.0136779  
  0.355405 0.000807451 -0.00291091  
  0.365538  0.0808861  0.0492156  
  0.355522 -0.00116936 -0.00681395  
  0.375363   0.171529   0.131005  
  0.385485   0.251227   0.181743  
  0.385464   0.246925   0.165169  
   0.37547   0.169217   0.125732  
  0.375444    0.16491   0.109153  
  0.385572    0.24494   0.161257  
  0.375557   0.162927   0.105243  
   0.39539   0.335509   0.243002  
   0.39549   0.333198    0.23773  
   0.39547   0.328899   0.221159  
  0.395574   0.326915   0.217248  
  0.325316  -0.266438  -0.244263  
  0.325588  -0.273521  -0.262985  
  0.315341  -0.348378  -0.300222  
  0.315606  -0.355472  -0.318951  
  0.325437  -0.270153  -0.254273  
  0.315458  -0.352098  -0.310236  
   0.34532  -0.102444  -0.132317  
  0.345595  -0.109529  -0.151038  
  0.335311  -0.184461  -0.188298  
  0.335585  -0.191542  -0.207018  
  0.345444  -0.106161  -0.142327  
  0.335434  -0.188175  -0.198307  
  0.365365  0.0616535 -0.0202742  
  0.365637  0.0545527 -0.0390084  
  0.355338 -0.0203998 -0.0763086  
  0.355614 -0.0274921 -0.0950345  
  0.365488  0.0579286 -0.0302917  
  0.355462 -0.0241202 -0.0863218  
  0.385419   0.225736  0.0918185  
  0.385672   0.218621  0.0730676  
  0.375396   0.143704  0.0357761  
  0.375659   0.136595  0.0170318  
  0.385531   0.222004  0.0817921  
  0.375514   0.139974  0.0257533  
  0.395413   0.307736   0.147832  
  0.395664    0.30062   0.129083  
  0.395524   0.304003   0.137807  
  0.315089  -0.303338  -0.147395  
  0.324941  -0.218055 -0.0822789  
  0.325034  -0.216218 -0.0724281  
   0.32481  -0.207871 -0.0452616  
  0.314951  -0.300029  -0.138268  
  0.315041  -0.298194  -0.128419  
  0.314813  -0.289853  -0.101259  
  0.324874  -0.212963 -0.0637619  
   0.31488  -0.294942  -0.119755  
  0.335063  -0.139357 -0.0353979  
  0.344907 -0.0539996  0.0297658  
  0.345016 -0.0521706  0.0396081  
  0.344794 -0.0438197  0.0667821  
  0.334922  -0.136042 -0.0262639  
  0.335024  -0.134208 -0.0164164  
  0.334801  -0.125858   0.010755  
  0.344849 -0.0489097  0.0482824  
   0.33486   -0.13095 -0.00774604  
  0.355049  0.0247386  0.0766566  
  0.364905   0.110115    0.14182  
  0.365018   0.111934   0.151655  
  0.364791   0.120279   0.178822  
  0.354902  0.0280583  0.0857969  
  0.355015  0.0298826  0.0956348  
  0.354791   0.038231   0.122807  
  0.364845   0.115197   0.160329  
  0.354844  0.0331446   0.104311  
  0.375063   0.188828   0.188693  
  0.384924   0.274146   0.253823  
   0.38503    0.27596   0.263655  
  0.384795   0.284295   0.290808  
  0.374912   0.192149    0.19783  
  0.375024   0.193964   0.207662  
  0.374793   0.202304   0.234821  
  0.384856    0.27922   0.272323  
  0.374849   0.197226   0.216333  
  0.395085   0.352787   0.300668  
  0.394936     0.3561   0.309798  
  0.395037    0.35792   0.319634  
  0.394801   0.366253   0.346785  
  0.394865   0.361175   0.328299  
  0.325901  -0.219294 -0.0597484  
  0.326062  -0.232489  -0.103214  
  0.315895  -0.301272  -0.115741  
  0.316049  -0.314455  -0.159196  
  0.325968   -0.22589 -0.0814801  
  0.315958  -0.307862  -0.137467  
  0.345953 -0.0552255  0.0523125  
  0.346105 -0.0684339 0.00882517  
  0.335926  -0.137273 -0.00372537  
  0.336084  -0.150478 -0.0472031  
  0.346017 -0.0618282  0.0305705  
  0.335992  -0.143875  -0.025463  
  0.365982   0.108891   0.164372  
  0.366119  0.0956882   0.120889  
  0.355973  0.0268351   0.108348  
  0.356118  0.0136282  0.0648586  
  0.366038   0.102292   0.142633  
  0.356033  0.0202338  0.0866056  
  0.385962   0.272913   0.276366  
  0.386087   0.259729    0.23291  
  0.375979   0.190921   0.220378  
  0.376108   0.177726   0.176909  
  0.386012   0.266324   0.254641  
  0.376031   0.184327   0.198647  
  0.395937   0.354862   0.332334  
  0.396065   0.341687   0.288885  
  0.395988   0.348277   0.310613  
  0.325341   -0.23361   -0.13046  
  0.315356  -0.315573  -0.186441  
   0.32545  -0.236731  -0.138707  
  0.315463  -0.318695  -0.194688  
  0.345321  -0.069573 -0.0184408  
  0.335327  -0.151608 -0.0744586  
  0.345436 -0.0726986  -0.026693  
  0.335439  -0.154731  -0.082708  
  0.365334  0.0945392  0.0936142  
  0.355323  0.0124824   0.037586  
  0.365452  0.0914096  0.0853588  
  0.355441 0.00935473  0.0293317  
  0.385363   0.258584   0.205641  
  0.375348   0.176578   0.149635  
  0.385477   0.255453   0.197386  
  0.375465   0.173447    0.14138  
  0.395369    0.34055   0.261624  
   0.39548   0.337422   0.253371  
  0.325203  -0.224954  -0.101628  
  0.315214  -0.306923  -0.157613  
  0.325172  -0.220591 -0.0856256  
   0.31518  -0.302564  -0.141614  
  0.345183 -0.0609111   0.010401  
   0.33519  -0.142948 -0.0456209  
  0.345157 -0.0565474  0.0264048  
  0.335162  -0.138584 -0.0296172  
  0.365189   0.103199   0.122453  
  0.355183   0.021144  0.0664285  
  0.365163   0.107558   0.138453  
  0.355157  0.0255056   0.082431  
   0.38521   0.267235   0.234467  
  0.375199   0.185234   0.178468  
  0.385177   0.271587   0.250459  
   0.37517   0.189589   0.194463  
  0.395218   0.349197   0.290448  
  0.395182   0.353549    0.30644  
   0.31447  -0.278799 -0.0647531  
  0.324533  -0.200748  -0.022889  
  0.324578  -0.196632 -0.00644644  
  0.314533  -0.282737 -0.0788932  
  0.314578  -0.278621 -0.0624528  
  0.324694  -0.202248 -0.0258451  
  0.314695  -0.284234  -0.081847  
  0.334468  -0.114791  0.0472767  
  0.344519 -0.0366922  0.0891635  
  0.344575 -0.0325814   0.105601  
  0.334526  -0.118731  0.0331333  
  0.334577  -0.114617  0.0495745  
  0.344684  -0.038197  0.0862006  
  0.334689  -0.120234  0.0301737  
  0.354461  0.0492906   0.159328  
  0.364511     0.1274   0.201196  
  0.364575   0.131502   0.217628  
  0.354514   0.045356   0.145188  
  0.354575  0.0494624   0.161622  
  0.364682   0.125894   0.198234  
  0.354683  0.0438504   0.142224  
  0.374456   0.213349   0.271321  
  0.384508   0.291408   0.313167  
  0.384572   0.295506   0.329597  
  0.374509   0.209421   0.257187  
  0.374574   0.213519   0.273617  
  0.384682   0.289904   0.310211  
  0.374682   0.207915   0.254228  
  0.394455   0.377292   0.383274  
  0.394512   0.373362   0.369141  
  0.394571   0.377466   0.385574  
  0.394685   0.371862   0.366188  
  0.325358  -0.250304   -0.19013  
  0.325255  -0.237673  -0.148544  
  0.315384   -0.33225  -0.246097  
  0.315279  -0.319628  -0.204518  
  0.325318  -0.243991  -0.169341  
  0.315344  -0.325942  -0.225311  
   0.34534 -0.0862836 -0.0781401  
  0.345223 -0.0736345  -0.036527  
  0.335342  -0.168313  -0.134145  
  0.335234  -0.155672 -0.0925453  
  0.345293 -0.0799619 -0.0573368  
    0.3353  -0.161996  -0.113349  
  0.365371  0.0778323  0.0339186  
   0.36524  0.0904885  0.0755376  
   0.35535 -0.00422838 -0.0221178  
  0.355226 0.00842564  0.0195027  
  0.365317  0.0841585  0.0547258  
  0.355299 0.00209619 -0.00131031  
  0.385425   0.241903   0.145984  
  0.385288   0.254548   0.187583  
  0.375399   0.159881  0.0899587  
  0.375263   0.172535   0.131569  
  0.385369   0.248224   0.166782  
  0.375343   0.166206   0.110762  
  0.395431   0.323884   0.201979  
    0.3953   0.336515   0.243566  
  0.395379   0.330198    0.22277  
  0.316219  -0.324798  -0.194407  
  0.316366  -0.326468  -0.196426  
  0.326095  -0.237717  -0.122485  
  0.326308  -0.243679  -0.139438  
  0.326249  -0.238458  -0.120173  
  0.316084   -0.31968  -0.178466  
  0.316292  -0.325634  -0.195414  
  0.316229  -0.320415   -0.17615  
  0.326174  -0.238087  -0.121326  
  0.316159  -0.320047  -0.177305  
  0.336247  -0.160837  -0.082429  
  0.336405  -0.162515  -0.084455  
  0.346127 -0.0736719 -0.0104597  
   0.34634 -0.0796368 -0.0274212  
  0.346294 -0.0744037 -0.00814013  
  0.336112  -0.155711 -0.0664807  
  0.336326  -0.161676 -0.0834388  
  0.336274  -0.156449 -0.0641663  
  0.346212 -0.0740377 -0.00929717  
  0.336194   -0.15608 -0.0653206  
  0.356267 0.00326025  0.0296157  
  0.356424 0.00158936  0.0275926  
  0.366136   0.090445   0.101599  
  0.366341  0.0844854  0.0846409  
    0.3663  0.0897257   0.103929  
  0.356136 0.00838698  0.0455694  
  0.356346 0.00242414  0.0286074  
  0.356303 0.00766145   0.047894  
   0.36622  0.0900853   0.102767  
  0.356221 0.00802425  0.0467344  
  0.376251    0.16736   0.141673  
  0.376397   0.165699   0.139662  
  0.386108   0.254488   0.213625  
    0.3863    0.24854   0.196683  
  0.386253    0.25378   0.215968  
  0.376126   0.172483   0.157621  
  0.376324   0.166529    0.14067  
  0.376281    0.17177   0.159958  
  0.386183   0.254133   0.214798  
  0.376205   0.172126   0.158791  
  0.396216   0.331337   0.253666  
  0.396351   0.329684   0.251663  
  0.396092   0.336452   0.269606  
  0.396284   0.330509   0.252666  
   0.39623   0.335742   0.271946  
  0.396163   0.336096   0.270777  
  0.325329  -0.207808  -0.033714  
  0.315332   -0.28979  -0.089712  
  0.325437  -0.214667 -0.0560908  
   0.31544  -0.296645  -0.112084  
  0.345345 -0.0437599  0.0783248  
  0.335335  -0.125796  0.0223008  
  0.345452 -0.0506212  0.0559431  
  0.335442  -0.132657 -7.94009e-05  
  0.365365   0.120331   0.190361  
  0.355357  0.0382874   0.134348  
  0.365471   0.113475   0.167984  
  0.355463  0.0314283   0.111967  
  0.385366   0.284344   0.302349  
  0.375369   0.202352   0.246361  
  0.385471   0.277494   0.279981  
  0.375474     0.1955   0.223989  
  0.395356   0.366305   0.358328  
  0.395461   0.359456    0.33596  
  0.315949  -0.293203 -0.0865616  
  0.325852  -0.208415 -0.0237459  
  0.326037  -0.209762 -0.0235833  
  0.315853  -0.290405 -0.0797494  
  0.316033   -0.29176 -0.0795923  
  0.325965  -0.205497 -0.0115205  
  0.315967  -0.287496 -0.0675314  
  0.335982  -0.129182  0.0254793  
  0.345905 -0.0443399  0.0883307  
  0.346109  -0.045667  0.0885227  
  0.335876  -0.126389  0.0322869  
  0.336071  -0.127724  0.0324642  
  0.346027 -0.0414098   0.100576  
  0.335993  -0.123463  0.0445232  
   0.35604  0.0349319   0.137568  
  0.365944   0.119766    0.20038  
  0.366152   0.118448   0.200581  
  0.355929  0.0377166   0.144365  
  0.356136  0.0363951   0.144565  
  0.366071   0.122696   0.212626  
  0.356054  0.0406475   0.156614  
  0.376056    0.19901    0.24958  
  0.385938   0.283772   0.312349  
  0.386142   0.282452   0.312538  
  0.375948   0.201789   0.256373  
  0.376155   0.200473    0.25657  
  0.386069   0.286695   0.324578  
  0.376078   0.204717   0.268611  
  0.396014   0.362932   0.361514  
  0.395913   0.365716   0.368313  
  0.396111   0.364382   0.368491  
  0.396042    0.36863   0.380535  
  0.325967  -0.215602 -0.0449024  
   0.31596  -0.297588  -0.100901  
  0.326055  -0.215033 -0.0403369  
  0.316045  -0.297025 -0.0963398  
  0.346031 -0.0515212  0.0671789  
  0.335998  -0.133574  0.0111313  
  0.346132  -0.050939  0.0717649  
  0.336093  -0.132997  0.0157075  
  0.366066   0.112598    0.17924  
  0.356055  0.0305415   0.123219  
  0.366169   0.113185   0.183831  
  0.356157  0.0311267   0.127809  
  0.386048   0.276614   0.291221  
  0.376064   0.194627   0.235241  
  0.386149   0.277199   0.295803  
  0.376167   0.195214   0.239828  
  0.396018   0.358554   0.347182  
  0.396115    0.35913   0.351757  
  0.316363  -0.334326  -0.228376  
    0.3263  -0.247604   -0.15542  
  0.326192  -0.247478  -0.157857  
  0.316289  -0.329561  -0.211397  
  0.316185  -0.329439  -0.213837  
  0.326142  -0.242596  -0.140177  
  0.316133  -0.324557  -0.196157  
  0.336379  -0.170373  -0.116406  
   0.34632 -0.0835705 -0.0434123  
  0.346208 -0.0834481 -0.0458502  
  0.336311  -0.165605 -0.0994241  
    0.3362   -0.16548  -0.101861  
  0.346165 -0.0785589 -0.0281617  
  0.336154  -0.160594 -0.0841773  
  0.356387 -0.00629029 -0.00437942  
  0.366321  0.0805421   0.068641  
  0.366212  0.0806585  0.0661987  
  0.356324 -0.00151476  0.0126114  
  0.356212 -0.00139534  0.0101718  
  0.366171  0.0855531  0.0838922  
  0.356172 0.00349707  0.0278638  
  0.376374   0.157803   0.107675  
  0.386293   0.244593   0.180679  
  0.386194   0.244704   0.178231  
  0.376309   0.162582   0.124668  
  0.376205   0.162696   0.122222  
  0.386148   0.249598   0.195922  
  0.376162   0.167591   0.139915  
  0.396354   0.321791    0.21968  
  0.396282   0.326565   0.236667  
  0.396185   0.326676   0.234219  
  0.396135   0.331566   0.251907  
  0.326331  -0.255206  -0.184329  
  0.316327  -0.337166  -0.240308  
  0.326185  -0.250596  -0.170073  
  0.316181  -0.332558  -0.226053  
  0.346339 -0.0911844 -0.0723336  
  0.336335  -0.173212  -0.128338  
  0.346196 -0.0865704 -0.0580705  
   0.33619  -0.168599  -0.114079  
  0.366341  0.0729154  0.0397086  
  0.356342 -0.00913566 -0.0163165  
  0.366201  0.0775313  0.0539741  
    0.3562 -0.00452039 -0.00205106  
  0.386328   0.236963   0.151745  
  0.376336   0.154952  0.0957328  
   0.38619   0.241576   0.166006  
  0.376197   0.159567   0.109996  
  0.396323   0.318941   0.207739  
  0.396183   0.323551   0.221997  
  0.316643  -0.337221  -0.233309  
   0.31688  -0.345991  -0.263888  
  0.326511  -0.253825  -0.174861  
  0.326773  -0.259661  -0.192634  
  0.326564  -0.259464  -0.195906  
  0.326837  -0.265293  -0.213654  
  0.316499  -0.335778  -0.230835  
   0.31676  -0.341607  -0.248604  
  0.316557   -0.34142  -0.251882  
   0.31683  -0.347244  -0.269627  
  0.326668  -0.259564  -0.194265  
  0.316659  -0.341515  -0.250239  
  0.336667  -0.173283  -0.121353  
   0.33689  -0.182057   -0.15194  
  0.346524 -0.0897998 -0.0628666  
  0.346777  -0.095644 -0.0806564  
  0.346569 -0.0954467 -0.0839201  
  0.346834  -0.101283  -0.101683  
   0.33652  -0.171831  -0.118872  
  0.336777  -0.177672  -0.136653  
  0.336567  -0.177473   -0.13992  
  0.336837  -0.183306  -0.157675  
  0.346673 -0.0955463  -0.082283  
  0.336672  -0.177573  -0.138281  
  0.356669 -0.00919546 -0.00933135  
  0.356882 -0.0179844 -0.0399373  
  0.366519  0.0743109  0.0491836  
  0.366764  0.0684645  0.0313901  
  0.366564  0.0686536   0.028121  
  0.366824  0.0628135  0.0103528  
  0.356525 -0.00774564 -0.00684671  
  0.356773 -0.0135917 -0.0246411  
  0.356569 -0.0133981 -0.0279053  
  0.356831  -0.019237 -0.0456734  
  0.366664  0.0685579  0.0297605  
  0.356671 -0.0134959  -0.026268  
   0.37664    0.15491   0.102739  
  0.376859   0.146112  0.0721272  
  0.386487   0.238368   0.161232  
  0.386729   0.232531   0.143452  
  0.386545   0.232707   0.140167  
  0.386804   0.226873   0.122409  
  0.376504   0.156353   0.105215  
  0.376747   0.150509  0.0874268  
  0.376555   0.150693  0.0841492  
  0.376814   0.144854  0.0663851  
  0.386638   0.232617   0.141813  
  0.376652     0.1506  0.0857925  
  0.396611   0.318912   0.214758  
  0.396845   0.310123   0.184157  
   0.39648   0.320347   0.217225  
  0.396726   0.314517   0.199452  
  0.396542   0.314689   0.196164  
  0.396804   0.308861   0.178412  
  0.396634     0.3146   0.197811  
  0.315344  -0.277439 -0.0458765  
  0.325167  -0.195416  0.0073792  
   0.32533  -0.189473  0.0305097  
  0.315171  -0.277406 -0.0486285  
  0.315337  -0.271471 -0.0255062  
  0.325115  -0.188744  0.0299512  
   0.31512  -0.270739 -0.0260632  
  0.335348  -0.113428  0.0661582  
  0.345186  -0.031365   0.119429  
  0.345356 -0.0254164   0.142574  
  0.335173    -0.1134  0.0634017  
  0.335339  -0.107453  0.0865409  
  0.345136 -0.0246916   0.142009  
  0.335122  -0.106726  0.0859791  
   0.35538  0.0506512   0.178211  
   0.36521   0.132713   0.231455  
  0.365389   0.138655   0.254596  
  0.355199  0.0506768   0.175449  
  0.355374  0.0566229   0.198595  
  0.365163   0.139378   0.254029  
  0.355151  0.0573463   0.198028  
  0.375401   0.214702   0.290204  
  0.385212   0.296714   0.343424  
  0.385396   0.302648   0.366547  
  0.375215   0.214728   0.287445  
  0.375398   0.220666   0.310577  
  0.385168   0.303372   0.365985  
   0.37517   0.221389   0.310012  
  0.395384   0.378646   0.402154  
  0.395201   0.378676     0.3994  
  0.395382   0.384607   0.422518  
  0.395156   0.385334   0.421959  
  0.315974  -0.345134   -0.27718  
  0.325839  -0.259169  -0.209526  
  0.326043  -0.262236  -0.216312  
  0.315851  -0.341129  -0.265503  
  0.316052  -0.344198  -0.272291  
   0.32592  -0.256737   -0.19908  
  0.315929  -0.338698  -0.255059  
   0.33596  -0.181183  -0.165217  
  0.345838 -0.0951563 -0.0975389  
  0.346045 -0.0982253  -0.104327  
  0.335834  -0.177178  -0.153539  
  0.336041  -0.180246  -0.160325  
   0.34592 -0.0927208 -0.0870877  
  0.335917  -0.174744   -0.14309  
  0.355973 -0.0171214 -0.0532079  
  0.365862  0.0689365  0.0144996  
  0.366064  0.0658631 0.00770759  
  0.355848 -0.0131121 -0.0415248  
  0.356053 -0.0161832 -0.0483145  
   0.36594  0.0713725   0.024951  
  0.355929  -0.010676 -0.0310725  
  0.375998   0.146961  0.0588402  
  0.385884   0.232987   0.126542  
  0.386078   0.229911   0.119747  
  0.375876   0.150974  0.0705255  
  0.376073   0.147898  0.0637316  
  0.385955   0.235419   0.136987  
  0.375949   0.153408  0.0809743  
  0.396001   0.310959   0.170858  
  0.395881   0.314969    0.18254  
  0.396074   0.311894   0.175746  
  0.395952   0.317399   0.192983  
  0.315293  -0.338891  -0.270597  
  0.325174  -0.258262  -0.220882  
  0.325267  -0.252845  -0.201065  
  0.315206  -0.340191  -0.276834  
  0.315297  -0.334784  -0.257025  
  0.325172  -0.253144  -0.204527  
  0.315206  -0.335074   -0.26048  
   0.33525  -0.174972  -0.158666  
  0.345165  -0.094259  -0.108927  
  0.345249   -0.08883  -0.089086  
  0.335161  -0.176283  -0.164915  
  0.335251  -0.170859  -0.145086  
  0.345152 -0.0891308 -0.0925563  
  0.335154   -0.17116  -0.148553  
  0.355267 -0.0108931 -0.0466555  
  0.365208  0.0698568 0.00313137  
  0.365285   0.075289  0.0229754  
   0.35518 -0.0122055 -0.0529112  
  0.355261 -0.00677389 -0.0330649  
   0.36519   0.074993  0.0195097  
  0.355164 -0.0070728 -0.0365348  
  0.375327   0.153222  0.0654359  
  0.385281   0.233953    0.11524  
  0.385351   0.239372    0.13506  
  0.375246   0.151915   0.059191  
  0.375319   0.157343  0.0790246  
  0.385268   0.239088   0.131614  
  0.375229   0.157052   0.075568  
  0.395361   0.317246    0.17748  
  0.395285   0.315952    0.17125  
  0.395358   0.321359   0.191059  
  0.395277   0.321081   0.187617  
  0.325868  -0.213851 -0.0417443  
  0.315865  -0.295835  -0.097742  
  0.345921 -0.0497792  0.0703247  
  0.335893  -0.131828  0.0142836  
  0.365956   0.114332   0.182379  
  0.355944  0.0322797    0.12636  
  0.385943   0.278347   0.294362  
  0.375956   0.196359    0.23838  
  0.395917   0.360293   0.350328  
  0.326838  -0.257833  -0.183919  
  0.326513   -0.24621  -0.143502  
  0.326514  -0.249898  -0.158903  
  0.316821  -0.339771  -0.239883  
  0.316488  -0.328153  -0.199469  
  0.316496  -0.331846  -0.214874  
  0.326673   -0.25211  -0.163924  
  0.316651  -0.334048  -0.219889  
  0.346844 -0.0938143 -0.0719441  
  0.346547 -0.0821666 -0.0314899  
  0.346536 -0.0858649 -0.0469019  
  0.336844  -0.175845  -0.127941  
  0.336534  -0.164209 -0.0875064  
  0.336528  -0.167901  -0.102912  
  0.346692 -0.0880794 -0.0519324  
  0.336686  -0.170116  -0.107938  
  0.366828  0.0703028  0.0401097  
  0.366541  0.0819661   0.080581  
   0.36653  0.0782566  0.0651581  
   0.35684 -0.0117579 -0.0159262  
  0.356551 -0.000101033  0.0245408  
  0.356538 -0.00380514 0.00912301  
   0.36668  0.0760464  0.0601306  
  0.356691 -0.00601808 0.00409192  
  0.386779   0.234381   0.152186  
   0.38648    0.24604   0.192648  
  0.386484   0.242321   0.177215  
  0.376805   0.152353   0.096154  
  0.376515   0.164018   0.136623  
  0.376509   0.160303   0.121194  
  0.386623   0.240124   0.172205  
  0.376654   0.158098   0.116175  
  0.396773    0.31637   0.208187  
   0.39646   0.328015   0.248634  
  0.396471   0.324298   0.233204  
   0.39661   0.322107   0.228199  
  0.326503  -0.261834  -0.206141  
    0.3165  -0.343793  -0.262119  
  0.346506 -0.0978196  -0.094156  
  0.336505  -0.179843  -0.150154  
  0.366506  0.0662744  0.0178803  
  0.356507 -0.0157742 -0.0381433  
  0.386496   0.230324   0.129922  
  0.376502   0.148311  0.0739059  
  0.396494   0.312307   0.185921  
  0.315012  -0.307018  -0.164938  
  0.324867  -0.222538   -0.10309  
  0.324898  -0.219903 -0.0910397  
  0.314889  -0.304511  -0.159075  
  0.314913  -0.301876  -0.147027  
  0.324736  -0.216743 -0.0829208  
   0.31475  -0.298724  -0.138913  
  0.334964  -0.143037 -0.0529415  
  0.344806 -0.0584645 0.00897554  
  0.344853 -0.0558402  0.0210132  
  0.334832  -0.140516 -0.0470658  
  0.334873  -0.137886 -0.0350213  
   0.34468 -0.0526669  0.0291509  
  0.334705  -0.134719 -0.0268925  
  0.354938   0.021073  0.0591273  
  0.364801   0.105669   0.121047  
  0.364849   0.108282   0.133075  
  0.354797  0.0236029  0.0650157  
  0.354846  0.0262218  0.0770482  
  0.364669    0.11146   0.141215  
  0.354669  0.0293977  0.0851895  
   0.37496   0.185179   0.171179  
  0.384838   0.269714   0.233063  
  0.384874   0.272319   0.245081  
  0.374816   0.187712   0.177065  
  0.374859    0.19032   0.189087  
   0.38469   0.275492    0.25321  
  0.374676   0.193497   0.197222  
  0.395001   0.349136   0.283153  
  0.394863   0.351658    0.28903  
  0.394892   0.354269   0.301053  
  0.394712   0.357432   0.309176  
  0.315993  -0.353724  -0.306946  
  0.325963  -0.278024  -0.272743  
  0.326144  -0.272291  -0.250277  
  0.315977  -0.359983  -0.328715  
  0.316155  -0.354252  -0.306253  
  0.326179  -0.278994  -0.273213  
  0.316191  -0.360956  -0.329187  
  0.335978  -0.189779  -0.194993  
  0.345969  -0.114031   -0.16079  
  0.346147  -0.108289  -0.138307  
  0.335961  -0.196042  -0.216772  
  0.336142  -0.190304  -0.194298  
  0.346184     -0.115  -0.161256  
  0.336178  -0.197011  -0.217239  
  0.355996 -0.0257273 -0.0829983  
  0.366002  0.0500411 -0.0487682  
   0.36617   0.055789 -0.0262817  
  0.355984 -0.0319982  -0.104789  
  0.356157 -0.0262528 -0.0823018  
  0.366211  0.0490699 -0.0492366  
  0.356196  -0.032968  -0.105255  
  0.376027   0.138351  0.0290523  
  0.386027   0.214097  0.0632948  
  0.386188   0.219839  0.0857672  
  0.376018   0.132077 0.00726446  
  0.376182   0.137823  0.0297452  
  0.386231   0.213122  0.0628209  
  0.376224   0.131104  0.0067932  
   0.39603    0.30236   0.141085  
   0.39602   0.296094    0.11931  
  0.396184   0.301829   0.141775  
  0.396226   0.295117   0.118835  
  0.325828  -0.269961  -0.247205  
  0.315843  -0.351918  -0.303178  
  0.325765   -0.27598  -0.268579  
  0.315781  -0.357935  -0.324548  
  0.345831   -0.10596  -0.135239  
  0.335825  -0.187976  -0.191228  
  0.345773  -0.111987  -0.156629  
  0.335763  -0.193999   -0.21261  
  0.365864  0.0581226 -0.0232087  
  0.355845 -0.0239221 -0.0792322  
   0.36581  0.0520886 -0.0446037  
  0.355789 -0.0299531  -0.100627  
  0.385891    0.22218  0.0888484  
  0.375881   0.140161  0.0328228  
  0.385839    0.21615  0.0674651  
  0.375829   0.134127  0.0114323  
  0.395886   0.304171   0.144856  
  0.395832   0.298148   0.123481  
  0.327082  -0.267569  -0.218773  
  0.317074  -0.349513  -0.274742  
  0.326971  -0.262836  -0.201737  
  0.316959  -0.344776  -0.257703  
  0.347072  -0.103565  -0.106818  
  0.337078  -0.185586  -0.162802  
  0.346968 -0.0988264 -0.0897741  
  0.336972  -0.180852  -0.145764  
  0.367056  0.0605333 0.00521812  
  0.357066 -0.0215185 -0.0508103  
  0.366951  0.0652814  0.0222706  
  0.356962  -0.016775 -0.0337618  
  0.387028   0.224603   0.117288  
  0.377041   0.142578  0.0612574  
  0.386912   0.229356   0.134345  
  0.376931   0.147329  0.0783128  
  0.397031   0.306598   0.173297  
  0.396912   0.311349    0.19035  
  0.324281  -0.192635 0.00447255  
  0.314278  -0.274629  -0.051539  
  0.324385  -0.191038  0.0118234  
  0.314382  -0.273031  -0.044188  
  0.344276 -0.0285799   0.116529  
   0.33428  -0.110617  0.0604983  
  0.344386 -0.0269877   0.123876  
  0.334385  -0.109022  0.0678475  
   0.36427   0.135501   0.228551  
  0.354273   0.053463    0.17255  
  0.364386   0.137088   0.235896  
  0.354387  0.0550529   0.179894  
   0.38426   0.299499   0.340506  
  0.374265   0.217516   0.284534  
  0.384379   0.301087   0.347854  
  0.374383   0.219102   0.291879  
  0.394261   0.381456   0.396481  
  0.394377   0.383047    0.40383  
  0.325463  -0.195628  0.0115957  
  0.315469  -0.277622 -0.0444149  
  0.325508  -0.190711  0.0289561  
  0.315516  -0.272711  -0.027061  
  0.345492 -0.0315688   0.123657  
  0.335474  -0.113607   0.067624  
  0.345538 -0.0266488   0.141028  
  0.335519  -0.108688  0.0849906  
  0.365527   0.132512   0.235686  
  0.355511   0.050475   0.179681  
  0.365576   0.137426   0.253052  
  0.355559  0.0553923   0.197051  
  0.385531    0.29651   0.347646  
  0.375534   0.214526   0.291672  
  0.385585   0.301417   0.364999  
  0.375586   0.219437   0.309031  
  0.395516   0.378466   0.403618  
  0.395569   0.383372   0.420967  
  0.324306  -0.196495 -0.00999301  
  0.314302  -0.278489 -0.0660026  
  0.344292 -0.0324348   0.102067  
    0.3343  -0.114475  0.0460338  
  0.364281   0.131654   0.214096  
  0.354286  0.0496121   0.158091  
  0.384271   0.295655   0.326052  
  0.374275   0.213672    0.27008  
  0.394275   0.377607   0.382025  
  0.315159  -0.309877  -0.171139  
  0.325253  -0.233286   -0.13213  
  0.325067   -0.22648   -0.11206  
  0.325094  -0.230869  -0.128472  
  0.315272  -0.315247  -0.188108  
  0.315086  -0.308446  -0.168041  
  0.315119  -0.312829  -0.184448  
  0.325172  -0.232076  -0.130304  
  0.315194  -0.314036  -0.186281  
  0.335121  -0.145905 -0.0591505  
  0.345224 -0.0692453 -0.0201071  
  0.345027 -0.0624268 -2.09283e-05  
  0.345048 -0.0668161  -0.016436  
  0.335235  -0.151283 -0.0761273  
  0.335043   -0.14447 -0.0560494  
  0.335066   -0.14886 -0.0724638  
  0.345135 -0.0680299 -0.0182754  
  0.335149   -0.15007  -0.074299  
  0.355106  0.0181948  0.0529056  
  0.365237  0.0948733  0.0919533  
   0.36503   0.101697   0.112043  
  0.365056  0.0973141  0.0956342  
  0.355225  0.0128132  0.0359223  
  0.355023   0.019635  0.0560126  
  0.355045  0.0152484  0.0395991  
  0.365145  0.0960943  0.0937897  
  0.355134  0.0140315  0.0377566  
   0.37513   0.182295   0.164955  
  0.385273   0.258923   0.203985  
  0.385065   0.265743   0.224066  
  0.385104   0.261371   0.207672  
  0.375254   0.176915   0.147978  
  0.375046   0.183738   0.168063  
  0.375077   0.179361   0.151663  
  0.385188   0.260148   0.205824  
  0.375165   0.178138   0.149816  
  0.395161    0.34626   0.276937  
  0.395284   0.340887   0.259967  
  0.395082   0.347699   0.280042  
  0.395123   0.343329   0.263649  
  0.395203   0.342109   0.261804  
   0.32499  -0.228784  -0.124284  
  0.315018  -0.310746  -0.180261  
  0.344931 -0.0647192 -0.0122329  
  0.334955  -0.146769 -0.0682683  
  0.364935  0.0994182  0.0998438  
  0.354925  0.0173492  0.0438065  
  0.384986   0.263478   0.211882  
  0.374957   0.181467   0.155873  
  0.395012    0.34543   0.267855  
  0.325112   -0.22464   -0.10328  
  0.315126  -0.306609  -0.159264  
  0.325232  -0.229122  -0.116874  
  0.315246  -0.311088  -0.172856  
  0.345082 -0.0605921 0.00875448  
  0.335094  -0.142632 -0.0472708  
  0.345207   -0.06508 -0.00484763  
  0.335216  -0.147117  -0.060869  
  0.365085   0.103524   0.120811  
  0.355079   0.021466  0.0647848  
  0.365215  0.0990344   0.107209  
  0.355207  0.0169769   0.051181  
  0.385112   0.267563   0.232827  
  0.375098   0.185561   0.176828  
  0.385244   0.263077   0.219231  
  0.375229   0.181072   0.163228  
  0.395124   0.349522   0.288806  
  0.395253    0.34504   0.275212  
  0.326356  -0.239851  -0.121936  
   0.31633  -0.321801  -0.177908  
  0.346406 -0.0757926 -0.00990005  
  0.336385  -0.157841 -0.0659282  
  0.366409  0.0883443   0.102176  
  0.356415 0.00627603  0.0461365  
  0.386349    0.25241   0.214229  
  0.376385   0.170394   0.158212  
  0.396322   0.334373   0.270207  
  0.327067  -0.270428  -0.230102  
  0.317062  -0.352378  -0.286074  
  0.347057  -0.106427  -0.118146  
  0.337063  -0.188445   -0.17413  
  0.367044  0.0576643 -0.00611578  
  0.357051 -0.0243837 -0.0621406  
  0.387027   0.221727   0.105947  
  0.377035   0.139705  0.0499189  
  0.397031   0.303721   0.161956  
  0.325343  -0.259689  -0.221799  
  0.315369   -0.34163  -0.277761  
  0.325233  -0.262481  -0.233107  
  0.315261  -0.344414  -0.289063  
  0.345337 -0.0956838  -0.109834  
  0.335333  -0.177706  -0.165826  
  0.345231 -0.0984833  -0.121158  
  0.335224  -0.180504  -0.177142  
  0.365378  0.0684234 0.00221648  
  0.355352  -0.013634 -0.0538197  
  0.365276  0.0656234 -0.00910789  
  0.355249 -0.0164344 -0.0651465  
  0.385434   0.232503   0.114299  
  0.375409   0.150474  0.0582634  
   0.38534   0.229713   0.102993  
  0.375311   0.147677  0.0469474  
  0.395434   0.314495   0.170304  
  0.395338   0.311713   0.159005  
  0.326406  -0.248753  -0.157156  
  0.316391  -0.330706  -0.213131  
  0.346427 -0.0847192 -0.0451513  
  0.336419  -0.166755  -0.101162  
  0.366424  0.0793977  0.0669052  
   0.35643 -0.00266145   0.010873  
  0.386388   0.243454   0.178951  
  0.376408   0.161441   0.122936  
  0.396376   0.325428    0.23494  
  0.325358     -0.255  -0.205967  
  0.315384  -0.336944  -0.261931  
  0.345346 -0.0909877 -0.0939885  
  0.335345  -0.173014  -0.149987  
  0.365382  0.0731244  0.0180667  
  0.355358 -0.00893497 -0.0379698  
  0.385438     0.2372   0.130141  
  0.375412   0.155174  0.0741103  
   0.39544   0.319186    0.18614  
  0.325392  -0.201305 -0.00927788  
  0.315397  -0.283292 -0.0652817  
  0.325528  -0.201004 -0.00561075  
  0.315533  -0.282994 -0.0616164  
  0.345417 -0.0372508   0.102772  
  0.335401  -0.119288  0.0467434  
  0.345559 -0.0369451   0.106447  
   0.33554  -0.118985  0.0504144  
  0.365445   0.126835   0.214805  
  0.355433   0.044795   0.158795  
  0.365593   0.127143   0.218481  
  0.355579  0.0451021   0.162472  
  0.385446    0.29084    0.32678  
   0.37545   0.208853   0.270798  
  0.385595   0.291146   0.330451  
  0.375599    0.20916   0.274473  
  0.395433   0.372799   0.382755  
  0.395578   0.373101   0.386423  
  0.325246  -0.201607 -0.0131592  
   0.31525  -0.283593 -0.0691617  
  0.345264 -0.0375569  0.0988849  
  0.335252  -0.119592  0.0428592  
  0.365286   0.126528   0.210916  
  0.355276   0.044488   0.154907  
  0.385287   0.290535   0.322895  
   0.37529   0.208546   0.266911  
  0.395277   0.372496   0.378872  
  0.325008  -0.222268 -0.0971647  
  0.315022  -0.304239   -0.15315  
  0.344971 -0.0582137  0.0148778  
  0.334986  -0.140256 -0.0411516  
   0.36497   0.105906   0.126937  
  0.354966  0.0238463  0.0709103  
  0.384997   0.269944   0.238949  
  0.374982   0.187943   0.182952  
  0.395012   0.351899   0.294925  
  0.325977  -0.267473   -0.23609  
  0.315989  -0.349433  -0.292066  
  0.325843  -0.264572  -0.228369  
  0.315857   -0.34653  -0.284344  
  0.345978  -0.103468  -0.124114  
  0.335973  -0.185485  -0.180108  
  0.345844  -0.100565  -0.116391  
  0.335839  -0.182584  -0.172386  
  0.366004  0.0606166 -0.0120833  
  0.355989 -0.0214281 -0.0681054  
  0.365872  0.0635233 -0.0043563  
  0.355856 -0.0185236 -0.0603803  
  0.386025   0.224668  0.0999643  
  0.376017   0.142653  0.0439439  
  0.385897   0.227577   0.107693  
  0.375888   0.145561  0.0516722  
  0.396021   0.306656   0.155968  
  0.395893   0.309564   0.163695  
  0.326097  -0.267268    -0.2333  
  0.316106  -0.349229  -0.289278  
  0.346098  -0.103261  -0.121322  
  0.336094  -0.185279  -0.177317  
  0.366119  0.0608222 -0.00929205  
  0.356107  -0.021222 -0.0653132  
  0.386135   0.224871   0.102752  
   0.37613   0.142857  0.0467333  
  0.396132   0.306858   0.158755  
Strain_nodal 6 8107 float
 0.0728369 0.00829276  0.0333235 0.00669806  0.0111866   0.089007  
 0.0725884 0.00823541  0.0330975  0.0046755  0.0109432  0.0887463  
 0.0728977 0.00836198  0.0324133 0.00801371  0.0118792  0.0884274  
 0.0726289 0.00829823  0.0326398 0.00370466  0.0102336  0.0886855  
 0.0742105 -0.0104317  0.0279622   0.004735  0.0112258 0.00520132  
 0.0728199 -0.0104341  0.0279606 0.00484119  0.0111979 0.00522553  
-0.00136551  0.0211669  0.0279957 0.00571034 0.00127872  0.0989251  
-0.00137631  0.0192968  0.0279977 0.00301056 7.26747e-05  0.0931324  
 0.0728946 0.00835766  0.0324203 0.00799664  0.0118678  0.0884273  
 0.0726167 0.00829703  0.0326645 0.00374682  0.0102666  0.0887168  
 0.0728401 0.00829287  0.0333244 0.00671606  0.0112015  0.0890156  
 0.0725996 0.00823292  0.0331125 0.00463063  0.0109166  0.0887757  
 0.0742153 -0.0104349  0.0279607 0.00492863  0.0113955 0.00520801  
-0.00137715  0.0193031  0.0279947 0.00298755 7.25342e-05   0.093118  
 0.0728153  -0.010431   0.027962 0.00465088  0.0110311 0.00521897  
-0.00136407  0.0211597  0.0279986 0.00573608 0.00127796  0.0989388  
 0.0707085  0.0218634  0.0318998  0.0125415  0.0158399    0.10859  
 0.0700641  0.0190794  0.0308538   0.011317  0.0149667   0.123995  
  0.070731  0.0100471  0.0300219 0.00834225  0.0120824   0.139977  
 0.0708335 0.00426721  0.0277009  0.0057677 0.00911753   0.142085  
 0.0707493 0.00769867   0.025233 0.00366216 0.00706157   0.127701  
 0.0705277  0.0154569  0.0252216 0.00101959 0.00508112   0.109963  
 0.0707974  0.0194434  0.0279452 0.000456585 0.00549343  0.0992506  
 0.0717046   0.017192  0.0324263  0.0103686  0.0134991  0.0996581  
 0.0704766  0.0208277  0.0315678  0.0125018  0.0159034    0.11607  
 0.0705381   0.014834  0.0307021  0.0101168  0.0138494   0.131961  
 0.0708242 0.00660503  0.0290479 0.00702485  0.0104951   0.142272  
 0.0707957 0.00559162  0.0264035  0.0046982 0.00801829   0.135303  
  0.070648  0.0117848  0.0249963 0.00238194 0.00614412   0.118122  
  0.070736  0.0176365  0.0265142 0.000506495 0.00492427   0.103536  
 0.0716654  0.0157841  0.0305164 0.00193665  0.0082563  0.0949106  
 0.0796358 0.00688248  0.0475559 -0.0202375 -0.00945912   0.112299  
 0.0929471 0.00437521  0.0523808  -0.036244 -0.0205742   0.121218  
  0.112895 -0.00117308   0.045918 -0.0338404 -0.0161275   0.109696  
   0.12835 -0.00500272  0.0238756 0.00462763  0.0157636  0.0732289  
  0.121697 -0.00122239 0.00529571  0.0438903  0.0461792  0.0439404  
   0.10294 0.00446612 0.00215722   0.053314  0.0535609  0.0419455  
 0.0865479  0.0070536  0.0136775  0.0357218  0.0378726   0.061338  
 0.0766195 0.00749164  0.0403339 -0.00766922 0.00121157   0.100535  
 0.0855351 0.00512038  0.0511191 -0.0288698 -0.0157217   0.117415  
  0.102097 0.00178545  0.0513475 -0.0387792 -0.0219107   0.118706  
  0.121138 -0.00245732  0.0357753 -0.0175941 -0.00200055  0.0936075  
  0.125992 -0.00257159  0.0140868  0.0251542  0.0316297  0.0581704  
  0.112176  0.0020781 0.00171694  0.0517117  0.0524045  0.0405511  
 0.0938325 0.00585626 0.00764907   0.044979  0.0459497  0.0512778  
  0.080027 0.00771256   0.023482  0.0214322  0.0246213  0.0755872  
 0.0707531  0.0222604  0.0279965  0.0136896 0.00608143   0.105352  
 0.0702353  0.0197629  0.0253128  0.0119709 0.00596786   0.119422  
 0.0705263  0.0111546  0.0252209 0.00827978 0.00739668   0.135824  
 0.0711893 0.00428803  0.0277514 0.00543503 0.00855963   0.141677  
  0.070581 0.00741367  0.0302277 0.00338891  0.0110551   0.131628  
 0.0703464  0.0148934  0.0315274 0.000466608  0.0147099   0.114543  
 0.0707464  0.0190105  0.0321377 -0.000436947  0.0158408   0.102707  
 0.0717418  0.0173736  0.0303877  0.0119927 0.00881032  0.0983182  
 0.0705755  0.0213063  0.0264584  0.0132057 0.00579333   0.111692  
 0.0706738  0.0155149  0.0249807  0.0103535 0.00651541   0.127734  
 0.0706721 0.00743381  0.0263657 0.00655369 0.00805925   0.139996  
 0.0707264 0.00533033  0.0290639 0.00451226 0.00970841   0.137536  
 0.0704374  0.0113657  0.0311277 0.00183145  0.0132081   0.122606  
 0.0706577  0.0171163  0.0318496 -0.000113141  0.0154412   0.107764  
  0.071641  0.0155853  0.0325141 0.000587557  0.0131687  0.0968551  
 0.0834513 0.00718702  0.0144883 -0.0210323  -0.014702  0.0621752  
 0.0979648 0.00530607   0.004558 -0.0366886  -0.026345  0.0453112  
  0.118306 -0.000601036 0.00494863 -0.0332044 -0.0189701  0.0439172  
  0.128389 -0.00501766  0.0238112 0.00566888  0.0179853  0.0731931  
  0.116991 -0.00190529  0.0452553  0.0445681   0.051481   0.108807  
 0.0964894 0.00366182  0.0543876  0.0536009  0.0587608   0.123492  
 0.0825432 0.00670712  0.0480362  0.0347049  0.0399568   0.113274  
 0.0784457 0.00772597  0.0236676 -0.00847109 -0.00208135  0.0756509  
 0.0902531 0.00568887 0.00861017 -0.0294268 -0.0213723  0.0519396  
  0.108336 0.00236123 0.00243157 -0.0385562 -0.0264807  0.0414006  
  0.124081 -0.00212943  0.0132597 -0.0168181 -0.00258334  0.0571138  
   0.12341 -0.0028381  0.0347085  0.0259221  0.0354434  0.0919306  
   0.10603 0.00148016  0.0519399  0.0521417  0.0579226   0.119506  
 0.0886997 0.00522201  0.0517244  0.0444739  0.0494905   0.118903  
 0.0781368 0.00748387  0.0403642   0.020307  0.0248353   0.100655  
 0.0870605 -0.0134477   0.027975  0.0131544  0.0374568  0.0154393  
 0.0868942 -0.0200594  0.0279701  0.0348896  0.0585169  0.0391423  
 0.0584193 -0.0154234  0.0279797  0.0535176  0.0546902  0.0600487  
 0.0312171 -0.00180001  0.0279873  0.0591949  0.0439496  0.0809739  
0.00845174  0.0132295   0.027992  0.0406605  0.0243738  0.0937564  
 0.0795663  -0.011393  0.0279725 0.00801974  0.0239441   0.009371  
 0.0864991 -0.0167884  0.0279741  0.0221311   0.047447  0.0257871  
 0.0716205 -0.0181423  0.0279741  0.0445611  0.0563359  0.0496772  
 0.0441444 -0.00890458   0.027984  0.0569866  0.0491818  0.0701206  
  0.019139  0.0057599  0.0279897  0.0505685   0.034108  0.0869406  
0.00288495  0.0173884  0.0279938  0.0232372   0.012637  0.0954634  
0.00699786  0.0172548  0.0279957 -0.0358338 -0.0240059   0.099395  
 0.0298506 -0.00127331  0.0279927 -0.0575304 -0.0392822  0.0747622  
   0.06556 -0.0178701  0.0279863 -0.0582055 -0.0482921  0.0553395  
 0.0774089 -0.0216974  0.0279707  -0.026117 -0.0319411  0.0249667  
 0.0748076 -0.0153989  0.0279561 -0.00293266 -0.0101563 0.00858261  
0.00164245  0.0200115   0.027996 -0.0152592 -0.0113648  0.0989084  
 0.0173159 0.00840116  0.0279938 -0.0477171 -0.0318132  0.0865001  
  0.046123 -0.00925763  0.0279906 -0.0587185 -0.0436512  0.0655524  
 0.0719281 -0.0206141  0.0279791 -0.0412683 -0.0399073  0.0386602  
  0.075726 -0.0186038  0.0279631 -0.0131983 -0.0205758  0.0157786  
 0.0725861 -0.0125689  0.0279559 0.00161033 0.000851472 0.00643433  
  0.085055 -0.0133425  0.0279739  0.0130034  0.0367334  0.0152523  
 0.0826635 -0.0195778  0.0279704  0.0332429  0.0557401  0.0375561  
 0.0531009 -0.0150163  0.0279812  0.0486121  0.0497695  0.0550069  
 0.0383228 -0.000234406  0.0279896  0.0722055  0.0537883   0.096859  
 0.0102874  0.0176706  0.0279945  0.0475968    0.02877   0.111268  
 0.0778713 -0.0113536  0.0279704 0.00802726  0.0235973 0.00931902  
 0.0834125 -0.0165288  0.0279735  0.0214374  0.0458585  0.0251097  
 0.0662295 -0.0175604  0.0279743  0.0412436  0.0521656  0.0464231  
 0.0462713 -0.00876477  0.0279855  0.0598269  0.0516297   0.073446  
 0.0227711 0.00940536   0.027993  0.0608706  0.0410864   0.104285  
0.00309382   0.019386  0.0279971   0.024816  0.0137119   0.102127  
0.00603925  0.0133656  0.0279982 -0.0319243 -0.0206532  0.0858088  
 0.0318808 -0.00028411  0.0279962 -0.0617149 -0.0418053  0.0802765  
 0.0549229 -0.0166721  0.0279865 -0.0488933 -0.0403304  0.0475994  
 0.0711625 -0.0207912   0.027968 -0.0240315 -0.0293205  0.0234867  
 0.0742576 -0.0153316  0.0279545 -0.00304521 -0.0101947 0.00859434  
0.00170453  0.0164961  0.0279978 -0.0139578 -0.00984593  0.0883276  
 0.0172384 0.00731617  0.0279974 -0.0465366 -0.0305962  0.0830275  
 0.0439126 -0.00950639  0.0279918 -0.0557704  -0.041255  0.0622233  
 0.0629936 -0.0194005  0.0279779 -0.0360665 -0.0347799   0.034556  
 0.0723627 -0.0182209  0.0279607 -0.0126575 -0.0196726  0.0153604  
 0.0730667 -0.0125632  0.0279561  0.0014531 0.000706015  0.0064481  
 0.0707389  0.0222691  0.0279978  0.0136572 0.00604473   0.105336  
 0.0702075  0.0195209  0.0255542  0.0115484  0.0063869   0.119125  
 0.0708307  0.0105389  0.0254338 0.00828756 0.00782009   0.136021  
 0.0708266 0.00424605   0.027801 0.00564284 0.00909963   0.142095  
 0.0706531 0.00713822  0.0304551 0.00350611  0.0115358   0.131582  
 0.0703915  0.0147915  0.0315513 0.000775126  0.0150833   0.114857  
 0.0707125  0.0190267  0.0321427 -0.00038209  0.0159024   0.102738  
 0.0717374  0.0173806  0.0303882  0.0119809 0.00880912   0.098319  
  0.070577   0.021308  0.0264766  0.0130852 0.00583642   0.111705  
 0.0706316  0.0154184  0.0251492  0.0102147 0.00687381   0.127251  
  0.070871 0.00687381  0.0264405  0.0069565  0.0084733   0.140161  
 0.0707426 0.00527472  0.0291986 0.00455312  0.0100285   0.137342  
 0.0705435   0.011143  0.0311966 0.00218472  0.0137414   0.122807  
  0.070629  0.0171084  0.0318517 4.81076e-05  0.0155552   0.107904  
 0.0716268  0.0155997   0.032508 0.000610434  0.0131934  0.0968728  
 0.0834113 0.00722849  0.0146348 -0.0208538 -0.0144283  0.0623482  
 0.0979292 0.00532338 0.00469436  -0.036481 -0.0260902  0.0454642  
  0.118308 -0.000590758 0.00495048 -0.0332028 -0.0189609  0.0439305  
   0.12839 -0.00501845  0.0238112 0.00566818  0.0179845  0.0731933  
  0.116991 -0.00190631  0.0452551  0.0445682  0.0514811   0.108806  
 0.0964914 0.00365352  0.0544042  0.0535959  0.0587588   0.123508  
 0.0825371 0.00670249  0.0480778   0.034745  0.0400272    0.11332  
 0.0784557 0.00773658  0.0236822 -0.00846099 -0.0020299  0.0756502  
 0.0902087 0.00572492 0.00878082 -0.0291908 -0.0210433  0.0521335  
  0.108332 0.00234352 0.00245007 -0.0385219 -0.0264621  0.0413899  
   0.12408 -0.00213014  0.0132618 -0.0168153 -0.00257901  0.0571122  
   0.12341 -0.00283915  0.0347084  0.0259215   0.035443  0.0919293  
  0.106031 0.00147469  0.0519391   0.052139  0.0579229   0.119501  
 0.0887055 0.00521151  0.0517734  0.0445189  0.0495535   0.118955  
 0.0781286 0.00748519  0.0403622  0.0203044  0.0248403    0.10065  
 0.0707279  0.0218527  0.0318923  0.0125779  0.0158586   0.108597  
 0.0700783  0.0192587  0.0311476  0.0117233  0.0152145   0.124451  
 0.0704346  0.0105898  0.0302537 0.00831899  0.0118541   0.139914  
 0.0711893 0.00428443  0.0277601  0.0055996 0.00877033   0.141819  
 0.0706821 0.00790119   0.025522 0.00355864 0.00684696   0.127935  
 0.0704836  0.0155709  0.0252531 0.000689206 0.00480642    0.10967  
 0.0708367  0.0194247  0.0279481 0.000401328 0.00548284  0.0992591  
 0.0717096  0.0171856  0.0324251  0.0103804  0.0134964  0.0996442  
 0.0704725   0.020819  0.0315971  0.0126183  0.0159108   0.116032  
 0.0705793  0.0148577  0.0309041  0.0102525  0.0137707   0.132547  
 0.0706193 0.00712101  0.0291074 0.00664016  0.0103307   0.142164  
 0.0707744 0.00559035  0.0265661 0.00466284 0.00786352   0.135771  
 0.0705434  0.0119915  0.0250844 0.00204458 0.00577058   0.118067  
 0.0707612  0.0176473  0.0265232 0.000345224 0.00486644   0.103413  
 0.0716812   0.015772  0.0305148 0.00191543 0.00825298  0.0948961  
 0.0796209 0.00684195  0.0476953 -0.0204277 -0.00971564   0.112406  
  0.092933 0.00435636  0.0525173 -0.0364578  -0.020855   0.121376  
  0.112892 -0.00118263  0.0459216 -0.0338411 -0.0161322   0.109687  
   0.12835 -0.00500173  0.0238755 0.00462833  0.0157644  0.0732289  
  0.121698 -0.0012211 0.00529412  0.0438895  0.0461779  0.0439379  
  0.102934 0.00447402 0.00216909  0.0533032  0.0535562  0.0419799  
 0.0865323 0.00706064  0.0137234  0.0356946  0.0378133  0.0613815  
 0.0766006 0.00748074  0.0403492 -0.0076878 0.00116469   0.100518  
 0.0855129 0.00508563  0.0512879 -0.0291116 -0.0160457   0.117576  
  0.102095 0.00180071  0.0513666 -0.0388156 -0.0219486   0.118748  
  0.121138 -0.00245688  0.0357776 -0.0175962 -0.00200461  0.0936121  
  0.125992 -0.0025709  0.0140862  0.0251547  0.0316295  0.0581703  
  0.112174  0.0020816 0.00171478  0.0517106  0.0524029  0.0405577  
 0.0938056 0.00587012 0.00769971  0.0449328  0.0458977  0.0513531  
 0.0800319  0.0077102  0.0234838  0.0214425  0.0246183  0.0755712  
 0.0742048 -0.0153608  0.0279561 -0.00290759 -0.0100752 0.00856574  
 0.0710765 -0.0207925  0.0279712 -0.0239658 -0.0292775  0.0234597  
 0.0548554 -0.0166417  0.0279874 -0.0488542 -0.0403284  0.0475917  
 0.0318514 -0.000250521  0.0279943  -0.061688 -0.0418101    0.08028  
0.00603707  0.0133802  0.0279954 -0.0319271 -0.0206543  0.0858066  
 0.0730439 -0.0125829  0.0279559 0.00162101 0.000852408 0.00643498  
 0.0722913 -0.0182381  0.0279634 -0.0125605 -0.0195935  0.0153302  
 0.0629155 -0.0193847  0.0279799 -0.0360172 -0.0347603  0.0345386  
 0.0438637 -0.0094731  0.0279913 -0.0557362 -0.0412571  0.0622219  
 0.0172253 0.00733901   0.027995  -0.046525 -0.0305989  0.0830286  
0.00170363  0.0165057   0.027995 -0.0139719 -0.00984634  0.0883194  
  0.010275  0.0176792  0.0279936  0.0475589  0.0287676   0.111246  
 0.0382888 -0.000217428  0.0279866  0.0721573  0.0537731  0.0968303  
 0.0530429 -0.0150003  0.0279801  0.0485682  0.0497436  0.0549754  
 0.0825748 -0.0195888  0.0279701  0.0331628   0.055655  0.0375063  
 0.0849995 -0.0133763  0.0279745  0.0128487  0.0365909  0.0152219  
0.00308769  0.0193927  0.0279945  0.0247858  0.0137107   0.102107  
 0.0227497 0.00941735  0.0279899  0.0608278  0.0410777    0.10426  
 0.0462252 -0.00874722  0.0279836  0.0597816    0.05161  0.0734165  
  0.066156 -0.0175541  0.0279743   0.041186  0.0521158  0.0463826  
 0.0833408 -0.0165564  0.0279737  0.0213217   0.045742  0.0250686  
 0.0778403 -0.0113712  0.0279721 0.00784948  0.0234413 0.00930052  
 0.0748609 -0.0153694  0.0279545 -0.00307136 -0.0102767 0.00861143  
  0.077502 -0.0216957  0.0279671 -0.0261881 -0.0319877  0.0249954  
 0.0656396 -0.0179055   0.027985 -0.0582518 -0.0482948  0.0553476  
 0.0298782 -0.00130447  0.0279947 -0.0575558 -0.0392775  0.0747595  
0.00700077  0.0172376  0.0279982 -0.0358306  -0.024005  0.0993992  
 0.0726088 -0.0125493   0.027956 0.00144332 0.000705885  0.0064474  
 0.0758007 -0.0185856  0.0279602 -0.0132995 -0.0206584  0.0158099  
 0.0720165 -0.0206317  0.0279766 -0.0413243 -0.0399296  0.0386791  
 0.0461738 -0.00929226   0.027991 -0.0587541 -0.0436491  0.0655536  
 0.0173288 0.00837797  0.0279964 -0.0477286 -0.0318103  0.0865003  
0.00164365       0.02  0.0279989 -0.0152437 -0.0113656  0.0989166  
0.00846176   0.013223  0.0279952  0.0406934  0.0243794  0.0937799  
 0.0312457 -0.00181422    0.02799  0.0592346  0.0439618      0.081  
 0.0584827 -0.0154407  0.0279805  0.0535656  0.0547187  0.0600827  
 0.0869871 -0.0200477  0.0279703  0.0349735  0.0586062  0.0391942  
 0.0871172 -0.0134131  0.0279743  0.0133125  0.0376025  0.0154703  
0.00289074   0.017382  0.0279969  0.0232665  0.0126394  0.0954824  
 0.0191572 0.00575017  0.0279927  0.0506042  0.0341171  0.0869655  
 0.0441887 -0.00892138  0.0279859  0.0570301  0.0492007  0.0701493  
 0.0716997 -0.0181488  0.0279738   0.044623  0.0563896  0.0497204  
 0.0865732 -0.0167598  0.0279739  0.0222508  0.0475675  0.0258294  
  0.079598  -0.011375  0.0279708 0.00820111  0.0241033 0.00938983  
 0.0746678  0.0237894  0.0262088 0.00811711  0.0119141  0.0974839  
 0.0739007  0.0242016  0.0274108 0.00785466   0.012099  0.0992916  
 0.0739105  0.0242185  0.0273871 0.00788577  0.0121189  0.0993131  
 0.0747642  0.0238169  0.0261213 0.00766853  0.0116354  0.0973395  
 0.0747523  0.0192781  0.0290177 0.00653769  0.0108532  0.0941486  
 0.0740871  0.0236885  0.0274941 0.00783635  0.0119929  0.0985592  
 0.0738745  0.0241548  0.0275262 0.00787616  0.0121248  0.0994135  
 0.0741159  0.0237232  0.0274186 0.00788828  0.0120295  0.0985645  
 0.0749032  0.0194006  0.0285434 0.00848836  0.0125441  0.0947239  
 0.0746175  0.0238393  0.0261866 0.00790432  0.0116944  0.0976322  
  0.073821  0.0242386  0.0274045 0.00790924  0.0121265  0.0993915  
  0.073826  0.0242506    0.02739 0.00788158  0.0121054  0.0994031  
 0.0746621  0.0238438  0.0261378 0.00818862  0.0119798  0.0974032  
  0.074681  0.0193334  0.0289008 0.00797235  0.0122437   0.094202  
 0.0740124  0.0237282  0.0274732 0.00785803  0.0120255  0.0986489  
 0.0737913  0.0241881  0.0275255 0.00787543  0.0121328  0.0995076  
 0.0740209  0.0237492  0.0274393 0.00781984  0.0119901  0.0986575  
 0.0747544  0.0194388  0.0286612 0.00655575  0.0106537  0.0948392  
 0.0747709  0.0238071  0.0261216 0.00767326   0.011635  0.0973395  
  0.073917  0.0242102  0.0273869 0.00788943   0.012119  0.0993126  
 0.0739067  0.0241929  0.0274113 0.00785878  0.0120991  0.0992908  
  0.074672  0.0237819  0.0262115   0.008118  0.0119104  0.0974861  
  0.074908  0.0193992  0.0285402 0.00849423  0.0125475  0.0947272  
  0.074122  0.0237152  0.0274182  0.0078932  0.0120301  0.0985631  
 0.0738806  0.0241463  0.0275263 0.00788023  0.0121245  0.0994126  
 0.0740928  0.0236803  0.0274948 0.00784043  0.0119929  0.0985589  
 0.0747559  0.0192709  0.0290206 0.00654308  0.0108556  0.0941559  
 0.0746802  0.0238288  0.0261365 0.00818812  0.0119854  0.0973995  
 0.0738411   0.024236    0.02739   0.007878  0.0121061  0.0993984  
 0.0738355  0.0242232  0.0274059 0.00790619  0.0121274  0.0993858  
 0.0746287  0.0238251  0.0261915 0.00790243  0.0116971  0.0976278  
  0.074772  0.0194303  0.0286496  0.0065496  0.0106475  0.0948257  
 0.0740363  0.0237356  0.0274374 0.00781548    0.01199  0.0986514  
 0.0738062  0.0241732  0.0275257 0.00787187  0.0121338  0.0995022  
 0.0740265  0.0237132  0.0274753 0.00785399   0.012026  0.0986452  
 0.0746929  0.0193192   0.028912 0.00796074  0.0122354  0.0942137  
 0.0739485 -0.0104304  0.0279878 0.00398585  0.0105146  0.0052444  
 0.0736746 -0.0104577  0.0280176 0.00447989  0.0110533 0.00525663  
 0.0736655 -0.0104651  0.0280261 0.00488832  0.0115064 0.00525413  
 0.0739413 -0.0104582   0.028007 0.00551194  0.0120605 0.00524318  
 0.0741024 -0.0104267  0.0279734 0.00424512  0.0107665 0.00522271  
  0.073785  -0.010446   0.028005 0.00424672  0.0107869 0.00525442  
 0.0736634 -0.0104618    0.02802 0.00468232  0.0112823 0.00525172  
 0.0737711 -0.0104623  0.0280203 0.00517494  0.0117731 0.00525147  
 0.0741079 -0.0104463  0.0279814 0.00534544  0.0118369 0.00522353  
-0.0013673  0.0192064  0.0280149  0.0030317 8.13257e-05  0.0931629  
-0.00136982  0.0191949  0.0280143 0.00290528 8.22607e-05  0.0931341  
-0.0013777  0.0192584  0.0279921 0.00285278 7.87027e-05  0.0931628  
-0.00138183  0.0193226  0.0279825 0.00284228 7.42269e-05  0.0931206  
-0.00137159  0.0192516  0.0280059 0.00304066 7.67071e-05   0.093155  
-0.00136788  0.0191928  0.0280157 0.00296137 8.21907e-05  0.0931438  
-0.00137385  0.0192261  0.0280033 0.00287712 8.00973e-05  0.0931465  
-0.00138011  0.0192921  0.0279861 0.00284452 7.65775e-05  0.0931494  
-0.00138011   0.019319   0.027989 0.00290596 7.31787e-05  0.0931107  
 0.0725506 -0.0104578  0.0280069 0.00541467  0.0118514  0.0052608  
 0.0722796 -0.0104651   0.028026 0.00480177  0.0113071 0.00527136  
 0.0722886 -0.0104579  0.0280177 0.00440043  0.0108619 0.00527372  
 0.0725578 -0.0104305  0.0279881 0.00391484  0.0103323 0.00526178  
 0.0727143 -0.0104457  0.0279812 0.00525094  0.0116317 0.00524117  
 0.0723834 -0.0104622  0.0280202 0.00508346  0.0115691 0.00526887  
 0.0722776 -0.0104619    0.02802 0.00459933  0.0110869 0.00526887  
 0.0723972 -0.0104462  0.0280051 0.00417127  0.0106001  0.0052716  
 0.0727091 -0.0104265  0.0279734 0.00416952  0.0105798 0.00524023  
-0.00137356   0.021191   0.027983 0.00554754 0.00127751  0.0989263  
-0.00136922  0.0211227  0.0279925 0.00556401 0.00128219  0.0989727  
-0.00136001  0.0210557   0.028014 0.00563097 0.00128724  0.0989448  
-0.00135441  0.0210674  0.0280134 0.00577051 0.00128773  0.0989781  
-0.00137036   0.021186  0.0279897  0.0056191 0.00127792  0.0989162  
-0.0013718  0.0211583  0.0279866  0.0055517 0.00127982  0.0989578  
-0.00136472  0.0210886  0.0280034 0.00559567 0.00128437  0.0989563  
-0.00135672  0.0210534  0.0280148 0.00569374 0.00128807  0.0989571  
-0.00135846  0.0211134  0.0280056 0.00577504 0.00128294  0.0989663  
 0.0916327 0.00517188  0.0277529  0.0638436  0.0681049   0.102706  
 0.0846017  0.0054024  0.0279869 -0.0519328 -0.0452349  0.0961812  
 0.0840777 0.00587646  0.0281174 -0.0510196 -0.0442321  0.0961435  
 0.0917532  0.0051118  0.0279078  0.0634885  0.0680237   0.102031  
  0.135856  -0.018846   0.027395 -0.0366097 -0.0177839  0.0431752  
 0.0554249  0.0170802  0.0278766  0.0309622  0.0352052   0.154039  
 0.0519402  0.0189939  0.0279369  0.0449866  0.0435977   0.157707  
  0.135546 -0.0187713  0.0276092 -0.0362492 -0.0175268  0.0430229  
  0.142401 -0.0211004  0.0270809  0.0351287  0.0396348  0.0481834  
  0.050997  0.0167035  0.0280304 -0.0130722 -0.0162391   0.154411  
 0.0443795  0.0208285  0.0280236 -0.0311182 -0.0284657   0.157166  
   0.14268 -0.0211703  0.0268916  0.0356445  0.0402925  0.0485349  
 0.0817344  0.0141816  0.0318849 -0.0103293 0.00111538  0.0948035  
  0.074267  0.0192465  0.0279476  0.0210196  0.0259231   0.108193  
 0.0738259  0.0191877  0.0288688  0.0207942  0.0259486   0.107483  
  0.084256    0.01398   0.026526 -0.00962958 0.00213116  0.0899968  
  0.113617 -0.00305011  0.0252566  0.0332556  0.0308881  0.0778259  
  0.067777  0.0102138  0.0282402 0.00105761 -0.00247812   0.132314  
 0.0685156  0.0132169  0.0282678 -0.000739385 -0.00227517   0.125756  
  0.111391 -0.00266691  0.0279962  0.0327111  0.0284761  0.0744217  
  0.071106  0.0129865  0.0279492  0.0564998  0.0605936   0.130775  
 0.0632557  0.0149347  0.0278698  0.0201889  0.0301205   0.140712  
 0.0616998  0.0103098   0.027846  0.0101214  0.0147372   0.149972  
 0.0845007  0.0130013  0.0280607  0.0416939    0.04398   0.100813  
  0.108059 -0.00521831  0.0279429 -0.0508089 -0.0358317  0.0679213  
  0.121893 -0.0109851  0.0273446 -0.0300428 -0.00539207  0.0602468  
  0.138875 -0.0219849  0.0263649 -0.00975577 0.00963128  0.0528644  
 0.0788672  0.0136046  0.0284534 -0.0249709 -0.0197949  0.0987979  
   0.10844 -0.00536863  0.0277302 -0.0510981 -0.0360998  0.0679698  
  0.122567 -0.0112055  0.0270054 -0.0306055 -0.00589881   0.061276  
  0.139251 -0.0221001  0.0262598 -0.0107356  0.0082569  0.0535016  
 0.0792146  0.0133181  0.0282393 -0.0257183 -0.0208417  0.0990671  
  0.036884  0.0247605  0.0279598 0.00418856 0.00318054   0.172032  
  0.070311  0.0138716  0.0278736  0.0544132  0.0586661   0.130954  
 0.0848183  0.0128935  0.0277993  0.0419241  0.0445472   0.101398  
 0.0643841  0.0124432  0.0280522 -0.0474774 -0.0446246   0.127011  
  0.116594 -0.00665429   0.027698   0.060136  0.0641044  0.0723848  
  0.116901 -0.00672496  0.0274574  0.0604342  0.0644181  0.0726699  
 0.0637085  0.0135422  0.0281147  -0.042571 -0.0408098   0.126889  
 0.0592882  0.0103192  0.0279448 0.00232295 0.00223418   0.152123  
  0.090991  0.0106049  0.0268518  0.0266917  0.0256617   0.091116  
 0.0711286  0.0172461  0.0289305 -0.00371389 -0.00190823   0.110097  
 0.0712146  0.0178218  0.0289605 -0.00359905 -0.000574685   0.109436  
 0.0885601  0.0109578  0.0297254  0.0270764  0.0257633  0.0900086  
 0.0674568 0.00856556  0.0278342 0.00179593 -0.00130242   0.138634  
  0.128619 -0.0145412  0.0281015  0.0214676  0.0215806  0.0663997  
  0.131088 -0.0147806  0.0228768  0.0232246  0.0257391  0.0632116  
 0.0639167  0.0104751  0.0278236 0.00896687  0.0163144   0.147564  
 0.0612933  0.0125944  0.0281034 -0.0086126 -0.0143933   0.139847  
  0.151905 -0.0254487  0.0271728 -0.0038614  0.0116232  0.0330105  
 0.0403292  0.0227321  0.0279432  0.0162584  0.0129426   0.170176  
  0.151999 -0.0254767  0.0271087 -0.00433411  0.0110773  0.0330162  
  0.139297  -0.021695  0.0256617  0.0150605   0.023304  0.0586493  
   0.13903 -0.0216104  0.0255385  0.0136226  0.0202019  0.0569656  
 0.0654693 0.00758133  0.0279608 0.00466807 0.00325219   0.145781  
 0.0689569  0.0146619    0.02822  -0.018388 -0.0212139   0.118161  
   0.10232 0.00322391  0.0272021   0.044718  0.0430775  0.0842038  
   0.10166 0.00338502  0.0277355  0.0444475  0.0425618  0.0834453  
  0.069576  0.0150922  0.0283559 -0.0153456 -0.0175243   0.116534  
   0.10617 -0.000107892  0.0252636 -0.0186804 0.00291175  0.0752875  
 0.0684155   0.016691  0.0281345  0.0137178  0.0215222    0.12474  
 0.0678611   0.015639  0.0275697   0.016637  0.0261594   0.129517  
   0.10331 0.000264915  0.0304077 -0.0175404 0.00328737  0.0762568  
  0.077381  0.0178777  0.0278628  0.0157603  0.0176549  0.0988277  
  0.074958  0.0179242  0.0287404 -0.000893941 0.00719165  0.0984502  
 0.0730548  0.0182641  0.0316406 -0.00150056 0.00539297    0.10108  
 0.0755193  0.0179022  0.0310362  0.0167053  0.0197891  0.0999784  
 0.0680445 0.00608717  0.0278715 0.00399154 0.00359202   0.141871  
 0.0916295 0.00807317  0.0284059 -0.0278271 -0.0127864  0.0834962  
 0.0727108  0.0174528   0.027943  0.0303499  0.0378546    0.11768  
 0.0727917  0.0176567  0.0280971  0.0285589   0.036236   0.116215  
  0.092249 0.00792087  0.0280804 -0.0279375 -0.0124158  0.0846443  
  0.132677  -0.017601  0.0264396 -0.0121196 0.00646188   0.064115  
 0.0676693 0.00841142  0.0276267 0.00750723  0.0123412   0.142282  
  0.132284 -0.0173336  0.0249407 -0.0103303 0.00947907  0.0582553  
 0.0774467  0.0156714  0.0285346  -0.014737 -0.0086168   0.100242  
 0.0816957  0.0153912  0.0285631  0.0299429  0.0324334   0.100071  
 0.0823384  0.0152309  0.0279128   0.030114   0.032809    0.10057  
 0.0770858  0.0158651  0.0290255 -0.0142412 -0.00808125  0.0998287  
 0.0665927  0.0119061  0.0282362 -0.00468404 -0.00885279   0.131782  
  0.120976 -0.0087206    0.02652  0.0384553  0.0365837  0.0718267  
  0.120105 -0.00849212  0.0266242  0.0377847  0.0350319   0.069193  
  0.120889 -0.00888013  0.0253481 -0.0171745 0.00544165  0.0685857  
 0.0678422     0.0123  0.0278273  0.0102037  0.0177738   0.134363  
  0.118569 -0.00849426  0.0279036 -0.0161142 0.00628391  0.0666267  
 0.0673874  0.0123048    0.02741  0.0107193  0.0185737   0.137024  
 0.0676834 0.00726867  0.0274883 0.00722948  0.0118794   0.144234  
 0.0706185  0.0160338  0.0284694 -0.0104088 -0.0108016   0.113624  
 0.0652865  0.0136099  0.0281649 -0.0141245 -0.0185316   0.129392  
 0.0650386  0.0114803  0.0280855 -0.00319676 -0.00793748   0.135865  
 0.0694378   0.014066  0.0285951 -0.0018681 -0.00266579   0.120666  
 0.0680005  0.0139371  0.0282742 -0.00722259 -0.0096656   0.124374  
  0.134864 -0.0185743  0.0265818  0.0174183  0.0210633   0.061079  
   0.12437 -0.0112277  0.0263421  0.0307243  0.0298093  0.0666543  
  0.130669 -0.0149311  0.0268732  0.0369332  0.0377538  0.0596704  
  0.140341 -0.0213486   0.026373  0.0233997  0.0293462  0.0530123  
   0.13243 -0.0163018  0.0260982  0.0283366   0.030669  0.0594197  
 0.0663141 0.00793735  0.0279087  0.0031783 0.00124242   0.142581  
 0.0669618  0.0102163  0.0281522 -0.00134995 -0.00491773    0.13504  
 0.0598916  0.0139095  0.0281144 -0.00913375 -0.0132054   0.142297  
 0.0585493  0.0120531  0.0280037 -0.0031613 -0.0054056     0.1502  
 0.0627151  0.0110135  0.0280952 -0.00263451 -0.0056257    0.14242  
  0.136198 -0.0188118   0.024493  0.0188414  0.0246052   0.060643  
  0.125473 -0.0114275  0.0258163  0.0318178  0.0323638  0.0691682  
  0.131226 -0.0150759  0.0266184  0.0375546  0.0388146  0.0608362  
  0.140627  -0.021433  0.0263146  0.0242414  0.0308112  0.0538144  
  0.132912 -0.0164861  0.0263311  0.0292734  0.0325411  0.0616075  
 0.0945484 0.00682857  0.0351027   0.039326  0.0398427    0.10081  
  0.101199 0.00436639  0.0259448  0.0298669  0.0280222  0.0849017  
  0.115656 -0.0037663  0.0328125  0.0386038  0.0403191  0.0896826  
  0.104351 0.00199457  0.0344911  0.0403294  0.0414642  0.0967451  
 0.0704396  0.0163254  0.0279515 -0.000823302 0.00239916   0.110924  
  0.069408 0.00894062  0.0272631 0.00244999 0.00286655   0.130366  
 0.0698922  0.0129991   0.027597 0.00043666  0.0023291   0.120034  
 0.0703658  0.0163141  0.0296878 -0.00092001 0.00656555   0.112465  
 0.0699734  0.0159231   0.028573 -0.00254042 -0.00151606   0.116649  
 0.0694667  0.0102142  0.0289946 0.00175277 0.00479852   0.128764  
 0.0699286  0.0135446  0.0293753 0.000109465 0.00574039   0.120061  
  0.096007 0.00738296  0.0213465  0.0394613  0.0377357  0.0715379  
 0.0986182 0.00476793  0.0291266  0.0298201  0.0270631  0.0830162  
  0.116715  -0.003168  0.0190076  0.0376083  0.0357714  0.0601243  
  0.105838 0.00252345  0.0197212  0.0400388  0.0380014  0.0654712  
 0.0818504 0.00978382  0.0282749  -0.037146 -0.0312255  0.0980537  
 0.0855354   0.010924  0.0284739 -0.0260422 -0.0157535  0.0910797  
 0.0989832 0.00220129  0.0281466 -0.0381468 -0.0228088  0.0770731  
 0.0967737 0.000301074  0.0280407 -0.0512205 -0.0400539  0.0819165  
 0.0911922  0.0058188  0.0282247 -0.0378146 -0.0268505  0.0871074  
 0.0886195 0.00915005  0.0277515  0.0523244   0.055778   0.102295  
 0.0785445  0.0153073  0.0278739  0.0357751  0.0411625   0.110059  
 0.0718733  0.0161499  0.0278931  0.0413758  0.0478618   0.124249  
 0.0810646 0.00966981  0.0278218  0.0589793  0.0636984   0.117818  
 0.0801794  0.0127846  0.0278365  0.0468287  0.0520492   0.113988  
 0.0886172 0.00914709  0.0279658  0.0521034  0.0554716   0.101622  
 0.0783321  0.0155026  0.0281025  0.0347115  0.0397539   0.108887  
 0.0724478  0.0159413   0.028009   0.040855  0.0474955   0.122806  
 0.0814257 0.00925273  0.0279357   0.060043  0.0646453   0.117412  
 0.0801837  0.0128335  0.0279999  0.0464668  0.0516394   0.113271  
  0.082162 0.00943311  0.0280994 -0.0379979 -0.0321685  0.0982466  
 0.0860719   0.010691  0.0281306 -0.0264625  -0.016089  0.0916708  
 0.0994651 0.00204782  0.0278496 -0.0383657 -0.0228107  0.0775785  
  0.097281 -5.42188e-05  0.0278674 -0.0518521 -0.0406179  0.0818449  
 0.0916294 0.00554524  0.0279812 -0.0383512 -0.0272534  0.0873507  
  0.123913 -0.0178457  0.0279531 -0.0516207  -0.046663  0.0557261  
  0.095157 -0.00668903  0.0280502 -0.0713608 -0.0605505  0.0922331  
  0.110443 -0.0128848  0.0280076 -0.0619203  -0.054178  0.0738047  
 0.0687659  0.0107958   0.027966  0.0838709   0.073873    0.14319  
  0.100985 -0.00568898  0.0279394  0.0804179  0.0846012    0.10549  
 0.0852865 0.00222551  0.0279565  0.0833018  0.0800433   0.124962  
 0.0686305  0.0112935  0.0279182  0.0817388  0.0726097   0.142757  
  0.101079 -0.00569648  0.0278496  0.0806405  0.0847081   0.105695  
 0.0849069 0.00268269  0.0278904  0.0823099  0.0793348   0.125265  
  0.124196  -0.017951  0.0278267 -0.0518532 -0.0468585  0.0558145  
 0.0954808 -0.00709367  0.0279744 -0.0721027 -0.0611577   0.092359  
  0.110846 -0.0131874  0.0279059  -0.062337 -0.0545054  0.0737254  
   0.13327 -0.0142594  0.0242726 0.00904061  0.0176327  0.0636344  
  0.124229 -0.00683403  0.0191721  0.0329734  0.0333836  0.0590625  
  0.129558 -0.0105448   0.021555  0.0210138  0.0256895  0.0610672  
 0.0688639 0.00583918  0.0278909  0.0046851 0.00625717   0.142984  
 0.0695425 0.00792212  0.0287639 0.00283354 0.00521881   0.134383  
 0.0692795 0.00637988  0.0283225 0.00365569 0.00580135   0.139355  
  0.133357 -0.0143325  0.0250146  0.0106768  0.0218889  0.0660461  
  0.123015 -0.00729614  0.0312513  0.0339012  0.0384045   0.084826  
  0.128866 -0.0107632  0.0280195  0.0224615  0.0305965   0.075456  
 0.0693135  0.0111296  0.0283842 0.00910538  0.0143499   0.138291  
 0.0695071 0.00880904  0.0283649  0.0076319  0.0121727   0.141125  
 0.0658494 0.00881573  0.0277551  0.0087764   0.014385    0.14576  
 0.0656972  0.0113178  0.0277524  0.0101732  0.0174329   0.142181  
 0.0678034  0.0100572  0.0279022 0.00908496  0.0145059   0.140888  
 0.0676561  0.0140876  0.0274448  0.0139437   0.022896   0.132804  
 0.0692875  0.0174474  0.0284873  0.0131392  0.0190086   0.125961  
 0.0693493  0.0146263  0.0284939  0.0114691  0.0168248   0.131906  
 0.0730744  0.0200041  0.0294669  0.0132756  0.0155123   0.103558  
 0.0801424  0.0131686  0.0338448  0.0244252  0.0266728   0.102136  
 0.0755406  0.0152539  0.0326876  0.0164858  0.0186923   0.100387  
 0.0774088  0.0134356   0.034114 -0.0100237 0.000883373    0.10113  
 0.0722678  0.0186879  0.0290554 0.000179482 0.00747871  0.0993553  
 0.0744093  0.0145458  0.0326095 -0.00353238 0.00570586   0.098102  
 0.0780929   0.013718  0.0273879 -0.0112364 -0.00364433  0.0867418  
 0.0713398  0.0186723  0.0314489 -0.000502155 0.00975434   0.101898  
 0.0746855  0.0146237  0.0298727 -0.00470679  0.0042366  0.0921364  
 0.0722426  0.0201773  0.0299658  0.0143702   0.013998   0.102904  
 0.0808625  0.0133643  0.0263567  0.0257746  0.0279425  0.0859008  
 0.0758638   0.015404  0.0289003  0.0179963  0.0190032  0.0928718  
  0.098953 0.00436478  0.0355429 -0.0272132 -0.00822348  0.0981226  
  0.116863 -0.00563133  0.0331083 -0.0256781 -0.00589417  0.0865431  
   0.11319 -0.00402626  0.0255339 -0.0179496 0.00415517  0.0728512  
  0.107159 -0.000511078  0.0349298 -0.0283328 -0.00873583   0.093192  
 0.0697565   0.018103  0.0270586  0.0124928   0.013815   0.121659  
 0.0693839  0.0116609  0.0267886 0.00924356  0.0119535   0.135107  
 0.0681791  0.0147231  0.0279415  0.0121882  0.0196496    0.12944  
 0.0696384  0.0151109  0.0268274  0.0112909  0.0128632   0.128181  
 0.0999904 0.00502926  0.0206892 -0.0275331 -0.0109244  0.0661837  
  0.118496 -0.00514055  0.0189219 -0.0245852 -0.00594779  0.0573055  
  0.110441 -0.00353714  0.0289637  -0.016972 0.00460416  0.0715959  
  0.108907 -4.28074e-05  0.0192421  -0.027774 -0.0104275  0.0602989  
 0.0735227  0.0168906  0.0291236 -0.00824825 -0.00364566   0.105045  
 0.0783306  0.0146046  0.0286795 -0.0199248 -0.0140315  0.0992434  
 0.0740364  0.0144639  0.0284117 -0.0202373 -0.0189181   0.108263  
 0.0708286  0.0163312  0.0286925 -0.00937438 -0.00860146   0.112781  
 0.0740577  0.0156807  0.0286835  -0.014057 -0.0112568   0.106846  
 0.0867563  0.0128219  0.0284136  0.0297229  0.0305768  0.0963298  
 0.0837494  0.0139718   0.027906  0.0362157  0.0389579   0.101324  
 0.0940975 0.00796122  0.0275279  0.0437477  0.0440273  0.0925577  
 0.0962904 0.00718943  0.0278334  0.0364709  0.0354332  0.0892214  
 0.0906889  0.0103057  0.0278338  0.0364258  0.0368355  0.0944627  
 0.0859106  0.0130892   0.028172  0.0298651  0.0303996  0.0932026  
 0.0832507  0.0141441  0.0282437  0.0358745  0.0384203   0.100685  
 0.0935777 0.00810644  0.0278983  0.0434748  0.0435414  0.0918801  
 0.0954295 0.00743756  0.0277305  0.0365008  0.0350323  0.0862563  
  0.089994  0.0105234  0.0280594  0.0363403  0.0364375  0.0928808  
 0.0736526   0.016577  0.0286339 -0.00847777 -0.00472848   0.105654  
 0.0786498  0.0143621  0.0284161 -0.0205138 -0.0147496   0.099617  
 0.0739902  0.0140814  0.0282319 -0.0219963 -0.0210486   0.109169  
 0.0740945  0.0153488  0.0284812 -0.0148852 -0.0126995   0.107779  
  0.110962 -0.00234615  0.0272922  0.0417012  0.0387831  0.0764763  
  0.109055 -0.00164132  0.0276683   0.052629   0.053045   0.078592  
  0.130814 -0.0139182  0.0274086  0.0481295   0.052415   0.059348  
  0.120884 -0.00849777  0.0272828  0.0455124  0.0454418  0.0683969  
  0.111756 -0.00255303  0.0268444  0.0421593  0.0397345  0.0779094  
  0.109492 -0.00175352  0.0273688  0.0529111  0.0534271  0.0791751  
   0.13114 -0.0140015   0.027177  0.0485368  0.0528681  0.0596515  
  0.121402 -0.00864256  0.0270091  0.0459572  0.0461141  0.0692539  
  0.067939  0.0135556  0.0282949 -0.00987014 -0.0136059   0.124361  
 0.0673012  0.0145876  0.0282338 -0.0281076 -0.0290597   0.121769  
  0.056409  0.0158549   0.028073 -0.0283579 -0.0291969   0.142634  
 0.0629696  0.0146214   0.028175 -0.0185709 -0.0217381   0.133336  
 0.0710868   0.019331  0.0287179  0.0150913  0.0192487   0.116074  
 0.0757707  0.0186963  0.0286754  0.0196802  0.0233343   0.104043  
 0.0722285  0.0198568   0.029421  0.0150786   0.018366   0.110049  
 0.0894609 0.00790863  0.0334827  -0.021634 -0.00557783  0.0958612  
 0.0792342  0.0160797  0.0272717 -0.00491315 0.00505622  0.0939299  
 0.0829446  0.0108422  0.0341533 -0.0169126 -0.00325908   0.099349  
 0.0898105 0.00840136  0.0248297 -0.0215721 -0.00865375  0.0757608  
 0.0767478  0.0163228  0.0321325 -0.00557363 0.00415669  0.0983143  
 0.0837241  0.0111467   0.025794  -0.017632 -0.0070347  0.0805408  
 0.0710653  0.0194847  0.0278219  0.0153351   0.016603   0.113685  
  0.075306  0.0186275  0.0291193  0.0201462  0.0243592   0.102238  
  0.072085  0.0200213  0.0284016  0.0156598  0.0157148   0.107582  
  0.104729 -0.000857899  0.0276146  0.0623328  0.0664988   0.088312  
  0.128601 -0.0156632  0.0276812  0.0601044  0.0786167  0.0675457  
  0.115727 -0.0113517  0.0277727  0.0705841  0.0822943  0.0868282  
 0.0753624  0.0086457  0.0280234 -0.0499167 -0.0451132   0.111589  
 0.0620435  0.0107343  0.0280231 -0.0759346 -0.0590858   0.133019  
 0.0797871 0.00108639  0.0280022 -0.0753403 -0.0608905   0.112421  
 0.0746954 0.00950322  0.0281176 -0.0467146 -0.0427922   0.111803  
  0.062043  0.0113467  0.0280556 -0.0718293 -0.0567573   0.132545  
  0.079197 0.00192556  0.0280543 -0.0729008  -0.059415   0.112756  
  0.104522 -0.000798704  0.0278095  0.0620494  0.0662592  0.0879879  
  0.128368 -0.0156243   0.027819  0.0598677  0.0783915  0.0673612  
  0.115573 -0.0113235  0.0278852  0.0703955   0.082139   0.086605  
 0.0672255  0.0128127  0.0283163 -0.00239298 -0.00529318   0.129048  
 0.0683622  0.0103141  0.0284419 0.00065338 0.000327391   0.131785  
  0.115806 -0.00533184  0.0266568  0.0349559  0.0319997  0.0710079  
  0.120052 -0.00654319  0.0239388  0.0323073  0.0307669  0.0659846  
  0.117079 -0.00563265  0.0264859  0.0356481  0.0340234    0.07513  
   0.12048 -0.00697437  0.0278613  0.0332384  0.0343673  0.0780195  
 0.0671556  0.0139473  0.0281348 -0.0317257 -0.0321969    0.12276  
 0.0549854  0.0164935  0.0280395 -0.0405014 -0.0372001   0.142856  
 0.0542377  0.0166084  0.0280554 -0.0185636 -0.0210438   0.147884  
 0.0610006  0.0152699  0.0280962 -0.0257859 -0.0270865   0.135918  
 0.0801672  0.0147038  0.0287135 -0.0147454 -0.00601811  0.0945575  
 0.0730344  0.0180339  0.0292645 -0.00448667 0.000716631   0.103355  
 0.0760752  0.0164035  0.0291214 -0.0093866 -0.00227257  0.0990791  
 0.0779108  0.0171591  0.0281738  0.0253696   0.029196   0.105102  
 0.0836093  0.0143847  0.0271224  0.0207268  0.0212334  0.0951076  
 0.0807681  0.0157675  0.0288017  0.0248769  0.0271953   0.100798  
  0.077406  0.0173201  0.0285332  0.0252215  0.0285659   0.104294  
 0.0812252  0.0146456  0.0307349  0.0213842  0.0217911  0.0960642  
 0.0801159  0.0159732  0.0285191  0.0251706  0.0270278  0.0982324  
 0.0806766  0.0144224  0.0291388 -0.0149089 -0.00588065  0.0967731  
 0.0732572  0.0175832  0.0297241 -0.00426616 0.00106404   0.104635  
 0.0763486   0.016166  0.0293409 -0.00931248 -0.00244907   0.100818  
 0.0404374  0.0234297  0.0279926 -0.0139323 -0.0131581   0.165952  
 0.0492156  0.0172344  0.0279512 0.00311554 0.00221492   0.161745  
 0.0601786  0.0114604  0.0280234 -0.00335608 -0.00645154   0.146782  
 0.0516327  0.0171651  0.0280031 -0.00804958 -0.0098682   0.155898  
  0.149019 -0.0237519  0.0270209  0.0169279  0.0277747  0.0404234  
  0.147558 -0.0198032  0.0273826  0.0315578  0.0515645  0.0370992  
  0.153796 -0.0201418  0.0275208 0.00182233  0.0168595   0.020471  
  0.151627 -0.0199398  0.0274349  0.0167361  0.0361043  0.0288183  
 0.0311196  0.0309984  0.0280112 -0.0491119 -0.0369597   0.168987  
 0.0200615  0.0392759  0.0279772  0.0054333 0.00141786   0.186114  
 0.0248219  0.0363907  0.0279943  -0.022007  -0.017866   0.178948  
 0.0452371  0.0199297  0.0279845  -0.001142 -0.00306912   0.163678  
 0.0352413  0.0282251   0.028014 -0.0360731 -0.0288638   0.166787  
 0.0223097  0.0378435  0.0279674  0.0145318  0.0088018   0.185008  
 0.0284769  0.0335867  0.0279889 -0.0137498 -0.0114243   0.176909  
  0.148908 -0.0237219  0.0270744  0.0164366  0.0271638  0.0402146  
  0.147355  -0.019779  0.0275053  0.0311612  0.0511321  0.0368956  
  0.153848 -0.0201495  0.0274938 0.00140139  0.0164191  0.0204736  
  0.151542 -0.0199314  0.0274848  0.0163214  0.0356478  0.0287126  
   0.14496 -0.0220928  0.0272476 -0.0199009 -0.00292749  0.0381977  
  0.144774 -0.0210803  0.0276333 -0.0247613 -0.0198471  0.0291125  
  0.150007 -0.0203154   0.027562 -0.0106981 -0.00106562  0.0243111  
  0.144746 -0.0220353  0.0273919 -0.0194731 -0.00252038   0.038106  
   0.14456 -0.0210621  0.0277507 -0.0244281 -0.0195896  0.0289812  
  0.149866 -0.0203026  0.0276365 -0.0103152 -0.00071986  0.0242412  
 0.0461822  0.0212478   0.027938  0.0310537  0.0285258     0.1651  
 0.0381699  0.0285893  0.0279588  0.0634093  0.0478556   0.173462  
 0.0295447  0.0342185  0.0279624  0.0394119  0.0283309   0.180616  
  0.046778   0.020965  0.0280183 -0.0645451 -0.0489301   0.151615  
  0.139026 -0.0179252  0.0276701  0.0448444  0.0649931  0.0513969  
  0.139263  -0.017957   0.027533  0.0451535  0.0653075  0.0515915  
  0.047823  0.0208584  0.0280364 -0.0549539 -0.0432708   0.151604  
 0.0751192  0.0115911   0.028122 -0.0352589 -0.0323147   0.110538  
  0.099415 0.00369708  0.0275706  0.0526946  0.0548134  0.0910287  
 0.0990766 0.00380635   0.027828   0.052387  0.0544549  0.0905412  
 0.0749499  0.0121298  0.0282559  -0.032883 -0.0303245   0.110134  
 0.0461006  0.0207921  0.0279211  0.0213528  0.0209475   0.164792  
 0.0405088  0.0270863  0.0279342  0.0534634  0.0425688   0.170772  
 0.0303984   0.033489   0.027953  0.0333085  0.0238252   0.179878  
  0.144971 -0.0241748  0.0267643 -0.00787113  0.0107474  0.0437311  
  0.139717 -0.0218388  0.0259736 0.00374855  0.0176815  0.0558921  
  0.144062 -0.0231718  0.0264803 0.00901945  0.0222543  0.0483528  
 0.0523141   0.016277  0.0278987  0.0124678  0.0143432   0.159559  
 0.0637583 0.00846877  0.0279028 0.00666932 0.00842818   0.148081  
 0.0551957  0.0140446  0.0279448 0.00314187 0.00371538   0.155642  
  0.145191 -0.0242455  0.0266841 -0.00859463 0.00979778  0.0440071  
  0.139803 -0.0218511  0.0257898 0.00248919  0.0153246  0.0553539  
  0.144012 -0.0231549  0.0265076 0.00821608  0.0209857  0.0481468  
 0.0593032  0.0141334  0.0278436  0.0190031  0.0249726   0.150994  
 0.0616091  0.0101335  0.0278791 0.00618944 0.00944493   0.150306  
 0.0540665  0.0155899  0.0279001  0.0130426   0.014459   0.157412  
 0.0865915  0.0101954  0.0346735  0.0321978  0.0334032   0.101893  
  0.071578  0.0176168  0.0288341 -0.0013292 0.00408988   0.104716  
 0.0714164  0.0176103  0.0301047 -0.00168714 0.00762758   0.105882  
 0.0876216   0.010632  0.0238178  0.0329879  0.0327044  0.0788365  
  0.122559 -0.0121992  0.0277886 -0.0443391 -0.0273433  0.0558439  
    0.1353  -0.019964  0.0278573 -0.0377777 -0.0334732  0.0420491  
 0.0622511   0.015926  0.0278795  0.0428279  0.0471346   0.144149  
 0.0539055  0.0199539  0.0279274  0.0684508  0.0578842   0.158446  
 0.0623279  0.0156488  0.0279445  0.0517173  0.0530813   0.144975  
 0.0536255  0.0197191  0.0279625  0.0752148  0.0616843   0.159264  
    0.1229 -0.0123107  0.0275699 -0.0446686 -0.0275783  0.0559295  
  0.135572 -0.0200294   0.027733 -0.0380373 -0.0336536  0.0421222  
  0.127954 -0.0145059  0.0274381  -0.033369 -0.0108739  0.0525739  
  0.130886 -0.0163746  0.0268584 -0.0200212 0.00227039   0.056556  
  0.137323 -0.0192922  0.0271062 -0.0204626 0.000122744  0.0481391  
 0.0583459  0.0173271  0.0279017  0.0307599  0.0363844    0.14889  
 0.0623993  0.0126732  0.0278554  0.0151556  0.0223686   0.145815  
 0.0552807  0.0169781  0.0278983   0.021985  0.0255121   0.155116  
  0.128431 -0.0146527  0.0272022 -0.0338355 -0.0112266  0.0531622  
  0.131426 -0.0165409  0.0266256 -0.0207946  0.0013506  0.0574458  
  0.137677 -0.0193959  0.0269354 -0.0210608 -0.000515396  0.0485964  
 0.0639993 0.00841806  0.0279356 0.00323629 0.00271758    0.14689  
 0.0680705 0.00805156  0.0281028 0.00244214 0.000638961   0.137074  
 0.0645099 0.00988278  0.0280132 -0.000291794 -0.00291306   0.141865  
  0.106192 -0.00102038   0.027978  -0.030126 -0.0102847  0.0723628  
  0.113128 -0.00560702  0.0278231 -0.0364898 -0.0178107  0.0657153  
 0.0698964  0.0165296  0.0278457  0.0227944  0.0320106   0.124465  
  0.062905  0.0162356  0.0278918  0.0232058   0.031288   0.141073  
 0.0668366  0.0164814  0.0278947  0.0320409   0.039783   0.133783  
 0.0682862  0.0164541  0.0279778  0.0252142  0.0340758   0.128371  
 0.0660997  0.0165203  0.0279522  0.0366189  0.0426854   0.135759  
   0.10689 -0.00121158  0.0275255 -0.0304386 -0.0102428   0.073278  
  0.113611 -0.00575587  0.0275502 -0.0368301 -0.0179327   0.066278  
 0.0697322 0.00524168  0.0276724 0.00479027 0.00703249   0.141862  
 0.0696779 0.00678873  0.0274185 0.00359502 0.00503214   0.136303  
 0.0639042  0.0138553  0.0278586  0.0165482  0.0245324    0.14183  
  0.120994 -0.00966631   0.027181 -0.0250899 -0.00196532  0.0665182  
 0.0993147  0.0035785  0.0277839 -0.0241172 -0.00594789  0.0803698  
  0.109462 -0.00253065  0.0277842 -0.0257857 -0.00531328  0.0742286  
  0.120251 -0.00938927  0.0266188  -0.024324 -0.00137395  0.0628518  
 0.0981196 0.00389079  0.0284693 -0.0238406 -0.00640483  0.0788259  
  0.108636 -0.00220775  0.0273207 -0.0252919 -0.00531201  0.0707483  
 0.0655613  0.0138039  0.0277478  0.0152413  0.0237415   0.137986  
 0.0702081  0.0172937  0.0280329   0.021357  0.0292234   0.121099  
 0.0679788  0.0158627  0.0278547  0.0189949  0.0268369   0.129378  
  0.135709 -0.0194754  0.0262098 -0.0111808 0.00792749  0.0586175  
  0.130189 -0.0112576  0.0259464 -0.00338597  0.0107703  0.0704807  
  0.134838 -0.0167215  0.0254316 -0.000385862  0.0133123  0.0619735  
 0.0646281 0.00968083   0.027756 0.00877138  0.0137398   0.146394  
 0.0697997 0.00605181  0.0275628 0.00610963 0.00939841   0.141672  
 0.0669011 0.00741924   0.027784 0.00603553  0.0091833   0.144483  
  0.135239 -0.0192716  0.0257933 -0.0098763  0.0098003  0.0561853  
  0.130208 -0.0111176  0.0231653 -0.00183768  0.0141407  0.0642946  
  0.134751 -0.0166663   0.024989 0.00109089  0.0166286  0.0607196  
  0.104611 0.00190903  0.0270965  0.0365844  0.0343153    0.07929  
  0.105574  0.0016201   0.027436  0.0368392  0.0353061  0.0833086  
 0.0691529  0.0148111  0.0285386 -0.00639686 -0.00731301   0.120202  
 0.0880949  0.0109542  0.0278797 -0.0181737 -0.00533622  0.0882839  
 0.0942134 0.00636013  0.0296208 -0.0210281 -0.00391741  0.0875655  
 0.0735725  0.0184569  0.0283747  0.0245173  0.0304703   0.111703  
   0.07095  0.0183481  0.0280144   0.017692  0.0225705   0.116803  
 0.0738324  0.0183448  0.0280602  0.0255414  0.0318823   0.112752  
 0.0708007  0.0180496  0.0281287  0.0182612  0.0247626   0.119734  
 0.0868655  0.0110717  0.0295118 -0.0183597 -0.00590581  0.0885637  
 0.0933755  0.0068424  0.0276435 -0.0209392  -0.005346  0.0797588  
 0.0678592 0.00627074  0.0276986 0.00552084 0.00751755    0.14375  
 0.0647889 0.00839576  0.0278821 0.00604288 0.00811729   0.147056  
 0.0695998 0.00662716  0.0280505 0.00611859  0.0095531   0.142438  
 0.0835749  0.0123533  0.0285111 -0.0206804 -0.0107166   0.094284  
  0.078486  0.0161371  0.0280494  0.0306318  0.0354095    0.10775  
 0.0782027  0.0162958   0.028257   0.030112  0.0344697   0.106552  
 0.0830451  0.0126162  0.0286681 -0.0204184  -0.010576  0.0930303  
  0.126913 -0.0129465   0.025674  -0.014901 0.00577646  0.0663314  
  0.128394 -0.0141562   0.026617 -0.0181778 0.00300558  0.0628221  
 0.0677547   0.010411  0.0277462 0.00915688  0.0153848   0.138317  
 0.0651296  0.0117809  0.0277563   0.012285  0.0190364   0.142364  
  0.125542 -0.0126678  0.0266491 -0.0135511  0.0076579  0.0630008  
  0.127736 -0.0139369  0.0262657 -0.0171783 0.00416474  0.0599568  
  0.123964 -0.00836421  0.0298137 -0.0153448 0.00173822  0.0792065  
 0.0695175 0.00872926  0.0271282 0.00777132  0.0106601   0.139084  
  0.124816 -0.00801351  0.0206256 -0.0140501 0.00344534  0.0601644  
-0.000157013 -0.0104233  0.0279783 0.000344447 0.000866055 0.00625861  
-0.000173284 -0.0104113  0.0279797 0.000364179 0.000881908 0.00626012  
-0.000264272 -0.0104213   0.027988 0.000200053 0.000668697 0.00636161  
-0.000294541 -0.0104028  0.0279896 0.000188378 0.000648421 0.00638412  
-0.00027864 -0.0104214  0.0279918 0.000303694 0.00083166  0.0064017  
-0.000283298 -0.0104211  0.0279924 0.000310512 0.000837393 0.00640852  
-0.000140365 -0.0104218  0.0279721 0.000188922 0.000707645  0.0062148  
-0.000146412 -0.0104169  0.0279723 0.000177241 0.000698593 0.00621116  
-0.000183398 -0.0104046  0.0279762 0.000158838 0.000662706 0.00624091  
-0.000156741 -0.0104583  0.0279803 0.000212647 0.000718915 0.00627285  
-0.000127522  -0.010473   0.027979 0.000255395 0.000771012 0.00626021  
-0.00013995 -0.0104901  0.0279831 0.000248408 0.00075828 0.00629323  
-0.000141616 -0.0104853  0.0279832 0.000275545 0.000791534 0.00629495  
-0.000136369 -0.0104992  0.0279842 0.000258193 0.000770871 0.00630177  
-0.000148242 -0.0104979  0.0279854 0.000258761 0.000770275 0.00631464  
-0.000136181 -0.0104983  0.0279839 0.000253316 0.000765832     0.0063  
-0.000157457 -0.0104933  0.0279858 0.000257563 0.000768691 0.00632117  
-0.000152285 -0.0104871  0.0279847 0.000274744 0.000789977 0.00630984  
-0.000135015  -0.010486  0.0279823 0.000268253 0.000784992 0.00628747  
-0.000205348 -0.0104705  0.0279884 0.000265571 0.000771912 0.00635802  
-0.000160986 -0.0104827  0.0279845 0.000236874 0.000743028  0.0063096  
-0.00016432 -0.0104829  0.0279856 0.000278501 0.000792496 0.00631972  
-0.000217423 -0.0104638  0.0279887 0.000263132 0.000770772 0.00636478  
-0.000186413 -0.0104696  0.0279855 0.000226879 0.00072562 0.00632485  
-0.000144524 -0.0104854  0.0279829 0.000238495 0.000748484 0.00629139  
-0.000168269 -0.0104537  0.0279833 0.000316179 0.000836064 0.00629559  
-0.000169041 -0.0104477  0.0279803 0.000198881 0.00070269 0.00627178  
-0.000142463 -0.0104624  0.0279806 0.000297939 0.000818601 0.00627563  
-0.000189654 -0.0104622  0.0279867 0.00030127 0.000821901  0.0063335  
-0.000287107 -0.0104331  0.0279923 0.000269212 0.000765586 0.00642533  
-0.00022421 -0.0104135  0.0279868 0.000353903 0.000882863 0.00632903  
-0.000107742  -0.010433  0.0279693 0.000254381 0.000776297 0.00619873  
-0.000128603 -0.0104677  0.0279781 0.000239422 0.000756415 0.00625382  
-0.000107959 -0.0104307  0.0279688 0.000239279 0.000764615 0.00619515  
-0.000226663 -0.0104105  0.0279828 0.000167486 0.000652126 0.00629426  
-0.0002232 -0.0104236  0.0279841 0.000181683 0.000665313 0.00631227  
-0.000199781 -0.0104638  0.0279877 0.000290383 0.00080944 0.00634511  
-0.000289163 -0.0104321   0.027992 0.000266901 0.000765935 0.00642462  
-0.000251232 -0.0104109  0.0279895 0.00035136 0.000879799 0.00635267  
-0.000130026 -0.0104545  0.0279775 0.000297426 0.00081576 0.00624944  
-0.000123345 -0.0104557  0.0279763 0.00028092 0.000802735 0.00624303  
-0.000188585 -0.0103976  0.0279759 0.000147887 0.00065669 0.00623278  
-0.0002155  -0.010458  0.0279875 0.00023009 0.000720479 0.00635106  
-0.000122202 -0.0104272  0.0279726 0.000322085 0.000838896  0.0062154  
-0.000114766 -0.0104298  0.0279712 0.000305586 0.000825946 0.00621219  
-0.000230333 -0.0104569  0.0279888 0.000241194 0.000734551 0.00637084  
-0.000285982 -0.0104288  0.0279907 0.000234767 0.000706994 0.00640755  
-0.000232925 -0.0103938  0.0279865 0.000379497 0.000906376 0.00631205  
-0.000283662 -0.0104009   0.027992 0.000346641 0.000882752 0.00638785  
-0.000294007 -0.0104186  0.0279909 0.000230418 0.000693768 0.00640927  
-0.000285431 -0.0104294  0.0279924 0.000289739 0.000801584  0.0064191  
-0.000233512 -0.0104423  0.0279894 0.000306523 0.000830082 0.00636946  
-0.000197884  -0.010468  0.0279878 0.000283047 0.000796471 0.00634757  
-0.000245135 -0.0104519  0.0279903 0.000267319 0.000768527 0.00639228  
-0.000239213 -0.0104486    0.02799 0.000286984 0.000799857 0.00638251  
-0.000343838 -0.0103957  0.0279955 0.000313383 0.000846497 0.00645919  
-0.000351984 -0.0104077  0.0279947 0.000267355  0.0007573  0.0064802  
-0.000346428 -0.0104008  0.0279951 0.000288735 0.000800838 0.00647159  
-0.000283194 -0.0104289   0.027992 0.000283855 0.000799501 0.00641493  
-0.000237698 -0.0104436  0.0279897 0.000298421 0.000819746 0.00637426  
-0.000208102 -0.0104647  0.0279882 0.000277145 0.000789567 0.00635537  
-0.000255075 -0.0104466  0.0279904 0.000263964 0.000767667 0.00639713  
-0.000246364 -0.0104455  0.0279901 0.000282103 0.000794516  0.0063863  
-0.000224341  -0.010445  0.0279866 0.000213255 0.000697847 0.00634217  
-0.000178382 -0.0104597  0.0279832 0.000212758 0.000713628 0.00629953  
-0.000196076 -0.0104287  0.0279813 0.000182296 0.000678184 0.00628164  
-0.000247427 -0.0104161  0.0279857 0.000183348 0.000659878 0.00632985  
-0.00021106 -0.0104382  0.0279843 0.000197964 0.000688397 0.00631413  
-0.000333716 -0.0103762  0.0279913 0.00017768 0.000614093 0.00639573  
-0.000256329 -0.0104137  0.0279867 0.000184949 0.000656896 0.00634472  
-0.000258986 -0.0103842  0.0279844 0.000150193 0.000623862 0.00630484  
-0.0002936 -0.0103805  0.0279878 0.000163207 0.000619186 0.00634529  
-0.000191199 -0.0104183  0.0279827 0.00035101 0.000876023 0.00629327  
-0.000259474 -0.0103776  0.0279891 0.000389549 0.000920803 0.00633376  
-0.000175202 -0.0103876  0.0279779 0.000389049 0.00090268 0.00624797  
-0.000217803 -0.0103824  0.0279836 0.000388341 0.000912966 0.00628846  
-0.000336588 -0.0103962  0.0279944 0.000307906 0.000842385 0.00645544  
-0.000355459 -0.0104054  0.0279936 0.000267289 0.000755783 0.00647992  
-0.000344696 -0.0104004   0.027994 0.000289813 0.000799074 0.00646912  
-0.000128305 -0.0103904  0.0279642 0.000159675 0.000697924 0.00616981  
-0.000123768 -0.0104242  0.0279702 0.000207466 0.000731856 0.00620193  
-8.69293e-05 -0.0104019  0.0279599 0.000246951   0.000775 0.00615377  
-0.000103503 -0.0103978  0.0279616 0.000205155 0.000737153 0.00616233  
-0.000140705 -0.0104919  0.0279834 0.000246249 0.000757649  0.0062957  
-0.000165694 -0.0104767  0.0279842 0.000231626 0.000735724 0.00630849  
-0.000171992 -0.0104827  0.0279858 0.000243638 0.000749458 0.00632418  
-0.000147043 -0.0104964  0.0279849 0.000254313 0.000765536 0.00631039  
-0.000156983 -0.0104871  0.0279846 0.000244591 0.000752096 0.00630993  
-0.000265726 -0.0104172  0.0279908 0.000330308 0.000855676 0.00637868  
-0.000311118 -0.0103794  0.0279928 0.000364242 0.00090565 0.00639231  
-0.000324301 -0.0103855  0.0279938 0.000333691 0.000872409 0.00642564  
-0.000136605 -0.0104923  0.0279832 0.000260014 0.000774917 0.00629368  
-0.000141658 -0.0104984  0.0279846 0.000257436 0.000770107 0.00630687  
-0.000150633 -0.0104937  0.0279852 0.000265906 0.000779082 0.00631304  
-0.000144057 -0.0104862  0.0279835 0.000271103 0.000787694 0.00629828  
-0.000144148 -0.0104926  0.0279842 0.000263417 0.000778388 0.00630356  
-0.000146175 -0.0104966   0.027985 0.000259246 0.000771536  0.0063105  
-0.000142538 -0.0104989  0.0279848 0.000257174 0.000768835 0.00630814  
-0.000144001 -0.0104983  0.0279848 0.000256517 0.000769124 0.00630776  
-0.000161445 -0.0104889  0.0279858 0.000267008 0.000779097 0.00632099  
-0.00015229 -0.0104842  0.0279843 0.000276435 0.000791858 0.00630597  
-0.000140188 -0.0104922  0.0279837 0.000266268 0.000780845 0.00629846  
-0.000150566 -0.0104906  0.0279848 0.000266709 0.000781084 0.00630928  
-0.000155148 -0.0104914  0.0279851 0.000249183 0.000757668 0.00631364  
-0.000138523 -0.0104946  0.0279836 0.000253587 0.000765262 0.00629737  
-0.000150983 -0.0104858  0.0279838 0.000242515 0.000749779 0.00630231  
-0.000147348 -0.0104927  0.0279844 0.00025132 0.000760407 0.00630574  
-0.000134437 -0.0104795  0.0279812 0.000267208 0.000783091 0.00627775  
-0.000133695 -0.0104813   0.027981 0.000251337 0.000764665   0.006276  
-0.000137568 -0.0104865  0.0279824  0.0002597 0.000773823  0.0062874  
-0.000140121 -0.0104659  0.0279795 0.00023365 0.000744604 0.00626611  
-0.000158373 -0.0104712  0.0279824 0.000225424 0.000730862 0.00629146  
-0.000145161 -0.0104757  0.0279816 0.000237266 0.00074661 0.00628367  
-0.000186536 -0.0104707  0.0279859 0.000233379 0.000731164 0.00633001  
-0.00018842   -0.01044   0.027982 0.000196089 0.000691937 0.00629126  
-0.000220754 -0.0104415   0.027986 0.000206934 0.000693037 0.00633394  
-0.000188194 -0.0104563  0.0279842 0.000215696 0.000711362 0.00631261  
-0.000123054 -0.0103938  0.0279648 0.000172194 0.000708406 0.00617563  
-0.000120607 -0.0104278  0.0279704 0.000220994 0.000742137 0.00620565  
-8.69497e-05 -0.0104033  0.0279606 0.00026231 0.000788042 0.00615649  
-0.000100943 -0.0104002  0.0279622 0.000218946 0.000748755 0.00616665  
-0.000175108 -0.0104839  0.0279868 0.000262262 0.000771089 0.00633536  
-0.000170956 -0.0104739  0.0279857 0.000288793 0.000806842 0.00632201  
-0.000173666 -0.0104803  0.0279864 0.000274454 0.000787153  0.0063309  
-0.00018498 -0.0104789  0.0279871 0.000260054 0.00076949 0.00634106  
-0.000182649 -0.0104726  0.0279867 0.00028513 0.000801351 0.00633345  
-0.000183974 -0.0104766   0.027987 0.000271711 0.000783621 0.00633834  
-0.000137058 -0.0104766  0.0279805 0.000237812 0.000751972 0.00627279  
-0.000146675  -0.010458   0.027979 0.000218673 0.000729279 0.00626224  
-0.00015614  -0.010468  0.0279817 0.000224028 0.000731852 0.00628563  
-0.000316754 -0.0103849  0.0279889 0.000180708 0.000625828 0.00638067  
-0.000262856 -0.0103753  0.0279826 0.000138903 0.000616064 0.00629097  
-0.000291702 -0.0103794  0.0279862 0.000159923 0.000621009 0.00633616  
-0.000150474 -0.0104425  0.0279794 0.000321098 0.000842166 0.00626624  
-0.00016606 -0.0104628  0.0279838 0.000300109 0.000821224 0.00630457  
-0.000207397 -0.0104391  0.0279868  0.0003259 0.000850556 0.00633206  
-0.000179791 -0.0104409  0.0279833 0.000324209 0.00084801  0.0062996  
-0.000118356 -0.0104532  0.0279744 0.000254843 0.000773866 0.00623021  
-0.000148725 -0.0104412  0.0279765 0.000200718 0.000713011 0.00624583  
-0.000130289 -0.0104479  0.0279752 0.000227998 0.000743788 0.00623731  
-0.000131526 -0.0104772  0.0279802 0.000255558 0.000772623 0.00627084  
-0.000137417  -0.010484  0.0279819 0.000249917 0.000764529  0.0062834  
-0.000139588 -0.0104742  0.0279814 0.000282496 0.000801215 0.00628141  
-0.000155626 -0.0104738  0.0279836 0.000286348 0.000805018 0.00630073  
-0.000283868 -0.0104123  0.0279923 0.000327165 0.000857732 0.00639972  
-0.000251344 -0.0104078  0.0279892 0.000350574 0.000883515  0.0063554  
-0.000242455 -0.0104264  0.0279894 0.000325951 0.000854804 0.00636348  
-0.000119049 -0.0104491  0.0279736 0.000238382 0.000760346 0.00622479  
-0.000157752 -0.0104332  0.0279765 0.000187531 0.000700635 0.00624284  
-0.000135195 -0.0104419  0.0279748 0.000213013 0.00073095 0.00623311  
-0.000127851 -0.0104647  0.0279782 0.000274006 0.000790716  0.0062552  
-0.000126403 -0.0104402  0.0279749 0.000309896 0.00082785 0.00623181  
-0.00011282 -0.0104304  0.0279707 0.000286838 0.000805869 0.00620656  
-0.000120525 -0.0104471  0.0279744 0.000279989 0.000798241 0.00623088  
-0.00021017 -0.0104657  0.0279881 0.000249374 0.000746698 0.00635598  
-0.000180223  -0.010479  0.0279865 0.000249431 0.000751969 0.00633397  
-0.000205759 -0.0104154  0.0279807 0.000170569 0.000663634 0.00627985  
-0.000191282  -0.010374  0.0279739 0.000130182 0.000646047 0.00621768  
-0.000229138 -0.0103793  0.0279798 0.00014116 0.00063227 0.00626337  
-0.000160301 -0.0104132  0.0279741 0.000175542 0.000686405 0.00622766  
-0.000155775 -0.0103842   0.027969 0.000154131 0.000678538 0.00619658  
-0.000149652 -0.0104541  0.0279806 0.000307851 0.000826976 0.00627332  
-0.000154556 -0.0104699  0.0279832 0.000294729 0.000812487 0.00629505  
-0.000141111 -0.0104677  0.0279807 0.000285942 0.000803248 0.00627438  
-0.000184057 -0.0104594  0.0279856 0.000304458 0.000823279 0.00632039  
-0.000168788 -0.0104708  0.0279849 0.00029128 0.000807938 0.00631311  
-0.00017206 -0.0104329  0.0279816 0.000339565 0.000858235 0.00627874  
-0.000207247 -0.0104324  0.0279862 0.000333819 0.00085787 0.00632274  
-0.000243444 -0.0104035  0.0279882 0.000365023 0.000891337 0.00633479  
-0.000200629  -0.010403  0.0279828 0.000372405 0.000893723 0.00628338  
-0.000204673 -0.0104189  0.0279847 0.000351321 0.000874392 0.00630505  
-0.000289546  -0.010429  0.0279916 0.000251771 0.000730704 0.00641943  
-0.000344343 -0.0103932  0.0279932 0.000218176 0.000666239 0.00645317  
-0.000347632 -0.0103992  0.0279939 0.000244046 0.000713874 0.00646963  
-0.000205913  -0.010464   0.027987 0.000232998 0.000728744 0.00634512  
-0.000224129 -0.0104607  0.0279888 0.00025353 0.000753781  0.0063684  
-0.000194985 -0.0104727  0.0279871 0.000248431 0.000750108 0.00634373  
-0.000197381 -0.0103689  0.0279725 0.000120624 0.000639858 0.00620861  
-0.000165672 -0.0104076   0.027974 0.000164847 0.000679282 0.00622172  
-0.000160704 -0.0103802  0.0279679 0.000143429 0.000670604 0.00618858  
-0.000175432 -0.0104278  0.0279785 0.000185242 0.000689109 0.00626177  
-0.000117162 -0.0103946  0.0279666 0.000351334 0.000862352 0.00618316  
-0.000147244 -0.0104192  0.0279761 0.000342652 0.000860179 0.00623753  
-0.000187509 -0.0103797  0.0279784 0.000403494 0.000912738 0.00624572  
-0.000148856 -0.0103883  0.0279721 0.000373275 0.000888589 0.00621201  
-0.000222528 -0.0104386  0.0279881 0.000317283 0.000839287 0.00634902  
-0.000110409 -0.0103966  0.0279658 0.000336896 0.000850719 0.00618344  
-0.000136676 -0.0104263  0.0279748 0.000325182 0.000846032 0.00623594  
-0.000141592 -0.0103926  0.0279717 0.000360118 0.000878832 0.00621464  
-0.000287766 -0.0104316  0.0279914 0.000251484 0.000737323 0.00641705  
-0.000347808 -0.0103971  0.0279919 0.000224998 0.000674892 0.00644922  
-0.000350264 -0.0104007  0.0279927 0.000247051 0.000715772 0.00646628  
-0.000274888 -0.0104255  0.0279894 0.000216697 0.000687747 0.00638428  
-0.000331965 -0.0103905  0.0279905 0.000202296 0.00065144 0.00641568  
-0.00026765 -0.0103655  0.0279883 0.000405436 0.000934047 0.00632202  
-0.000226701 -0.0103722  0.0279832 0.000402141 0.000923299 0.00628038  
-0.00032854 -0.0103738  0.0279951 0.000360704 0.000908975 0.00641354  
-0.000336143 -0.0103837  0.0279954 0.000334152 0.000874266 0.00643877  
-0.000295128 -0.0104106  0.0279903 0.000209329 0.000673375 0.00639806  
-0.000337394 -0.0103845  0.0279923 0.000201677 0.000642671 0.00642511  
-0.000292979 -0.0103745  0.0279921 0.000375032 0.000914695 0.00636975  
-0.00012497 -0.0104624  0.0279771 0.000257626 0.000776531 0.00624854  
-0.000119575 -0.0104416  0.0279736 0.000293475 0.000815013 0.00622674  
-0.00010955 -0.0104304  0.0279698 0.000271143 0.000793873  0.0062032  
-0.000117384 -0.0104458  0.0279734 0.000263665 0.000785257 0.00622549  
-9.51179e-05 -0.0104007  0.0279623 0.000291832 0.000814946 0.00616842  
-0.000134051 -0.0104587  0.0279785 0.000289803 0.000811028 0.00625991  
-0.000132353 -0.0104687  0.0279793 0.000270775 0.000789659 0.00626457  
-9.80326e-05 -0.0104005   0.027963 0.000306539 0.000826834 0.00616938  
-0.000290819 -0.0103722  0.0279909 0.000382036 0.000917866 0.00635895  
-0.000210448 -0.0104045  0.0279799 0.000157774 0.000654384 0.00626656  
-0.000233951 -0.0103721  0.0279782 0.000131189 0.000625962 0.00625182  
-0.000149514 -0.0104364  0.0279784 0.000325048 0.000844193  0.0062561  
-0.000182351 -0.0104186   0.027978 0.000172819 0.000678751 0.00625362  
-0.000251715 -0.0104397  0.0279892 0.000228885 0.000707473 0.00637956  
-0.000254619  -0.010427  0.0279881 0.000208324 0.000682428 0.00636343  
-0.00024875 -0.0104467  0.0279898 0.000249343 0.000738646 0.00638788  
-0.000136518 -0.0104414  0.0279767 0.000307877 0.000829494 0.00624764  
-0.000259923 -0.0104415  0.0279897 0.000237127 0.000720275 0.00639074  
-0.000241008 -0.0104435  0.0279881 0.000223772 0.00070814 0.00636434  
-0.00025722 -0.0104447  0.0279901 0.000251666 0.000745142 0.00639444  
 0.0725956  0.0220972  0.0275852 0.00618415 0.00983951   0.101556  
 0.0725073  0.0229965  0.0275994 0.00780877  0.0116964   0.103561  
 0.0725797  0.0230338  0.0274991 0.00812049  0.0121652   0.103632  
 0.0728069   0.022244  0.0273675 0.00916614   0.013755   0.102233  
 0.0692786  0.0178071  0.0283705 0.00553653  0.0095486   0.116136  
 0.0697218  0.0183109  0.0277874  0.0065371  0.0104038   0.116655  
 0.0698175  0.0183604  0.0276442 0.00704754  0.0110049    0.11675  
 0.0695794  0.0180765  0.0279939 0.00751265  0.0118781   0.116793  
 0.0692145 0.00922029  0.0282963 0.00505261 0.00886961   0.133602  
 0.0694824 0.00937665  0.0279407 0.00540552 0.00885982   0.133763  
 0.0695445 0.00940215  0.0278606 0.00575724 0.00921331   0.133824  
 0.0694691 0.00926036  0.0281746 0.00588221 0.00968019   0.134037  
 0.0698116 0.00471735  0.0281653 0.00483311 0.00788816   0.142242  
  0.069843 0.00478785  0.0279573 0.00493032 0.00757641   0.142057  
 0.0698387 0.00478897  0.0279592 0.00492974 0.00757392   0.142056  
 0.0698056 0.00471321  0.0281672 0.00489492 0.00789065   0.142246  
 0.0692372 0.00968718  0.0281805 0.00593367 0.00900097   0.133916  
  0.069312 0.00976187   0.027854 0.00573455 0.00851682   0.133377  
  0.069241 0.00974519  0.0279207 0.00537637 0.00814781   0.133319  
  0.068954 0.00968811  0.0282008 0.00519388 0.00812978   0.133522  
 0.0696541  0.0180383  0.0279771 0.00792304  0.0114617   0.117287  
 0.0698799   0.018212  0.0276446 0.00708027  0.0104712   0.116813  
 0.0697798  0.0181811  0.0277606  0.0065744 0.00984487   0.116733  
 0.0692707  0.0179119  0.0282313 0.00597869 0.00887764   0.116721  
 0.0728017  0.0222347  0.0273527 0.00924391  0.0132805    0.10264  
 0.0725475    0.02293   0.027504 0.00769536  0.0117609   0.103726  
 0.0724787  0.0229109  0.0275813 0.00737899  0.0112818   0.103673  
 0.0725255  0.0221421  0.0275181 0.00615191 0.00926018   0.102046  
 0.0719047  0.0207957  0.0296599 0.00628304   0.012066   0.103436  
 0.0737246  0.0229374  0.0269086 0.00711367  0.0107661  0.0988656  
 0.0733912  0.0201001  0.0293354 0.00610198   0.011368  0.0982534  
 0.0725328  0.0227356  0.0276639 0.00746485  0.0114483    0.10307  
 0.0732499  0.0236972  0.0275281 0.00781024  0.0118718   0.100977  
 0.0733718  0.0233273  0.0275325 0.00766912  0.0116988   0.100321  
 0.0725272  0.0230304  0.0275686 0.00799938  0.0119467   0.103658  
 0.0732875   0.023724  0.0274682 0.00800837  0.0121253   0.101017  
 0.0732508  0.0237077  0.0275296 0.00793957  0.0120126   0.101067  
  0.072686  0.0228268  0.0273177 0.00854263  0.0123144     0.1031  
 0.0738833  0.0230478  0.0266878 0.00838772  0.0128017  0.0990688  
  0.073462  0.0233903  0.0273229 0.00821523  0.0121381    0.10035  
 0.0720603  0.0215623  0.0277899  0.0097749  0.0110182    0.10283  
 0.0735278  0.0204783  0.0282796 0.00952505  0.0118366  0.0984287  
 0.0692986  0.0173983  0.0296473 0.00646507  0.0117739   0.118517  
 0.0707717  0.0204367  0.0279888 0.00599654  0.0096932   0.108558  
 0.0704788  0.0195785  0.0297289 0.00662738  0.0121363    0.11071  
 0.0695758  0.0181901  0.0280366 0.00621396  0.0102911    0.11668  
 0.0710264  0.0210818  0.0276761 0.00734546  0.0111185   0.109687  
  0.070947   0.020888  0.0278649  0.0069604  0.0109189   0.109461  
 0.0697714  0.0183489  0.0277264 0.00682093  0.0106944   0.116777  
 0.0711134  0.0211232  0.0275534 0.00774106  0.0116706   0.109769  
 0.0710551  0.0211118  0.0276445 0.00757509  0.0113983   0.109809  
 0.0697607  0.0183037  0.0276003 0.00741692  0.0111455   0.116676  
  0.071046  0.0205932  0.0277594 0.00850348  0.0128888   0.109237  
  0.071114  0.0209824  0.0274696 0.00818633  0.0118228   0.109468  
 0.0696963  0.0182948  0.0269894 0.00785509 0.00960128   0.117046  
 0.0707897  0.0204782  0.0272921 0.00891512   0.010146   0.109612  
 0.0695566 0.00874625  0.0291364 0.00568022  0.0101803   0.135102  
 0.0691568  0.0138511  0.0283244 0.00547785  0.0092464   0.124264  
 0.0694114  0.0132673  0.0294857 0.00619412  0.0111412    0.12619  
   0.06939 0.00932795  0.0281473 0.00530534 0.00895384   0.133951  
  0.069538  0.0141283  0.0278675 0.00609954 0.00968088   0.124585  
 0.0694167  0.0140422  0.0281203 0.00589337 0.00969349    0.12473  
 0.0695329 0.00939993  0.0278855 0.00559891 0.00902402   0.133822  
 0.0696195  0.0141679   0.027759 0.00654904  0.0101797   0.124672  
 0.0695931  0.0141599  0.0278085  0.0063476 0.00992024   0.124684  
 0.0695322 0.00939771  0.0278342 0.00589219 0.00928938   0.133889  
 0.0694708  0.0139583  0.0281234 0.00681871  0.0108694   0.124811  
 0.0695908  0.0141455  0.0277078 0.00678919  0.0102576   0.124688  
 0.0698569 0.00960026  0.0269966 0.00600222 0.00876305   0.134026  
 0.0697321  0.0143143  0.0268778 0.00703171 0.00914176   0.124904  
 0.0701348 0.00462255  0.0279675 0.00521642 0.00823268   0.142354  
 0.0695065  0.0063845  0.0281953 0.00514671 0.00831986   0.138879  
 0.0698538 0.00606479   0.028599 0.00558986 0.00914411   0.139657  
   0.06983 0.00475276  0.0280329 0.00494437 0.00769584   0.142133  
 0.0696596  0.0064758  0.0279537 0.00534525 0.00815227   0.138859  
 0.0696111 0.00643202  0.0281008 0.00529855 0.00826133   0.138996  
 0.0698591 0.00478694   0.027946 0.00493664 0.00755942   0.142052  
 0.0696919 0.00648554  0.0279192 0.00552051 0.00832681    0.13889  
 0.0696953 0.00648423  0.0279222 0.00544295 0.00822373   0.138888  
 0.0698241   0.004757  0.0280363 0.00492421 0.00768809   0.142129  
 0.0696408 0.00637423  0.0281876 0.00557791 0.00870461   0.139101  
 0.0696837 0.00647006  0.0279317 0.00558404 0.00841688   0.138961  
 0.0701201 0.00458338  0.0280172 0.00504249 0.00821341   0.142279  
 0.0700028 0.00651244  0.0274464 0.00569164 0.00845709    0.13908  
 0.0696343 0.00989472  0.0268995  0.0058371 0.00805856   0.132873  
 0.0695702 0.00681423  0.0281614 0.00524041 0.00825225   0.138662  
 0.0699264 0.00689282  0.0273961 0.00539556  0.0080043   0.138173  
  0.069304 0.00971925  0.0278313  0.0058374 0.00858608   0.133345  
  0.069616 0.00688649  0.0279093 0.00519053 0.00787537   0.138307  
 0.0696095 0.00685064  0.0279284 0.00525188  0.0079727   0.138326  
 0.0692973 0.00974132  0.0278854 0.00554898 0.00832031   0.133336  
 0.0695741 0.00688109   0.027946 0.00500469 0.00768931   0.138279  
 0.0696143 0.00687711  0.0279201 0.00509843 0.00776902   0.138283  
 0.0691439 0.00965649   0.028165  0.0052214 0.00824368   0.133403  
 0.0694126 0.00682526  0.0281823 0.00488442 0.00785516    0.13847  
 0.0695203 0.00682086  0.0281071 0.00492452 0.00779371   0.138355  
 0.0693254  0.0089469  0.0292189 0.00521179 0.00946676   0.133725  
 0.0697552 0.00636238  0.0286482 0.00497912 0.00865044   0.138584  
 0.0698096  0.0180709  0.0267955 0.00696169 0.00883908   0.115867  
 0.0694352  0.0142055  0.0281006 0.00712939   0.010542   0.125339  
 0.0697245  0.0143391  0.0267596 0.00662957 0.00868558   0.124029  
 0.0698415   0.018104  0.0276038 0.00732588   0.010574   0.116624  
 0.0695796  0.0143137  0.0277469 0.00663213 0.00979978   0.124785  
 0.0695567  0.0142396  0.0277123 0.00679858 0.00986812   0.124678  
 0.0698338  0.0181812  0.0277284  0.0067923  0.0101568   0.116817  
 0.0694922  0.0142852  0.0278415 0.00617748 0.00928414   0.124705  
 0.0695497  0.0142842  0.0278077 0.00638606 0.00953458   0.124756  
  0.069619  0.0180102  0.0280549 0.00613241 0.00974494   0.116647  
 0.0690935  0.0141247  0.0282145 0.00579045 0.00878162   0.124809  
 0.0693644   0.014154  0.0281313 0.00588637 0.00929883   0.124726  
  0.069382  0.0168736  0.0298173 0.00556661  0.0114821   0.116926  
 0.0693715  0.0132075   0.029589 0.00562575  0.0108476   0.125055  
  0.072079  0.0213851  0.0277071 0.00816781  0.0104442   0.102057  
 0.0711497  0.0205804   0.027694 0.00853767  0.0122637    0.10946  
 0.0708889  0.0202095  0.0272259 0.00744498 0.00940702    0.10831  
  0.072649  0.0226825  0.0273578 0.00796415  0.0118675   0.103135  
  0.071186  0.0209798  0.0275576 0.00734428  0.0110237   0.109592  
 0.0711998  0.0207952  0.0274864 0.00764569  0.0111489   0.109197  
 0.0724971  0.0229159  0.0275721 0.00749467  0.0115325   0.103741  
 0.0711051  0.0209526  0.0276511 0.00695392  0.0104668   0.109519  
  0.071131  0.0209513  0.0276474 0.00710887  0.0107533   0.109606  
 0.0725046  0.0226295  0.0276437 0.00688984   0.011007   0.103121  
   0.07082  0.0204499  0.0279143 0.00601995 0.00898442   0.108818  
 0.0710147  0.0207209  0.0278653 0.00643694  0.0102558   0.109201  
 0.0717913  0.0206265  0.0297194  0.0050841  0.0117282   0.102701  
 0.0705378  0.0192414  0.0297751 0.00536216    0.01159    0.10928  
 0.0738412  0.0230791  0.0267391 0.00857743  0.0125893  0.0993334  
 0.0734903  0.0203826  0.0283467 0.00835413  0.0114508  0.0975275  
 0.0732628  0.0237202  0.0274755 0.00779487  0.0119707   0.100984  
 0.0734269  0.0233537  0.0273695 0.00786803  0.0119611   0.100274  
 0.0732324  0.0237169  0.0275065 0.00760112  0.0117162    0.10096  
 0.0732293  0.0237037    0.02753 0.00765963  0.0118591   0.101033  
 0.0737434  0.0230484  0.0267667 0.00722392  0.0105397  0.0988802  
  0.073365  0.0233374  0.0274929 0.00733968  0.0115363   0.100274  
  0.073375  0.0200521  0.0292609 0.00537088  0.0111228   0.098117  
 0.0791027  0.0192574  0.0275095 0.00786054   0.012909  0.0916238  
 0.0791274  0.0201085  0.0279111 0.00726232  0.0122268   0.095203  
 0.0794174  0.0204998   0.027279 0.00730195  0.0122943  0.0958786  
 0.0803303  0.0207619   0.026205 0.00852504  0.0138385  0.0967245  
   0.09594 0.00551146  0.0288228 0.00689774  0.0151175  0.0797386  
 0.0966502  0.0061944   0.028426 0.00567656  0.0135789  0.0829113  
 0.0970411 0.00677005  0.0275264 0.00575031  0.0136794  0.0838883  
 0.0981282 0.00760596  0.0266873 0.00737372  0.0159553  0.0869938  
  0.121171 -0.0147183  0.0290411 0.00576739  0.0176371   0.065915  
  0.121301 -0.0143825  0.0286514 0.00475756   0.016095  0.0676484  
  0.121522 -0.0139455  0.0280749 0.00478508  0.0161297   0.068531  
  0.121239 -0.0130229  0.0287984 0.00550408  0.0177218  0.0732033  
  0.133783 -0.0249784  0.0295504 0.00473437  0.0174265  0.0632166  
  0.134208 -0.0252481  0.0285337 0.00462539  0.0171836  0.0611221  
  0.134214 -0.0252473  0.0285287 0.00463692  0.0171626  0.0611244  
  0.133795 -0.0249741  0.0295438 0.00437373  0.0169698  0.0632555  
  0.121402 -0.0128521  0.0287307 0.00531071  0.0153489  0.0734407  
   0.12146 -0.0137571  0.0280833 0.00623954  0.0165718  0.0688341  
    0.1212 -0.0141885  0.0286738 0.00621118   0.016503  0.0679752  
  0.120612   -0.01447  0.0292369 0.00498911  0.0146607  0.0663952  
 0.0975372 0.00772711  0.0271457 0.00604033  0.0124847  0.0878172  
 0.0971094 0.00684481  0.0275448 0.00741875  0.0145877  0.0842135  
 0.0967171 0.00625899  0.0284452 0.00736989  0.0145046  0.0831444  
 0.0963042 0.00549732  0.0285836 0.00563803  0.0119047  0.0795164  
 0.0804564  0.0205823   0.026342 0.00677325  0.0112674  0.0968009  
 0.0796782  0.0203002  0.0272902 0.00786176  0.0128319  0.0958054  
 0.0793755  0.0199038  0.0279329 0.00780727  0.0127855  0.0951038  
  0.079207  0.0190677  0.0275573 0.00684345  0.0110407  0.0914286  
 0.0769656  0.0155829  0.0365491 0.00485785 0.00928569   0.100798  
 0.0762487  0.0215834  0.0268526 0.00792378    0.01221  0.0946237  
 0.0753432  0.0174011  0.0327805 0.00642805  0.0106681  0.0974721  
 0.0791355    0.01951  0.0286677 0.00687593   0.011917  0.0955035  
 0.0759017  0.0221844  0.0276618 0.00763403  0.0121348  0.0973241  
 0.0760196  0.0216357  0.0280372 0.00741499  0.0119321  0.0971054  
 0.0792635  0.0202651  0.0276511 0.00712209  0.0121928  0.0956063  
 0.0760503  0.0223816  0.0273327 0.00764256  0.0121657  0.0976624  
 0.0759637  0.0222378  0.0275669 0.00754847   0.012126  0.0975829  
 0.0797949  0.0203623  0.0264502 0.00698451  0.0118837  0.0944698  
 0.0769496  0.0222847  0.0261449 0.00845163   0.012885  0.0970763  
 0.0763568  0.0220581  0.0269119 0.00744994  0.0118951  0.0965687  
 0.0840459  0.0169422  0.0206819 0.00417773 0.00749368  0.0831265  
  0.078845  0.0181747  0.0247035 0.00537826 0.00899981   0.089026  
 0.0922089 0.00457452  0.0396767 0.00187393 0.00856814  0.0965845  
 0.0868481  0.0127027  0.0280607 0.00746326  0.0139503  0.0857767  
 0.0836786  0.0103746  0.0384953 0.00321313 0.00866415  0.0992474  
 0.0964214 0.00581981  0.0295484 0.00512416  0.0131969  0.0841611  
 0.0871435  0.0134756  0.0281545 0.00648715  0.0127671  0.0892441  
 0.0870112  0.0129712  0.0291748 0.00598346  0.0123712  0.0900945  
 0.0968276 0.00647859  0.0279899  0.0054855  0.0135349  0.0833871  
 0.0874911  0.0139678  0.0273757 0.00654234  0.0128474  0.0901055  
 0.0873006  0.0136891  0.0278155 0.00631171  0.0127057  0.0897147  
 0.0973125 0.00709649  0.0263903 0.00529797  0.0131777  0.0826262  
 0.0884557  0.0145512  0.0264591 0.00792727   0.014795  0.0921806  
 0.0878381  0.0140385  0.0263568 0.00615144  0.0123677  0.0887166  
  0.101881 0.00725129  0.0163947 0.00172391 0.00710541   0.069644  
 0.0924916  0.0123488  0.0181576 0.00291214  0.0069958  0.0760221  
   0.11545 -0.0112522  0.0367933 0.00246609  0.0129322  0.0829028  
  0.108506 -0.00434825  0.0286975 0.00655219  0.0165063  0.0727187  
   0.10278 -0.0027345  0.0389832 0.00277384  0.0114656  0.0913302  
  0.120924 -0.0142824  0.0295596 0.00433775  0.0156304  0.0694077  
  0.108686 -0.00374238  0.0285364 0.00551494  0.0149667  0.0755803  
  0.108353 -0.00386419  0.0296528 0.00504922  0.0145005  0.0772247  
  0.121388 -0.0141258  0.0283262 0.00457845  0.0159102  0.0680368  
     0.109 -0.00323174  0.0278221 0.00556883   0.015045  0.0766207  
  0.108822 -0.00346661  0.0281659 0.00531997  0.0147951  0.0760452  
  0.121572  -0.013321  0.0271828 0.00448809  0.0156627  0.0680162  
  0.109082 -0.00227543  0.0280452    0.00663  0.0170739  0.0810007  
   0.10918 -0.0027415   0.026696 0.00517261  0.0144577  0.0755367  
  0.124647 -0.00939222  0.0181382 0.00337895  0.0128456   0.060551  
  0.113654 -0.000716545  0.0165022 0.00324271  0.0105487  0.0646671  
  0.132059 -0.0193209  0.0272751 0.00407551  0.0164575  0.0665286  
  0.128696 -0.0204105  0.0293318 0.00519111  0.0179508  0.0637751  
  0.124742 -0.0157097  0.0324495 0.00322622  0.0150586  0.0749278  
  0.133988 -0.0247144    0.02852 0.00458773  0.0171167  0.0619643  
  0.129002 -0.0203042  0.0286168 0.00458476  0.0169632  0.0638562  
    0.1287 -0.0199765   0.029108 0.00434978  0.0166801  0.0652461  
  0.134196 -0.0251837  0.0284555 0.00463491  0.0171704   0.061029  
  0.129135 -0.0200739  0.0283138 0.00460763  0.0169712  0.0643408  
  0.129049 -0.0201271  0.0284029 0.00449534  0.0168537   0.064026  
   0.13398 -0.0247132  0.0285232 0.00467138  0.0172263  0.0619727  
  0.128853 -0.0195105  0.0292191 0.00488228  0.0177799  0.0678358  
  0.129036 -0.0194685  0.0278145 0.00446926   0.016756  0.0644532  
  0.132136 -0.0193455  0.0272263 0.00562975  0.0179856  0.0665593  
  0.129816 -0.0146912  0.0222251 0.00435851  0.0156423   0.062633  
  0.124306 -0.00918643  0.0182706 0.00812727  0.0192385  0.0609078  
  0.128925 -0.0197956  0.0292376 0.00482986  0.0165636  0.0676065  
  0.129647 -0.0149937  0.0226432 0.00599778  0.0179337  0.0629864  
  0.121512 -0.0131279  0.0271712 0.00657669  0.0169021  0.0683137  
  0.129245 -0.0203634  0.0283359 0.00524519  0.0170046  0.0642367  
  0.129166 -0.0197656  0.0278477 0.00540161  0.0171535  0.0643837  
  0.121334 -0.0139357  0.0283212 0.00641449  0.0166993  0.0683357  
  0.129133 -0.0205826  0.0286151 0.00523397  0.0169563  0.0637853  
   0.12918 -0.0204118  0.0284059 0.00534238   0.017076  0.0639296  
  0.120912 -0.0141025  0.0295425 0.00656195  0.0170146  0.0696843  
  0.128748 -0.0206785  0.0294138 0.00451361  0.0159499  0.0638934  
   0.12884 -0.0202433  0.0290763 0.00544061  0.0172689  0.0651321  
  0.115883  -0.011172  0.0366945 0.00909788  0.0209713  0.0830967  
  0.125178 -0.0159045  0.0320268 0.00711655  0.0195676  0.0744571  
  0.103062 0.00736661  0.0156299   0.010542  0.0195464  0.0692388  
  0.108825 -0.00197805  0.0281177 0.00540176   0.013629  0.0812272  
  0.113597 -0.000481954  0.0162632 0.00895847  0.0188929  0.0644874  
 0.0974494 0.00716652  0.0263536 0.00795779  0.0150622  0.0827984  
  0.108714 -0.0029304  0.0278259 0.00656585  0.0153172  0.0768212  
  0.108945 -0.00244905  0.0266522 0.00699613  0.0157481  0.0757122  
 0.0969258 0.00654881  0.0279909 0.00766704  0.0147474  0.0836431  
  0.108384 -0.00344487  0.0285389 0.00653091  0.0152479  0.0757601  
  0.108556 -0.00317096   0.028158 0.00678203  0.0154948  0.0762505  
 0.0965166 0.00590561  0.0295704 0.00782532  0.0150994  0.0845009  
  0.107972 -0.00404876  0.0286894 0.00508647  0.0129772  0.0727836  
   0.10811 -0.00358316  0.0296641 0.00693369  0.0158402  0.0774471  
 0.0914485 0.00483905  0.0404552   0.010807  0.0206083  0.0979181  
  0.102714 -0.00257455  0.0392625  0.0095121  0.0203904  0.0916734  
 0.0846846  0.0167348  0.0203743  0.0103924  0.0165904  0.0827275  
 0.0881908  0.0145493  0.0266757 0.00631087  0.0117833  0.0925649  
 0.0930396  0.0122854  0.0178274  0.0104753  0.0179902  0.0757847  
 0.0800927  0.0201665  0.0264262 0.00821735  0.0130701  0.0943885  
 0.0874735  0.0139709  0.0273889 0.00759221  0.0136183  0.0903001  
 0.0878561  0.0140402   0.026346 0.00803549  0.0139521  0.0888829  
 0.0795385  0.0200618  0.0276558  0.0079962  0.0128999  0.0955291  
  0.087108  0.0134817  0.0281783 0.00753947  0.0135561  0.0894177  
 0.0873018  0.0136955  0.0278127 0.00778189  0.0137119  0.0899022  
 0.0794158  0.0193004  0.0286942 0.00802925  0.0129987   0.095466  
 0.0867284   0.012744  0.0280458 0.00622752  0.0114615  0.0857896  
 0.0870353   0.012975  0.0291645 0.00787337  0.0139281  0.0903091  
 0.0771916  0.0153627  0.0368496  0.0087915  0.0162251   0.100993  
 0.0835341  0.0102676  0.0388494 0.00966335  0.0182683  0.0996891  
 0.0768776  0.0222985   0.026189 0.00723881  0.0113308  0.0971211  
 0.0789893  0.0181405  0.0246606 0.00945546  0.0145709  0.0890432  
 0.0760403  0.0223917  0.0273375 0.00786002  0.0123835  0.0976878  
 0.0763691  0.0220666  0.0269045 0.00804203  0.0124542  0.0966003  
 0.0758871  0.0221958  0.0276671 0.00781321  0.0123573  0.0973477  
 0.0759629  0.0222485  0.0275658 0.00792318  0.0124181  0.0976112  
 0.0761565   0.021595  0.0268842 0.00744108   0.011389  0.0946248  
 0.0760239  0.0216445  0.0280375  0.0079285  0.0123889   0.097135  
 0.0753704  0.0173957  0.0328316 0.00766179  0.0133859  0.0974466  
 0.0728147  0.0222327  0.0273668 0.00918001  0.0137653   0.102237  
 0.0725861  0.0230206  0.0274992 0.00813977  0.0121738   0.103635  
 0.0725134   0.022983  0.0276004 0.00782728  0.0117058   0.103564  
 0.0726005  0.0220834  0.0275892 0.00620551 0.00985669   0.101563  
 0.0695376  0.0182259  0.0280315 0.00753695  0.0118534   0.116733  
 0.0697719  0.0185287   0.027647  0.0070716  0.0109445   0.116719  
  0.069679  0.0184848  0.0277783 0.00656453  0.0103364    0.11663  
 0.0692229  0.0180059  0.0283131 0.00554958 0.00939629   0.116058  
 0.0691454 0.00978468   0.028208 0.00568353 0.00934123   0.133492  
 0.0692198 0.00993974  0.0278612 0.00553929 0.00887268   0.133281  
 0.0691561 0.00991498  0.0279332 0.00517969 0.00850571   0.133214  
 0.0688787 0.00978295  0.0282603 0.00483109 0.00848618   0.133036  
 0.0700935 0.00462037  0.0281677 0.00471549 0.00768488   0.141558  
 0.0701463 0.00469519  0.0279548 0.00474341 0.00735267    0.14138  
 0.0701535 0.00468793  0.0279552 0.00474506 0.00735282   0.141377  
 0.0701055 0.00461145  0.0281665 0.00466403 0.00767002   0.141542  
 0.0690393 0.00980031  0.0282478 0.00497246 0.00789606   0.133363  
 0.0693236 0.00988262  0.0279226 0.00516275 0.00790002    0.13316  
 0.0694007 0.00989851  0.0278438  0.0055288 0.00826746   0.133213  
 0.0693287  0.0098665  0.0281109 0.00573831  0.0087385   0.133753  
 0.0692744  0.0180431  0.0282371 0.00570502 0.00858878   0.116473  
 0.0697847  0.0183007  0.0277593 0.00630888 0.00954934   0.116471  
 0.0698848  0.0183289   0.027644 0.00681406  0.0101705   0.116546  
  0.069668  0.0181494  0.0279693 0.00767501  0.0111586    0.11702  
   0.07255  0.0221122  0.0275162 0.00608072 0.00920701   0.102036  
 0.0725053  0.0228789  0.0275811 0.00731387  0.0112362    0.10366  
 0.0725733  0.0228969  0.0275058 0.00762948  0.0117145   0.103712  
 0.0728276   0.022199   0.027354 0.00917578  0.0132174   0.102621  
 0.0720618  0.0215562  0.0277886 0.00978862  0.0110259   0.102835  
 0.0738895  0.0230444  0.0266873 0.00838833  0.0128039  0.0990605  
 0.0735322  0.0204754   0.028279 0.00952863  0.0118402  0.0984208  
 0.0726919  0.0228143  0.0273179 0.00855973  0.0123243   0.103103  
 0.0732931  0.0237198  0.0274683 0.00801258   0.012128   0.101009  
 0.0734679  0.0233861  0.0273228 0.00821911  0.0121414   0.100343  
 0.0725334  0.0230171   0.027569 0.00801803  0.0119563   0.103661  
 0.0732558  0.0236929  0.0275281 0.00781454  0.0118749    0.10097  
 0.0732566  0.0237034  0.0275297 0.00794387  0.0120155   0.101059  
 0.0725384  0.0227223  0.0276655 0.00748421  0.0114583   0.103074  
 0.0737308  0.0229332  0.0269099 0.00712033  0.0107716  0.0988637  
 0.0733773  0.0233228  0.0275331 0.00767405  0.0117021   0.100313  
 0.0719134  0.0207848   0.029659 0.00630744  0.0120779   0.103441  
 0.0733966  0.0200976  0.0293354 0.00610888  0.0113723  0.0982451  
 0.0696536   0.018484  0.0269075 0.00785406 0.00940059      0.117  
 0.0710751  0.0205882  0.0277616 0.00856487  0.0129226   0.109168  
 0.0708167  0.0204792  0.0272836 0.00897796  0.0101616   0.109556  
 0.0697172  0.0184678  0.0276009 0.00744912  0.0110666   0.116638  
 0.0711425  0.0211191  0.0275524 0.00780473  0.0116938   0.109711  
 0.0711429   0.020978  0.0274699  0.0082514  0.0118476   0.109409  
 0.0697267  0.0185211   0.027723 0.00684888  0.0106305   0.116754  
  0.071055  0.0210771   0.027677 0.00741175  0.0111426    0.10963  
  0.071084  0.0211073  0.0276448 0.00764057   0.011422   0.109751  
  0.069531  0.0183666  0.0280265 0.00623826   0.010216   0.116653  
  0.070808  0.0204355  0.0279812 0.00606758 0.00971973   0.108503  
 0.0709765  0.0208836  0.0278651 0.00702836  0.0109446   0.109403  
 0.0692252  0.0175074  0.0297421 0.00643145  0.0117482   0.118441  
 0.0705054  0.0195698  0.0297366 0.00668884  0.0121691   0.110636  
 0.0695201  0.0101665    0.02694 0.00575833 0.00839267   0.133436  
 0.0694433  0.0139762  0.0281464 0.00669135  0.0106722   0.124907  
   0.06973  0.0143662  0.0268165 0.00684632 0.00890425   0.124985  
 0.0692085 0.00993629  0.0278218 0.00567662 0.00894165   0.133342  
 0.0695957  0.0141978  0.0277613 0.00640993 0.00996581   0.124789  
 0.0695697  0.0141748  0.0277082 0.00664981  0.0100353   0.124806  
 0.0692081  0.0099373  0.0278819 0.00537723  0.0086776   0.133282  
 0.0695138  0.0141628  0.0278637 0.00596513 0.00946301   0.124707  
 0.0695691  0.0141923  0.0278085 0.00621069 0.00970435   0.124808  
 0.0690609 0.00985879  0.0281536 0.00507629 0.00860202    0.13341  
 0.0691182  0.0139221  0.0282861 0.00535071 0.00899476   0.124366  
 0.0693913  0.0140763  0.0281197 0.00575855 0.00947741   0.124855  
 0.0692271 0.00921138  0.0292027 0.00539814 0.00983612   0.134493  
 0.0694017  0.0132254   0.029547 0.00600332  0.0109867   0.126208  
  0.070444 0.00449345  0.0279948 0.00479637 0.00791615    0.14159  
 0.0694873 0.00686017  0.0281819 0.00485459 0.00844093   0.138523  
 0.0698378 0.00701225  0.0274096 0.00495625 0.00811532   0.138531  
 0.0701283 0.00466333  0.0280323 0.00473823 0.00746043   0.141456  
 0.0695358 0.00696559  0.0279149 0.00480531 0.00805628   0.138345  
 0.0695265 0.00695194  0.0279232 0.00487181 0.00814674   0.138414  
 0.0701681 0.00469121  0.0279426  0.0047494 0.00733652   0.141379  
 0.0695035 0.00695047  0.0279535  0.0046174 0.00787074   0.138311  
 0.0695389 0.00696374  0.0279186 0.00472248 0.00795015   0.138346  
 0.0701391 0.00465324  0.0280319 0.00475318 0.00747161   0.141462  
 0.0693502 0.00684888  0.0282131 0.00439195 0.00802434   0.138284  
  0.069452 0.00690797  0.0281015 0.00456951 0.00798182   0.138454  
   0.07045 0.00448318  0.0279985 0.00504515 0.00805126    0.14168  
 0.0696773 0.00647736   0.028647 0.00486881 0.00889811   0.139097  
 0.0694036 0.00910258  0.0291651 0.00495698 0.00918146   0.133507  
 0.0694535 0.00665807  0.0281855 0.00474916 0.00769375   0.138464  
 0.0697975 0.00624862  0.0285883 0.00481281 0.00845203   0.138552  
 0.0692256 0.00979657   0.028156 0.00500027 0.00798155   0.133241  
 0.0696099 0.00672668  0.0279454 0.00486383 0.00751852   0.138278  
 0.0695567  0.0066701  0.0281019  0.0047863 0.00761811   0.138358  
 0.0693829 0.00987765   0.027883 0.00533788 0.00807157    0.13318  
 0.0696515 0.00672877  0.0279119 0.00504264 0.00769402   0.138302  
 0.0696497 0.00672188  0.0279217 0.00495349   0.007592   0.138285  
 0.0693949 0.00984873  0.0278361 0.00563136 0.00834884   0.133191  
 0.0696103 0.00666394  0.0281422 0.00509663 0.00806499   0.138636  
 0.0696457 0.00669135  0.0279363 0.00509785 0.00779327   0.138329  
 0.0697233 0.00996668  0.0269598 0.00561901 0.00784787   0.132666  
 0.0699595 0.00669288  0.0274518 0.00523571 0.00786618   0.138177  
 0.0693701  0.0169977  0.0298179  0.0053123  0.0111708   0.116658  
  0.068977  0.0143022  0.0282259 0.00551042 0.00831003   0.124713  
 0.0692578  0.0134107  0.0295721 0.00532259  0.0103496   0.124924  
 0.0696197  0.0181335  0.0280492 0.00586728 0.00944102   0.116384  
 0.0693824  0.0144678  0.0278418 0.00589016 0.00880592   0.124588  
 0.0692516  0.0143397  0.0281265 0.00559447 0.00881288   0.124608  
 0.0698381     0.0183  0.0277277 0.00652546 0.00986174   0.116554  
 0.0694742  0.0144954  0.0277454 0.00634797 0.00931857   0.124667  
 0.0694416  0.0144675  0.0278066 0.00609936 0.00905608   0.124641  
 0.0698479  0.0182218  0.0276063 0.00705933  0.0102807   0.116358  
 0.0693265  0.0143944   0.028081 0.00684371   0.010047    0.12521  
 0.0694514   0.014424  0.0277135 0.00651455 0.00939542    0.12457  
 0.0698042  0.0182048  0.0267989 0.00668515 0.00854468   0.115618  
 0.0696171  0.0145218  0.0267813 0.00634926 0.00822275   0.123945  
 0.0718126   0.020605  0.0297175 0.00502225  0.0116725   0.102688  
 0.0708637  0.0204547  0.0279127 0.00588849 0.00891873    0.10869  
 0.0705722   0.019252  0.0297748 0.00524002  0.0114998   0.109162  
 0.0725316  0.0225989  0.0276412 0.00682613  0.0109582   0.103106  
 0.0711481    0.02096  0.0276493 0.00683037  0.0104013   0.109397  
  0.071057  0.0207283  0.0278617 0.00631128   0.010185   0.109075  
 0.0725235  0.0228835  0.0275726 0.00742916  0.0114852   0.103727  
 0.0712274  0.0209854  0.0275598 0.00721792  0.0109549   0.109468  
 0.0711731  0.0209581  0.0276469 0.00698356  0.0106867   0.109483  
 0.0726753  0.0226499  0.0273605  0.0078979  0.0118183   0.103121  
 0.0712031  0.0205798  0.0276918 0.00841257  0.0121924   0.109328  
 0.0712436  0.0208018  0.0274862 0.00751985  0.0110791   0.109073  
 0.0721105  0.0213562  0.0277082 0.00810743   0.010407   0.102056  
 0.0709224  0.0202219  0.0272304 0.00732631 0.00933518   0.108206  
 0.0737613  0.0230397  0.0267606 0.00720248  0.0105283  0.0988551  
 0.0733899  0.0200391  0.0292602 0.00534495  0.0111034  0.0980923  
 0.0732481  0.0237055  0.0275066  0.0075791  0.0117059    0.10094  
 0.0733815   0.023327   0.027491  0.0073182  0.0115252   0.100255  
 0.0732786  0.0237083  0.0274762 0.00777245  0.0119598   0.100964  
 0.0732452  0.0236922  0.0275301 0.00763747  0.0118485   0.101013  
 0.0738572  0.0230669  0.0267421  0.0085539  0.0125729  0.0993146  
 0.0734422  0.0233418  0.0273714 0.00784512  0.0119491   0.100254  
 0.0735068  0.0203716  0.0283473 0.00833002  0.0114369    0.09751  
 0.0802949  0.0207669  0.0262315 0.00852391  0.0138505  0.0967699  
 0.0794041  0.0205004  0.0272795 0.00730332  0.0122896   0.095896  
 0.0791128  0.0201091   0.027911 0.00726283  0.0122211  0.0952152  
 0.0791028  0.0192601  0.0274862 0.00784831  0.0129093  0.0916184  
 0.0981069 0.00760534  0.0267086 0.00739745  0.0159894   0.087026  
 0.0970324 0.00677133  0.0275258 0.00577474  0.0136895  0.0838963  
 0.0966393 0.00619573  0.0284261 0.00570021  0.0135892  0.0829155  
 0.0959375 0.00551268  0.0288019 0.00692384  0.0151561  0.0797179  
  0.121236 -0.0130196  0.0287982 0.00550573  0.0177221   0.073207  
   0.12152 -0.0139432  0.0280748 0.00478648  0.0161299  0.0685334  
  0.121299 -0.0143802  0.0286513 0.00475846  0.0160951  0.0676505  
  0.121169  -0.014716  0.0290406 0.00576781  0.0176369  0.0659174  
  0.133795 -0.0249738  0.0295438  0.0043736  0.0169692  0.0632559  
  0.134214 -0.0252471  0.0285287  0.0046368  0.0171622  0.0611245  
  0.134208 -0.0252479  0.0285337 0.00462518  0.0171833  0.0611221  
  0.133783 -0.0249784  0.0295504 0.00473418  0.0174262  0.0632163  
  0.120611 -0.0144688  0.0292371 0.00498776  0.0146594  0.0663958  
  0.121199 -0.0141883  0.0286739 0.00621027  0.0165026  0.0679747  
   0.12146 -0.0137568  0.0280833 0.00623827  0.0165715  0.0688335  
  0.121402 -0.0128519   0.028731  0.0053096  0.0153483  0.0734406  
 0.0963029 0.00549057  0.0285915 0.00563659  0.0119056  0.0795221  
 0.0967189 0.00625638  0.0284459 0.00738078  0.0145113  0.0831465  
 0.0971111 0.00684226  0.0275447 0.00742871  0.0145947  0.0842122  
 0.0975447 0.00772192  0.0271395 0.00604858   0.012488  0.0878087  
 0.0792055  0.0190646  0.0275703 0.00683419  0.0110308  0.0914317  
 0.0793862  0.0198981  0.0279339 0.00780396  0.0127812  0.0950975  
 0.0796888  0.0202945  0.0272892 0.00785954  0.0128283  0.0957948  
 0.0804807  0.0205775  0.0263268 0.00675658  0.0112557  0.0967823  
 0.0840763  0.0169378  0.0206376 0.00422704 0.00753777  0.0830985  
 0.0769302  0.0222882  0.0261538 0.00844717   0.012883   0.097096  
 0.0788386  0.0181759  0.0247044 0.00540128 0.00901734   0.089046  
 0.0797813  0.0203635  0.0264475 0.00698583  0.0118755  0.0944807  
 0.0760377  0.0223849  0.0273332 0.00764067  0.0121589  0.0976787  
 0.0763437  0.0220613  0.0269126   0.007448  0.0118869  0.0965835  
 0.0792495  0.0202657  0.0276512 0.00712228  0.0121855  0.0956207  
 0.0758892  0.0221883   0.027661 0.00763218  0.0121278  0.0973399  
 0.0759511  0.0222414  0.0275668 0.00754655  0.0121187  0.0975986  
 0.0791209  0.0195104  0.0286704 0.00687695   0.011909  0.0955212  
 0.0762415  0.0215902  0.0268436  0.0079152  0.0122012  0.0946412  
 0.0760072    0.02164  0.0280362 0.00741386  0.0119247  0.0971208  
 0.0769231  0.0155789  0.0365933 0.00488054 0.00930812   0.100844  
 0.0753286  0.0174036    0.03278 0.00643408  0.0106752  0.0974776  
  0.101908 0.00725835  0.0163467 0.00177767 0.00714676   0.069613  
 0.0884268  0.0145516  0.0264882 0.00794862  0.0148284  0.0922224  
 0.0925342  0.0123429  0.0181025 0.00297964 0.00705652   0.075976  
 0.0973018 0.00709741  0.0263901  0.0053211  0.0131845  0.0826298  
 0.0874837  0.0139651  0.0273761  0.0065657  0.0128571  0.0901152  
 0.0878295  0.0140355  0.0263552 0.00617478  0.0123732  0.0887209  
 0.0968178 0.00647959  0.0279901 0.00550817  0.0135427  0.0833933  
 0.0871342   0.013473  0.0281541 0.00650978  0.0127764  0.0892485  
 0.0872922  0.0136862  0.0278156 0.00633351   0.012712  0.0897222  
 0.0964119 0.00582093  0.0295493 0.00514728  0.0132035  0.0841709  
 0.0868556  0.0127018  0.0280326 0.00747868  0.0139793  0.0857557  
 0.0870026  0.0129682   0.029177 0.00600587  0.0123762  0.0901066  
 0.0921623    0.00458  0.0397238 0.00191846 0.00859549  0.0966404  
 0.0836286  0.0103702  0.0385497 0.00326757 0.00870456  0.0992999  
  0.124645 -0.0093908  0.0181372 0.00338081  0.0128467  0.0605526  
  0.109083 -0.0022807  0.0280488  0.0066307  0.0170733  0.0809984  
  0.113661 -0.000716479  0.0164965 0.00325322  0.0105605  0.0646639  
   0.12157 -0.0133187  0.0271826 0.00448941  0.0156627  0.0680181  
  0.109003 -0.00323461   0.027822 0.00557172  0.0150459  0.0766196  
  0.109183 -0.00274455  0.0266959 0.00517542  0.0144589  0.0755356  
  0.121386 -0.0141235  0.0283261  0.0045798  0.0159102  0.0680388  
  0.108689 -0.00374536  0.0285365 0.00551743   0.014968  0.0755784  
  0.108825 -0.00346953  0.0281658 0.00532252  0.0147959  0.0760439  
  0.120921 -0.0142801  0.0295596 0.00433925  0.0156307  0.0694096  
  0.108512 -0.00435198  0.0286937 0.00655648  0.0165115  0.0727102  
  0.108356 -0.0038671  0.0296529  0.0050517  0.0145012   0.077224  
  0.115447 -0.0112501  0.0367944 0.00246865  0.0129355   0.082905  
  0.102778 -0.00273775  0.0389889 0.00278283  0.0114719  0.0913342  
  0.132136 -0.0193453  0.0272263 0.00562955  0.0179851  0.0665595  
  0.128854 -0.0195113  0.0292196 0.00488329  0.0177802  0.0678358  
  0.129817 -0.0146916  0.0222245 0.00436002  0.0156437  0.0626331  
   0.13398 -0.0247131  0.0285232 0.00467127  0.0172259  0.0619728  
  0.129136 -0.0200745  0.0283138 0.00460862  0.0169714  0.0643408  
  0.129037 -0.0194692  0.0278145 0.00447033  0.0167561  0.0644531  
  0.134196 -0.0251835  0.0284555 0.00463475  0.0171701  0.0610291  
  0.129003 -0.0203048  0.0286167 0.00458563  0.0169635  0.0638558  
  0.129049 -0.0201277  0.0284029 0.00449629  0.0168539  0.0640258  
  0.133988 -0.0247142    0.02852 0.00458751  0.0171164  0.0619643  
  0.128697  -0.020411  0.0293312 0.00519181  0.0179515   0.063774  
  0.128701 -0.0199771   0.029108 0.00435074  0.0166804  0.0652459  
  0.132059 -0.0193206  0.0272751 0.00407526  0.0164572  0.0665286  
  0.124742 -0.0157104  0.0324501 0.00322876  0.0150606  0.0749279  
  0.115883 -0.0111722  0.0366949 0.00909646  0.0209696  0.0830961  
  0.128747 -0.0206784  0.0294139 0.00451291  0.0159492  0.0638935  
  0.125178 -0.0159035  0.0320271 0.00711621  0.0195671  0.0744583  
  0.120912 -0.0141023  0.0295425 0.00656084  0.0170142   0.069684  
  0.129132 -0.0205822  0.0286151 0.00523362   0.016956  0.0637854  
  0.128839 -0.0202429  0.0290764 0.00544024  0.0172686  0.0651323  
  0.121333 -0.0139354  0.0283212 0.00641339  0.0166991  0.0683352  
  0.129245 -0.0203629  0.0283359 0.00524468  0.0170045  0.0642367  
   0.12918 -0.0204114  0.0284059 0.00534194  0.0170758  0.0639296  
  0.121511 -0.0131276  0.0271713 0.00657554  0.0169019  0.0683132  
  0.128924 -0.0197952  0.0292376 0.00482915  0.0165632  0.0676063  
  0.129166 -0.0197652  0.0278477 0.00540108  0.0171533  0.0643836  
  0.124306 -0.00918669  0.0182701 0.00812472  0.0192363  0.0609057  
  0.129647 -0.0149932  0.0226429 0.00599719  0.0179332  0.0629863  
 0.0914492  0.0048425  0.0404564  0.0108383  0.0206257  0.0979273  
   0.10797 -0.00404936  0.0286907  0.0050846  0.0129763  0.0727851  
  0.102712 -0.00256789   0.039264 0.00951523  0.0203901  0.0916801  
 0.0965186  0.0059036  0.0295691 0.00783708  0.0151035  0.0844974  
  0.108383 -0.00344299  0.0285388 0.00653221  0.0152487  0.0757613  
  0.108109 -0.0035814   0.029664 0.00693508  0.0158399  0.0774469  
 0.0969275 0.00654639  0.0279911 0.00767785  0.0147523  0.0836423  
  0.108712 -0.00292864   0.027826 0.00656654  0.0153178  0.0768216  
  0.108555 -0.00316922  0.0281581 0.00678316   0.015495   0.076251  
 0.0974505 0.00716435   0.026355  0.0079694   0.015066  0.0827987  
  0.108825 -0.00197769  0.0281172 0.00540271  0.0136286  0.0812266  
  0.108944 -0.00244716  0.0266524 0.00699745   0.015748  0.0757124  
   0.10306 0.00737033  0.0156284   0.010552  0.0195628  0.0692504  
  0.113595 -0.000478134  0.0162614 0.00895678  0.0188921  0.0644914  
 0.0772135  0.0153534  0.0368444 0.00879469  0.0162358   0.100975  
 0.0867151  0.0127488  0.0280592 0.00622574  0.0114637  0.0858084  
 0.0835434  0.0102679  0.0388417 0.00968689  0.0182888  0.0996834  
 0.0794269  0.0192946  0.0286922 0.00802877  0.0129911  0.0954567  
 0.0871047  0.0134857  0.0281793 0.00754775  0.0135626  0.0894266  
 0.0870321  0.0129793  0.0291618 0.00788349  0.0139305  0.0903119  
 0.0795491   0.020056  0.0276558 0.00799404  0.0128934  0.0955215  
 0.0874698  0.0139749  0.0273877  0.0076005   0.013625   0.090304  
 0.0872981  0.0136997  0.0278127 0.00779079  0.0137157  0.0899084  
 0.0801026  0.0201606  0.0264292 0.00821596  0.0130622  0.0943843  
 0.0881978  0.0145522  0.0266617 0.00631052  0.0117833  0.0925563  
 0.0878516  0.0140442   0.026349 0.00804564   0.013955  0.0888922  
 0.0846845  0.0167286  0.0203784  0.0104136  0.0166126  0.0827194  
 0.0930246  0.0122904  0.0178347  0.0104977  0.0180187  0.0758025  
 0.0761554  0.0215944   0.026888  0.0074345  0.0113818   0.094616  
 0.0753763  0.0173918  0.0328366 0.00765762  0.0133887  0.0974408  
 0.0758907  0.0221949  0.0276675 0.00780738  0.0123527  0.0973403  
 0.0760277  0.0216432  0.0280374 0.00792423  0.0123836  0.0971279  
 0.0760438  0.0223909  0.0273372 0.00785493  0.0123792  0.0976793  
 0.0759665  0.0222476  0.0275658 0.00791799  0.0124129   0.097604  
 0.0768865  0.0222995  0.0261833 0.00722539  0.0113223  0.0971121  
 0.0763728  0.0220657   0.026905 0.00803671  0.0124481  0.0965944  
 0.0789954  0.0181357  0.0246552 0.00946072  0.0145773  0.0890222  
0.00606746  0.0132644  0.0280133 -0.0319604 -0.0206462   0.085818  
 0.0060706  0.0132848  0.0280136 -0.0320049 -0.0206528    0.08586  
0.00603819  0.0133718  0.0279925 -0.0319459 -0.0206713  0.0859202  
 0.0060144  0.0134536  0.0279838 -0.0319011 -0.0206732  0.0858825  
 0.0320403 -0.00051016  0.0280124 -0.0618368 -0.0418275  0.0803151  
 0.0319637 -0.00044746  0.0280163 -0.0617619 -0.0418282  0.0803408  
 0.0318172 -0.00028937  0.0279924 -0.0616117 -0.0418765  0.0804303  
 0.0316855 -0.000119831  0.0279836 -0.0614908 -0.0419121  0.0804579  
 0.0552365 -0.0169653  0.0280124 -0.0489273 -0.0404753  0.0477303  
 0.0550307 -0.0169498  0.0280235 -0.0487455 -0.0403151  0.0476022  
 0.0548256 -0.0168315   0.027994 -0.0486371 -0.0403228  0.0476294  
 0.0545852 -0.0166411  0.0279831 -0.0485647 -0.0404605  0.0477384  
 0.0714529 -0.0209914  0.0280109 -0.0239492 -0.0297043  0.0237098  
 0.0711394 -0.0210882  0.0280307 -0.0235992 -0.0292163  0.0234554  
 0.0709893 -0.0210861  0.0280022 -0.0234656 -0.0290731  0.0233958  
 0.0707871 -0.0209954  0.0279867 -0.0234238 -0.0292533  0.0234891  
  0.074263 -0.0153382  0.0280031 -0.0032058 -0.0108248  0.0087948  
   0.07393  -0.015468  0.0280287 -0.00268122 -0.0101221 0.00861803  
 0.0738805 -0.0155305  0.0280155 -0.00239339 -0.00978533 0.00854024  
 0.0739156 -0.0155677  0.0279973 -0.00212491 -0.00971835 0.00852829  
0.00172143  0.0164056  0.0280141 -0.0139613 -0.00983768   0.088347  
0.00605354  0.0133088  0.0280054 -0.0319373 -0.0206485  0.0858094  
0.00171281  0.0164482  0.0280056 -0.0139466 -0.00984149   0.088339  
0.00172362  0.0164078  0.0280139 -0.0140497 -0.00983906  0.0883536  
0.00607169  0.0132691  0.0280144 -0.0319891 -0.0206496  0.0858386  
0.00172422  0.0164003   0.028015 -0.0140123 -0.00983808  0.0883478  
 0.0017068  0.0164785  0.0279923 -0.0140488 -0.00984875  0.0883956  
0.00605578  0.0133268  0.0280033 -0.0319807 -0.0206613  0.0858879  
0.00171574  0.0164423  0.0280032 -0.0140528 -0.00984378  0.0883728  
0.00169495  0.0165475  0.0279834 -0.0140352 -0.0098519  0.0883549  
0.00602386   0.013416  0.0279869 -0.0319169  -0.020675  0.0859121  
0.00169976  0.0165152  0.0279866 -0.0140401 -0.00985138   0.088384  
0.00602414  0.0134268  0.0279901 -0.0319147 -0.0206629  0.0858403  
0.00169849  0.0165341  0.0279896  -0.014009 -0.00984875   0.088331  
 0.0173189 0.00716428  0.0280128 -0.0466147 -0.0306007  0.0830464  
 0.0319761 -0.000411707  0.0280037 -0.0617917 -0.0418104  0.0802852  
  0.017285 0.00723011  0.0280047 -0.0465808 -0.0305951  0.0830294  
   0.01729 0.00720468  0.0280147 -0.0466025 -0.0306072  0.0830883  
 0.0320072 -0.000488671  0.0280157 -0.0618018 -0.0418333  0.0803348  
 0.0173081 0.00717736  0.0280148 -0.0466133 -0.0306062  0.0830701  
 0.0172089  0.0073241  0.0279926 -0.0464958  -0.030639  0.0831642  
 0.0318937 -0.00037009  0.0280047 -0.0616928 -0.0418429  0.0803715  
 0.0172517 0.00726271  0.0280039  -0.046555 -0.0306189  0.0831193  
 0.0171414 0.00744246  0.0279837 -0.0464131 -0.0306525  0.0831528  
 0.0317455 -0.000201905  0.0279864 -0.0615422 -0.0419064  0.0804649  
 0.0171709 0.00738686  0.0279867 -0.0464461 -0.0306524  0.0831737  
 0.0317504 -0.000161253  0.0279896 -0.0615746 -0.0418591  0.0803659  
 0.0171753 0.00740645  0.0279899 -0.0464623 -0.0306243  0.0830872  
 0.0441531 -0.00977215  0.0280123 -0.0558588 -0.0413347  0.0623063  
 0.0551187  -0.016825  0.0279979 -0.0489434 -0.0404023  0.0476633  
 0.0440603 -0.0096505  0.0280011 -0.0558394 -0.0412909  0.0622584  
 0.0440104 -0.00972807  0.0280197 -0.0557289 -0.0412632  0.0622564  
 0.0551346 -0.0169728  0.0280205  -0.048823 -0.0404105  0.0476781  
 0.0440852 -0.00976278  0.0280179 -0.0557887 -0.0413093   0.062291  
 0.0438283 -0.00958467  0.0279931 -0.0555987 -0.0412954  0.0623167  
 0.0549283 -0.0168898  0.0280088 -0.0486942 -0.0402899  0.0475891  
 0.0439212 -0.00965683  0.0280066  -0.055668 -0.0412603  0.0622657  
 0.0436385 -0.00939961  0.0279833  -0.055496 -0.0413796  0.0623889  
 0.0547079 -0.0167445  0.0279867 -0.0485934 -0.0404109   0.047704  
 0.0437312 -0.00949469  0.0279864   -0.05554 -0.0413537  0.0623737  
 0.0546775 -0.0166122  0.0279861 -0.0486944 -0.0403893  0.0476612  
 0.0437204 -0.00940907   0.027988    -0.0556 -0.0413148  0.0623022  
 0.0633089 -0.0196576   0.028012 -0.0360346 -0.0350376  0.0347353  
  0.071365 -0.0208753  0.0279869 -0.0240561 -0.0295437  0.0236142  
 0.0631998 -0.0195247  0.0279929  -0.036098 -0.0349222  0.0346529  
 0.0630484 -0.0196971  0.0280272 -0.0357774 -0.0347224  0.0345372  
 0.0712813 -0.0210568  0.0280249 -0.0237394 -0.0294781  0.0235913  
 0.0631724 -0.0196936  0.0280228  -0.035882 -0.0348973  0.0346469  
 0.0628665 -0.0196364  0.0279977 -0.0356677  -0.034661  0.0345196  
 0.0710592 -0.0210847  0.0280156 -0.0235355 -0.0291004  0.0233993  
 0.0629549 -0.0196649  0.0280121 -0.0357253 -0.0346544   0.034501  
 0.0626352 -0.0194891  0.0279842 -0.0356205 -0.0348271  0.0346279  
 0.0708995 -0.0210553  0.0279932 -0.0234283 -0.0291795  0.0234541  
 0.0627584  -0.019575  0.0279894 -0.0356328 -0.0347624  0.0345895  
 0.0708809 -0.0208799  0.0279793 -0.0236781 -0.0292447  0.0234644  
 0.0627272  -0.019414  0.0279827 -0.0358045  -0.034782  0.0345768  
 0.0725188 -0.0183221   0.028008 -0.0126628 -0.0201779  0.0155788  
 0.0743105 -0.0153088  0.0279764 -0.00323388 -0.0105909 0.00871509  
 0.0724954 -0.0182489  0.0279818 -0.0127459 -0.0199808  0.0154891  
 0.0721954 -0.0184432  0.0280302 -0.0122287 -0.0195727  0.0153523  
 0.0740668 -0.0154139  0.0280197 -0.0029042  -0.010479 0.00870912  
 0.0723345 -0.0183968  0.0280231 -0.0124078 -0.0198872  0.0154708  
 0.0720992 -0.0184801  0.0280086 -0.0120257 -0.0193346  0.0152786  
 0.0738981 -0.0154981  0.0280205 -0.00254117 -0.00991971 0.00856679  
 0.0721409 -0.0184598  0.0280182 -0.0121308 -0.0194133  0.0152961  
 0.0720094 -0.0184585  0.0279911 -0.0118931 -0.0194121  0.0153196  
 0.0738949 -0.0155542  0.0280076 -0.00224941 -0.0097619 0.00853885  
   0.07206 -0.0184797  0.0279998 -0.0119442 -0.0193858  0.0153068  
 0.0740421 -0.0154744  0.0279758 -0.00245341 -0.00983429 0.00853193  
 0.0721139 -0.0183472  0.0279771 -0.0121916 -0.0194638   0.015312  
 0.0729285  -0.012551  0.0279963 0.00100765 3.20816e-05 0.00657369  
 0.0730343 -0.0125408  0.0279742 0.00111612 0.000274841 0.00652153  
 0.0726269 -0.0126338  0.0280238 0.00152854 0.000666091 0.00649449  
 0.0727488 -0.0125986   0.028013 0.00129615 0.000348893 0.00653719  
 0.0726028 -0.0126732  0.0280214  0.0018801 0.00106205 0.00645178  
  0.072608 -0.0126532  0.0280208 0.00170139 0.000882424 0.00646589  
 0.0727635 -0.0126994  0.0280026  0.0023274 0.00136447 0.00642957  
 0.0726655 -0.0126883  0.0280145 0.00209631 0.00120329  0.0064443  
  0.072911 -0.0126494  0.0279775 0.00206876 0.00119424 0.00642214  
 0.0850043  -0.013327  0.0279946  0.0131367   0.037552  0.0154936  
 0.0845732 -0.0134978  0.0280328   0.012381  0.0366593  0.0152855  
 0.0845423 -0.0135729  0.0280074  0.0120174  0.0362088  0.0151768  
 0.0846376 -0.0136024   0.027991   0.011822   0.036037  0.0151178  
 0.0829069 -0.0197851  0.0280112  0.0331081  0.0563485  0.0379091  
  0.082503 -0.0199599  0.0280333  0.0325735  0.0556214  0.0375037  
 0.0823636 -0.0199923  0.0280003  0.0323928  0.0553593  0.0373675  
  0.082218 -0.0198859   0.027985  0.0324311   0.055464  0.0374226  
  0.053346 -0.0152805  0.0280183  0.0486093  0.0500255  0.0552426  
 0.0531195 -0.0153438  0.0280296  0.0483283  0.0497324  0.0549698  
 0.0529454 -0.0152656   0.027993  0.0482093  0.0496581  0.0549153  
 0.0527828 -0.0150918  0.0279784  0.0482013  0.0497444  0.0549864  
 0.0384933 -0.000509653  0.0280168  0.0723257  0.0539067  0.0970389  
 0.0383556 -0.00055149  0.0280218  0.0720753  0.0537729  0.0968209  
 0.0381839 -0.000405656   0.027993  0.0718734  0.0537599  0.0968165  
 0.0380754 -0.000224061  0.0279802  0.0717913  0.0537863  0.0968563  
 0.0103371  0.0175034  0.0280139  0.0476913  0.0288086   0.111359  
 0.0102818  0.0174697  0.0280179   0.047496  0.0287704   0.111238  
 0.0102167  0.0175795  0.0279928  0.0473219  0.0287671   0.111257  
 0.0101884  0.0176894  0.0279813  0.0472626  0.0287623   0.111237  
  0.077695 -0.0113326  0.0280016  0.0083781  0.0243457 0.00945331  
 0.0850933 -0.0133044  0.0279796  0.0132046  0.0372487  0.0153974  
 0.0778314 -0.0113274  0.0279828 0.00833713  0.0240828 0.00939671  
 0.0773424 -0.0114204  0.0280286 0.00767872  0.0236075 0.00936939  
 0.0847445 -0.0134256  0.0280204  0.0127046   0.037113  0.0153957  
 0.0774799 -0.0113828  0.0280199 0.00798852  0.0239738 0.00941529  
 0.0773363 -0.0114573  0.0280117  0.0072858  0.0231535 0.00931583  
 0.0845508 -0.0135351  0.0280181     0.0122  0.0363935  0.0152176  
 0.0773327 -0.0114391  0.0280182 0.00748185  0.0233614 0.00933515  
 0.0775291 -0.0114702  0.0279868 0.00693722  0.0228056 0.00926393  
   0.08458 -0.0135939  0.0279999   0.011893  0.0361361  0.0151545  
 0.0774142 -0.0114664  0.0280009 0.00710387  0.0229862 0.00929563  
 0.0848095 -0.0135009   0.027982  0.0122784  0.0362234  0.0151453  
 0.0776921 -0.0114268  0.0279781  0.0073076  0.0230272  0.0092684  
 0.0835083 -0.0166159  0.0280013  0.0214114  0.0465824  0.0254132  
 0.0828522 -0.0196547  0.0279885  0.0332645  0.0561047   0.037767  
 0.0835253 -0.0165397  0.0279846   0.021537  0.0463058  0.0252946  
 0.0830892 -0.0168032  0.0280315  0.0207596  0.0457526  0.0250965  
 0.0826791 -0.0198937  0.0280265  0.0327918  0.0560075  0.0377167  
 0.0832632 -0.0167271  0.0280212  0.0210326  0.0461831  0.0252624  
 0.0830106 -0.0168686  0.0280041  0.0204893  0.0453918  0.0249675  
 0.0824275  -0.019975  0.0280155  0.0324831  0.0554332  0.0374026  
 0.0830433 -0.0168352  0.0280163   0.020625  0.0455219  0.0250093  
 0.0829881 -0.0168438  0.0279895  0.0204274  0.0453691  0.0249625  
 0.0822965 -0.0199585  0.0279921  0.0323829  0.0554345  0.0374081  
 0.0829977 -0.0168691  0.0279971  0.0204279  0.0453988  0.0249741  
  0.082351 -0.0197241  0.0279774  0.0327859  0.0555121  0.0374386  
 0.0831371 -0.0167015  0.0279809  0.0208437  0.0454871    0.02499  
 0.0664816 -0.0178072  0.0280168  0.0411734  0.0525733   0.046713  
 0.0532614 -0.0151423   0.027998   0.048655  0.0499139  0.0551408  
 0.0664073 -0.0176696  0.0279932  0.0412708  0.0524035  0.0465921  
 0.0661746 -0.0179164  0.0280329  0.0407889  0.0520933  0.0463774  
 0.0532293 -0.0153316  0.0280273  0.0484473  0.0498957  0.0551191  
 0.0663147 -0.0178817   0.028029  0.0409475  0.0523531  0.0465573  
 0.0660143 -0.0178866  0.0279958   0.040652    0.05194  0.0462865  
 0.0530307 -0.0153046  0.0280107  0.0482687  0.0496613  0.0549109  
 0.0660908 -0.0179009  0.0280134  0.0407202   0.051972   0.046299  
 0.0658512 -0.0177354  0.0279801  0.0406719  0.0520417  0.0463551  
 0.0528632 -0.0151897  0.0279843   0.048192  0.0497198  0.0549695  
 0.0659356 -0.0178267  0.0279867  0.0406422  0.0520113  0.0463373  
 0.0528803 -0.0150221  0.0279797  0.0483747  0.0497264   0.054965  
 0.0659637 -0.0176238  0.0279776  0.0409194  0.0520491  0.0463493  
  0.046484  -0.009037   0.028018  0.0598878  0.0518147  0.0736511  
 0.0384295 -0.000368009  0.0280022  0.0723045  0.0538573   0.096965  
 0.0464072 -0.00889666  0.0280003  0.0598981  0.0517342  0.0735637  
 0.0463032 -0.00908599   0.028026  0.0596275  0.0516063  0.0734089  
 0.0384281 -0.000554018  0.0280215  0.0721917  0.0538462  0.0969371  
 0.0463943 -0.00908278  0.0280248  0.0597426  0.0517224  0.0735408  
 0.0461266 -0.00897202  0.0279923  0.0594729  0.0515654  0.0733803  
 0.0382703 -0.000479244  0.0280071  0.0719761  0.0537492  0.0967912  
 0.0462144 -0.00902929  0.0280087  0.0595508  0.0515602  0.0733647  
 0.0459875 -0.0087914  0.0279791  0.0594265   0.051622  0.0734389  
 0.0381211 -0.000316226  0.0279855  0.0718172  0.0537865  0.0968589  
 0.0460521 -0.00888788  0.0279843  0.0594365  0.0516101  0.0734303  
 0.0381645 -0.000199888  0.0279837  0.0719561  0.0537681  0.0968246  
 0.0460811 -0.00874639  0.0279818  0.0595897  0.0516014  0.0734111  
 0.0228701 0.00919143  0.0280151  0.0609836  0.0411578   0.104415  
 0.0103212  0.0175901  0.0280037  0.0476754  0.0287941   0.111331  
 0.0228347 0.00930221  0.0280032  0.0609619  0.0411291   0.104366  
 0.0227785 0.00915391  0.0280194  0.0607661  0.0410774    0.10425  
 0.0103102  0.0174697  0.0280177   0.047589  0.0287899   0.111296  
 0.0228263 0.00915261  0.0280192  0.0608691  0.0411196   0.104334  
 0.0226645 0.00928187  0.0279933  0.0605729  0.0410704    0.10426  
 0.0102495  0.0175242  0.0280051  0.0474106  0.0287648   0.111236  
 0.0227219 0.00921728  0.0280061  0.0606714  0.0410646   0.104237  
 0.0226038 0.00942237  0.0279807  0.0604984  0.0410767   0.104267  
 0.0101981  0.0176364   0.027986  0.0472777  0.0287685   0.111261  
 0.0226273 0.00935318  0.0279859  0.0605205  0.0410813   0.104282  
 0.0102267  0.0176946  0.0279876  0.0473979  0.0287602   0.111226  
 0.0226666 0.00943465  0.0279855  0.0606476  0.0410688   0.104246  
0.00311998  0.0192634  0.0280144  0.0248698  0.0137328   0.102186  
0.00311134  0.0193264  0.0280053   0.024868  0.0137245   0.102168  
0.00309261  0.0192405  0.0280158  0.0247088  0.0137178    0.10211  
0.00310684    0.01924  0.0280165  0.0247832   0.013726   0.102144  
0.00306106  0.0193231  0.0279923  0.0245947  0.0137145   0.102133  
 0.0030768  0.0192813  0.0280041  0.0246516  0.0137144   0.102116  
0.00304737  0.0194051  0.0279817  0.0245618  0.0137094     0.1021  
0.00305224  0.0193659  0.0279858   0.024569  0.0137136   0.102127  
0.00306499  0.0194064  0.0279884   0.024663  0.0137081   0.102092  
0.00697425  0.0173391  0.0279822 -0.0358132 -0.0240308  0.0994843  
0.00700253  0.0172411  0.0279924 -0.0358632 -0.0240281  0.0995271  
0.00703927  0.0171381  0.0280143 -0.0359242 -0.0240081  0.0994583  
0.00703676  0.0171118  0.0280142 -0.0358679 -0.0240028  0.0994118  
 0.0296956 -0.00115518  0.0279831 -0.0573476 -0.0393756  0.0749301  
 0.0298188 -0.00131528  0.0279934 -0.0574615 -0.0393417  0.0749035  
 0.0299566 -0.00146357  0.0280169  -0.057602 -0.0392986  0.0748203  
 0.0300291 -0.00152069   0.028013 -0.0576716 -0.0393006  0.0747973  
 0.0652405 -0.0178734   0.027984 -0.0578635  -0.048448   0.055509  
 0.0655245 -0.0180965  0.0279944 -0.0579489 -0.0482894  0.0553762  
 0.0657674 -0.0182333  0.0280241 -0.0580767 -0.0482797  0.0553462  
 0.0660097 -0.0182504  0.0280119 -0.0582931 -0.0484668  0.0555014  
 0.0770947 -0.0219178  0.0279875 -0.0255301 -0.0319153  0.0249955  
 0.0773143 -0.0220142  0.0280022 -0.0255742 -0.0317211  0.0248933  
 0.0774774  -0.022015   0.028031 -0.0257183 -0.0318755  0.0249591  
 0.0778169 -0.0219103  0.0280104 -0.0260982 -0.0324033  0.0252364  
 0.0745161  -0.015607  0.0279973 -0.00214367 -0.00979674 0.00854458  
 0.0744808 -0.0155693  0.0280155 -0.00241411 -0.00986406  0.0085567  
 0.0745307 -0.0155063  0.0280288 -0.00270409 -0.0102034 0.00863515  
 0.0748665 -0.0153757  0.0280031 -0.00323287 -0.0109117 0.00881333  
0.00163458  0.0200612  0.0279826  -0.015331 -0.0113744  0.0989507  
0.00698392  0.0173085  0.0279894 -0.0358238 -0.0240173   0.099435  
0.00163751  0.0200452  0.0279897 -0.0153008  -0.011369  0.0989225  
0.00164766  0.0199828  0.0279925 -0.0153447 -0.0113707  0.0989979  
0.00698588  0.0172938   0.027986 -0.0358314 -0.0240326   0.099518  
0.00164007  0.0200244  0.0279863 -0.0153362 -0.0113739  0.0989841  
0.00166545  0.0199034   0.028014 -0.0153411 -0.0113597  0.0989514  
0.00702236   0.017188  0.0280037 -0.0358998 -0.0240169  0.0994903  
0.00165706   0.019942  0.0280035  -0.015347 -0.0113649  0.0989727  
0.00166366  0.0198987  0.0280134 -0.0152404 -0.0113598  0.0989419  
 0.0070411  0.0171184  0.0280151 -0.0359031 -0.0240055  0.0994343  
0.00166634  0.0198941  0.0280147 -0.0152978 -0.0113593  0.0989442  
0.00701922  0.0171673   0.028006 -0.0358433  -0.024003  0.0994018  
0.00165361   0.019946  0.0280058 -0.0152276 -0.0113628  0.0989309  
 0.0172338 0.00850452  0.0279823 -0.0476103 -0.0318669   0.086629  
 0.0297562 -0.00119183  0.0279884  -0.057425  -0.039327  0.0748434  
 0.0172668 0.00846884  0.0279886 -0.0476567 -0.0318385   0.086561  
  0.017301 0.00838104  0.0279931 -0.0476952 -0.0318537  0.0866415  
 0.0297518 -0.0012329  0.0279867 -0.0573961   -0.03937  0.0749362  
 0.0172631  0.0084464  0.0279863 -0.0476445 -0.0318669  0.0866507  
 0.0173827 0.00825716  0.0280156  -0.047802 -0.0318233  0.0865636  
 0.0298907 -0.00139094  0.0280054 -0.0575374 -0.0393111  0.0748485  
 0.0173442  0.0083174  0.0280046 -0.0477547 -0.0318342  0.0865955  
 0.0174109 0.00821574  0.0280139 -0.0478092 -0.0318183  0.0865208  
 0.0299977 -0.00150171  0.0280162 -0.0576392  -0.039305  0.0748152  
 0.0174007 0.00822879  0.0280157 -0.0478106 -0.0318231  0.0865446  
 0.0299682 -0.00142583  0.0280032 -0.0576286 -0.0392836  0.0747686  
 0.0173761 0.00828672  0.0280047 -0.0477736 -0.0318111  0.0865032  
  0.045888 -0.00918292  0.0279836 -0.0584687  -0.043779  0.0657265  
 0.0653499 -0.0178374   0.027986 -0.0580166 -0.0483637  0.0554195  
 0.0459736 -0.00919174  0.0279878 -0.0585767 -0.0437112  0.0656362  
 0.0460861 -0.00937672  0.0279934 -0.0585769 -0.0436932    0.06565  
 0.0653853 -0.0179949  0.0279873 -0.0578976 -0.0483917  0.0554661  
 0.0459845 -0.00928255  0.0279868 -0.0585152 -0.0437532  0.0657101  
 0.0462768 -0.00952661  0.0280199 -0.0587133 -0.0436595  0.0655869  
 0.0656462 -0.0181639  0.0280092 -0.0580161 -0.0482504  0.0553295  
 0.0461834 -0.00945211  0.0280068 -0.0586496 -0.0436565  0.0655966  
 0.0464251 -0.00957172  0.0280123  -0.058848 -0.0437328  0.0656394  
 0.0658897   -0.01826  0.0280208 -0.0581689 -0.0483913  0.0554381  
 0.0463546 -0.00956261   0.028018 -0.0587753 -0.0437071  0.0656233  
 0.0658706  -0.018085  0.0279967 -0.0583118 -0.0483801   0.055423  
  0.046328 -0.00944351  0.0280006 -0.0588269 -0.0436867  0.0655898  
 0.0716096 -0.0207339  0.0279852 -0.0408192 -0.0399839  0.0387579  
 0.0771966 -0.0217926  0.0279795 -0.0258056 -0.0319056  0.0249701  
 0.0717143 -0.0206483  0.0279829 -0.0410277 -0.0399322  0.0387016  
 0.0718725  -0.020899  0.0279979 -0.0408719 -0.0397979  0.0386326  
 0.0772167 -0.0219817  0.0279936 -0.0255344  -0.031836  0.0249567  
 0.0717494 -0.0208305  0.0279899 -0.0408328 -0.0399119   0.038713  
 0.0720795 -0.0209661  0.0280277 -0.0409958 -0.0398663  0.0386541  
 0.0773903 -0.0220119  0.0280158 -0.0256495 -0.0317502  0.0248977  
 0.0719731 -0.0209305  0.0280124 -0.0409368 -0.0397899  0.0386124  
 0.0723744 -0.0209212  0.0280114 -0.0412881 -0.0402212  0.0388811  
 0.0776311  -0.021981  0.0280249 -0.0258704 -0.0321587  0.0251072  
 0.0722199 -0.0209621   0.028023 -0.0411147 -0.0400634  0.0387799  
 0.0777215 -0.0217855  0.0279861 -0.0262145 -0.0322293  0.0251333  
 0.0722504 -0.0207714  0.0279918   -0.04136 -0.0400906  0.0387885  
 0.0754312 -0.0188339  0.0279916 -0.0125011 -0.0203868  0.0157659  
 0.0746436 -0.0155132  0.0279758 -0.00247483 -0.0099135 0.00854837  
 0.0755405 -0.0187178  0.0279771  -0.012813 -0.0204405  0.0157587  
 0.0755254 -0.0188553  0.0280087  -0.012639 -0.0203059  0.0157226  
 0.0744952 -0.0155933  0.0280075 -0.00226905 -0.00984055 0.00855526  
 0.0754843 -0.0188554      0.028 -0.0125542 -0.0203594  0.0157522  
 0.0756261 -0.0188162  0.0280304 -0.0128505 -0.0205543  0.0158002  
 0.0744985 -0.0155367  0.0280205  -0.002563 -0.00999943 0.00858351  
 0.0755691 -0.0188337  0.0280184 -0.0127484  -0.020388  0.0157413  
 0.0759641 -0.0186899  0.0280077 -0.0133043  -0.021186  0.0160375  
 0.0746687 -0.0154519  0.0280197 -0.00292883 -0.0105631 0.00872697  
 0.0757715 -0.0187678  0.0280231 -0.0130377 -0.0208826  0.0159244  
 0.0749143 -0.0153463  0.0279764 -0.00326136 -0.0106759 0.00873306  
 0.0759394 -0.0186142  0.0279814 -0.0133914 -0.0209802  0.0159442  
 0.0723072 -0.0126848  0.0280025 0.00231289 0.00136065 0.00642923  
 0.0724538  -0.012635  0.0279774 0.00205566 0.00119137 0.00642171  
 0.0721475  -0.012659  0.0280214   0.001868 0.00105999 0.00645126  
 0.0722098 -0.0126739  0.0280145 0.00208304 0.00120039 0.00644387  
 0.0721714   -0.01262  0.0280238 0.00151845 0.000666294 0.00649365  
 0.0721527 -0.0126392  0.0280208 0.00169031 0.000881387 0.00646523  
 0.0724714 -0.0125374  0.0279964 0.00100044 3.57321e-05 0.00657243  
 0.0722926 -0.0125848  0.0280131 0.00128736 0.000350829 0.00653613  
 0.0725766 -0.0125271  0.0279743 0.00110824 0.000277134 0.00652048  
 0.0866905 -0.0136786  0.0279912  0.0121044  0.0368903  0.0153321  
  0.086593 -0.0136476  0.0280074  0.0123038  0.0370658  0.0153924  
 0.0866246 -0.0135704  0.0280328  0.0126755  0.0375265  0.0155038  
 0.0870655 -0.0133961   0.027994  0.0134484  0.0384394  0.0157165  
 0.0865202 -0.0203716  0.0279857   0.034122  0.0583166  0.0390529  
 0.0866731 -0.0204821  0.0280003  0.0340811   0.058207  0.0389946  
 0.0868195 -0.0204471  0.0280333  0.0342705  0.0584817   0.039138  
 0.0872428 -0.0202636  0.0280105  0.0348317   0.059244  0.0395639  
 0.0581348 -0.0155249  0.0279789  0.0531148  0.0546917  0.0600595  
 0.0583128 -0.0157143  0.0279929  0.0531232  0.0545979  0.0599803  
 0.0585036 -0.0157985    0.02803  0.0532536  0.0546782  0.0600405  
 0.0587508 -0.0157287  0.0280181  0.0535623  0.0549984  0.0603408  
  0.031041 -0.00180277  0.0279793  0.0588922  0.0439632  0.0809963  
 0.0311318 -0.0019534  0.0279915   0.058959  0.0439383  0.0809652  
 0.0312731 -0.00207726  0.0280222  0.0591253  0.0439487  0.0809664  
 0.0313875 -0.00204404  0.0280184  0.0593311  0.0440609  0.0811476  
 0.0083766  0.0132376  0.0279811  0.0404017  0.0243704  0.0937454  
0.00839969  0.0131477  0.0279921  0.0404529  0.0243734  0.0937633  
  0.008455  0.0130558  0.0280168  0.0406019  0.0243748  0.0937469  
0.00850094  0.0130823  0.0280164  0.0407688  0.0244097  0.0938579  
 0.0792488 -0.0114935  0.0279867 0.00708861  0.0232952 0.00933296  
 0.0868662 -0.0135751  0.0279823  0.0125712   0.037081  0.0153605  
  0.079415 -0.0114495  0.0279783 0.00746673  0.0235215 0.00933784  
 0.0790521 -0.0114796  0.0280116 0.00744409  0.0236501 0.00938599  
 0.0866315 -0.0136694      0.028  0.0121767  0.0369915  0.0153695  
 0.0791315 -0.0114892  0.0280008 0.00725852  0.0234794 0.00936531  
 0.0790583 -0.0114418  0.0280286 0.00784507  0.0241135 0.00944071  
 0.0866017 -0.0136088   0.028018  0.0124904  0.0372548  0.0154342  
 0.0790484 -0.0114609  0.0280182 0.00764416  0.0238624 0.00940582  
 0.0794181 -0.0113526  0.0280014  0.0085588  0.0248669 0.00952624  
 0.0867998 -0.0134967  0.0280203  0.0130064  0.0379904  0.0156164  
 0.0791986 -0.0114036  0.0280199 0.00816122  0.0244873 0.00948749  
 0.0871564 -0.0133735  0.0279795   0.013518  0.0381294  0.0156184  
 0.0795573 -0.0113478  0.0279829 0.00851714  0.0245987 0.00946879  
 0.0861341 -0.0170861    0.02799  0.0212052  0.0470608  0.0256761  
 0.0866596 -0.0202018  0.0279778  0.0344943   0.058367  0.0390704  
 0.0862883 -0.0169388  0.0279813  0.0216363   0.047183  0.0257051  
 0.0861575 -0.0171107  0.0280041  0.0212686  0.0470843   0.025681  
 0.0866026 -0.0204472  0.0279924  0.0340711  0.0582859  0.0390374  
  0.086144 -0.0171117  0.0279973  0.0212053  0.0470915  0.0256879  
 0.0862389 -0.0170423  0.0280314  0.0215484  0.0474577   0.025815  
 0.0867401 -0.0204635  0.0280156  0.0341757  0.0582844  0.0390318  
 0.0861914 -0.0170758  0.0280162  0.0214091  0.0472189  0.0257246  
 0.0866727 -0.0168485  0.0280005  0.0222235  0.0483167  0.0261431  
  0.087004 -0.0203775  0.0280262  0.0344996  0.0588865  0.0393618  
 0.0864191 -0.0169635  0.0280208  0.0218312  0.0479034  0.0259869  
 0.0871852 -0.0201275   0.027988  0.0349961  0.0589885  0.0394153  
 0.0866901 -0.0167703  0.0279843  0.0223538  0.0480305  0.0260206  
 0.0712926  -0.018339  0.0279807  0.0440074  0.0562564   0.049646  
 0.0582414  -0.015448  0.0279798  0.0533052  0.0546716  0.0600365  
 0.0714138 -0.0182181  0.0279778   0.044274  0.0562641  0.0496403  
 0.0714685 -0.0185005  0.0279959  0.0439853  0.0561475  0.0495709  
 0.0582228 -0.0156316  0.0279844  0.0531044  0.0546651  0.0600402  
 0.0713836 -0.0184367   0.027987  0.0439751  0.0562241   0.049626  
 0.0716414 -0.0185311  0.0280332  0.0441323   0.056312  0.0496696  
 0.0584063 -0.0157562  0.0280108  0.0531882   0.054601  0.0599757  
 0.0715511 -0.0185151  0.0280135  0.0440584  0.0561816  0.0495848  
 0.0719714  -0.018413  0.0280163   0.044547  0.0568285  0.0500325  
 0.0586235 -0.0157848  0.0280276  0.0533842  0.0548565  0.0602048  
  0.071792 -0.0184934   0.028029  0.0443033  0.0565915  0.0498642  
 0.0586581 -0.0155779  0.0279974  0.0536124  0.0548764  0.0602296  
 0.0718912 -0.0182655  0.0279926  0.0446522  0.0566457  0.0499024  
 0.0439165 -0.00894532  0.0279788  0.0566466  0.0491942  0.0701429  
 0.0311144 -0.00178446  0.0279837  0.0590289  0.0439469  0.0809698  
 0.0440062 -0.00890306  0.0279819   0.056803  0.0491741  0.0701159  
 0.0440499 -0.00911813  0.0279919  0.0566906  0.0491387  0.0700872  
 0.0310794 -0.00187882   0.027984   0.058913  0.0439619  0.0809996  
 0.0439786 -0.00903751  0.0279839  0.0566559  0.0491821  0.0701349  
 0.0442187 -0.00922781  0.0280259  0.0568383  0.0491779  0.0701141  
 0.0312029 -0.00201591  0.0280066  0.0590436   0.043929  0.0809434  
 0.0441338 -0.00917327  0.0280085  0.0567651  0.0491336  0.0700721  
 0.0443923 -0.00918183  0.0280185  0.0570874  0.0493787  0.0703465  
 0.0313333 -0.00208024  0.0280225  0.0592208    0.04401  0.0810623  
 0.0443061 -0.00922516   0.028025  0.0569484  0.0492897  0.0702404  
 0.0313347 -0.00192623  0.0280032  0.0593153   0.044019  0.0810873  
 0.0443188 -0.0090476  0.0280008   0.057098  0.0493013  0.0702624  
 0.0190162 0.00576483  0.0279801  0.0502899  0.0341111   0.086946  
0.00840996  0.0132416  0.0279869  0.0405191  0.0243681  0.0937371  
 0.0190689 0.00577414  0.0279853   0.050416  0.0341028  0.0869289  
  0.019069 0.00564764  0.0279917  0.0503509  0.0341029  0.0869409  
0.00838416  0.0131949  0.0279854  0.0404148  0.0243751  0.0937665  
 0.0190369 0.00570752  0.0279846  0.0503076  0.0341138  0.0869588  
 0.0191652 0.00553869  0.0280194  0.0505113  0.0341076  0.0869312  
0.00842761  0.0131013  0.0280044  0.0405289  0.0243709  0.0937457  
 0.0191175  0.0055926  0.0280053  0.0504328  0.0340971  0.0869206  
 0.0192419 0.00556816  0.0280177  0.0506927  0.0341778   0.087074  
0.00847858  0.0130551  0.0280181  0.0406808  0.0243919  0.0937984  
 0.0192053 0.00553664  0.0280203  0.0505968  0.0341445  0.0870027  
0.00848849  0.0131556  0.0280052  0.0407576   0.024399  0.0938339  
 0.0192116  0.0056622  0.0280044  0.0506771  0.0341537  0.0870342  
0.00284459  0.0174025  0.0279821  0.0230244  0.0126344  0.0954551  
0.00286224  0.0174025  0.0279883  0.0231201  0.0126337  0.0954476  
0.00285711  0.0173266  0.0279923  0.0230575  0.0126389  0.0954872  
0.00284887  0.0173663  0.0279861  0.0230324  0.0126381   0.095481  
0.00288691    0.01725  0.0280153  0.0231659  0.0126425  0.0954663  
0.00287202  0.0172878  0.0280038  0.0231117  0.0126392  0.0954712  
0.00291308  0.0172694  0.0280149  0.0233187   0.012659  0.0955396  
 0.0029003  0.0172489  0.0280164  0.0232364  0.0126508  0.0954985  
0.00290599  0.0173272  0.0280054  0.0233167  0.0126513  0.0955229  
 0.0914552 0.00519072    0.02791  0.0637529  0.0680502   0.102562  
 0.0844407 0.00544795  0.0281116 -0.0518792 -0.0452435  0.0961184  
 0.0842426 0.00582914  0.0279889 -0.0510729 -0.0442224   0.096209  
 0.0919318 0.00509283  0.0277495  0.0635806  0.0680792   0.102176  
  0.135551 -0.0187666    0.02761 -0.0362428 -0.0175426  0.0430032  
 0.0553999  0.0170658  0.0279199  0.0309252  0.0351301   0.153884  
 0.0519694  0.0189974  0.0279057  0.0450227  0.0436473   0.157805  
  0.135851 -0.0188509   0.027394 -0.0366168 -0.0177688  0.0431955  
  0.142684 -0.0211771  0.0268914  0.0356342  0.0402792  0.0485348  
 0.0510348  0.0166556  0.0280222 -0.0129973 -0.0162243   0.154389  
 0.0443423  0.0208766   0.028029 -0.0311679 -0.0284722   0.157177  
  0.142396 -0.0210936  0.0270812   0.035139  0.0396484  0.0481833  
 0.0842422  0.0139826  0.0265484 -0.00948611 0.00236816   0.090024  
 0.0739762  0.0190741  0.0288357  0.0214302  0.0267629   0.107776  
 0.0741189  0.0193615  0.0279907   0.020357  0.0251598   0.107998  
  0.081764  0.0141765  0.0318537 -0.0104597 0.000932472  0.0949008  
  0.111389 -0.00266272  0.0279941  0.0327155  0.0284772  0.0744234  
 0.0676989  0.0104346  0.0281355 0.000859185 -0.00223167   0.132969  
 0.0686179  0.0129498  0.0284947 -0.000569705 -0.00274697   0.124963  
  0.113619 -0.0030544  0.0252557  0.0332495  0.0308868  0.0778178  
 0.0711886  0.0129865  0.0278675  0.0565311   0.060627    0.13088  
 0.0632642   0.014981  0.0278361  0.0202154  0.0303145   0.141106  
 0.0617038   0.010331  0.0278432  0.0102262  0.0149522   0.150275  
  0.084841  0.0129312  0.0277992  0.0416467  0.0440445   0.101281  
   0.10833 -0.00528293  0.0277285 -0.0510237 -0.0358848  0.0680585  
  0.122557 -0.0111939  0.0270038 -0.0305888 -0.00588692   0.061291  
   0.13925  -0.022099  0.0262592 -0.0107326  0.0082583  0.0535041  
 0.0791517    0.01349  0.0282573 -0.0249025 -0.0197127  0.0989824  
  0.108171 -0.00530478  0.0279428 -0.0508841 -0.0360467  0.0678355  
  0.121904  -0.010996  0.0273452 -0.0300608 -0.00540397  0.0602352  
  0.138876 -0.0219859  0.0263655 -0.00975918 0.00962908  0.0528624  
 0.0789448  0.0134278  0.0284272   -0.02578 -0.0209116  0.0989017  
 0.0368682  0.0247811  0.0279635 0.00413145 0.00313767   0.171992  
 0.0702268  0.0138728  0.0279536  0.0543892  0.0586322   0.130831  
 0.0844873  0.0129609  0.0280558  0.0419683  0.0444833   0.100943  
 0.0643053  0.0124936  0.0280953 -0.0475045 -0.0446236   0.127022  
  0.116901 -0.00671459  0.0274552  0.0603847  0.0643034  0.0726324  
  0.116595 -0.00666492  0.0276997   0.060186  0.0642203  0.0724232  
  0.063791  0.0134881  0.0280687 -0.0425362  -0.040813   0.126875  
 0.0592632  0.0103517  0.0279477 0.00220358 0.00212948   0.152073  
 0.0885714  0.0109541  0.0297169  0.0270879  0.0257753  0.0900039  
 0.0709259  0.0175348  0.0288445 -0.00390759 -0.00184154   0.110648  
 0.0714387  0.0175131   0.029049 -0.00337584 -0.000611745   0.108877  
 0.0909865  0.0106084   0.026845  0.0266788  0.0256552  0.0911161  
 0.0675127 0.00828551  0.0283933 0.00206116 -0.000861818   0.138501  
  0.131091 -0.0147828  0.0228758  0.0232197  0.0257383    0.06321  
  0.128617 -0.0145392  0.0281005  0.0214722   0.021582  0.0663982  
 0.0639122  0.0104436  0.0278046 0.00885532  0.0159887   0.147137  
 0.0612363   0.012671  0.0281094 -0.00871777 -0.0143907   0.139947  
  0.151998 -0.0254768  0.0271083 -0.00433052  0.0110806  0.0330197  
  0.040343  0.0227206  0.0279358  0.0163154  0.0129955   0.170241  
  0.151907 -0.0254485  0.0271732 -0.00386519  0.0116198   0.033007  
  0.139029 -0.0216091  0.0255384  0.0136264   0.020203  0.0569656  
  0.139298 -0.0216963   0.025662  0.0150565  0.0233027  0.0586488  
  0.065501 0.00753804  0.0279235 0.00486211 0.00337008   0.145763  
  0.068831  0.0147497  0.0282859 -0.0184685 -0.0212242   0.118205  
  0.101663 0.00338461  0.0277369  0.0445286   0.042668  0.0834549  
   0.10232 0.00322353  0.0272011  0.0446363   0.042974  0.0842074  
  0.069717  0.0149916  0.0282801 -0.0152519 -0.0175303   0.116467  
  0.103311 0.000264764  0.0304109 -0.0175915 0.00325128   0.076285  
 0.0684336   0.016975  0.0275173  0.0137233  0.0213427   0.126038  
 0.0678251  0.0154392  0.0280974  0.0165774  0.0265618   0.129001  
  0.106175 -0.000104312  0.0252637 -0.0186285 0.00296756  0.0753176  
 0.0755803  0.0179032  0.0309932  0.0167925  0.0198569  0.0999613  
 0.0731294  0.0182944  0.0315241 -0.00164367 0.00524552   0.101134  
 0.0749448  0.0178897  0.0287297 -0.000720587 0.00748049  0.0983103  
 0.0773361  0.0178799  0.0278556  0.0156607  0.0175609  0.0987857  
 0.0680083 0.00610951  0.0280325 0.00373801 0.00355132   0.142192  
 0.0922397 0.00791581  0.0280821 -0.0279021 -0.0123661  0.0846679  
 0.0725617  0.0174603  0.0280595  0.0304257  0.0376873   0.117326  
 0.0729427  0.0176605  0.0279601  0.0284609  0.0363583   0.116609  
 0.0916424 0.00807451  0.0284061 -0.0278623 -0.0128428  0.0834738  
  0.132285 -0.0173363  0.0249419 -0.0103334 0.00947925   0.058253  
 0.0676449 0.00844508  0.0278171 0.00771191  0.0131597   0.143349  
  0.132676 -0.0175982  0.0264398  -0.012117 0.00646158  0.0641191  
 0.0770557  0.0158033   0.028991   -0.01495 -0.00894963   0.100067  
 0.0822257  0.0152948  0.0279427  0.0296686  0.0323689   0.100535  
 0.0818182  0.0153252  0.0285481  0.0303744  0.0328647   0.100182  
 0.0774924  0.0157237  0.0285932 -0.0140129 -0.00770103   0.100098  
 0.0666674  0.0118024  0.0281684 -0.00454477 -0.00899863   0.131489  
  0.120108 -0.00849253  0.0266261  0.0377964    0.03504  0.0691894  
  0.120974 -0.00872049  0.0265203  0.0384432  0.0365782  0.0718367  
  0.118574 -0.00850527  0.0279102 -0.0161079 0.00628702  0.0666255  
 0.0678123  0.0125441  0.0275372    0.01028  0.0183481   0.135622  
  0.120881 -0.0088691  0.0253521  -0.017181 0.00543523  0.0686125  
 0.0674086  0.0120041  0.0279552  0.0106572  0.0183719   0.135959  
  0.067688 0.00710584  0.0279421 0.00699395  0.0116582   0.143636  
 0.0704538  0.0161592  0.0286123 -0.0105538 -0.0106021   0.113856  
 0.0651963  0.0136913  0.0281912 -0.0142173 -0.0185426   0.129458  
 0.0649738  0.0115717  0.0281989 -0.00333894 -0.00774316    0.13624  
 0.0693053  0.0143297  0.0284501 -0.00205855 -0.00242339   0.121295  
 0.0678865  0.0140477  0.0284083  -0.007363 -0.00942149   0.124727  
  0.136201 -0.0188147  0.0244928  0.0188355  0.0246032  0.0606408  
  0.125475 -0.0114286  0.0258166  0.0318097  0.0323605  0.0691729  
  0.131229 -0.0150807   0.026618  0.0375399  0.0388015  0.0608375  
  0.140629  -0.021435  0.0263147   0.024234  0.0308071   0.053814  
  0.132914 -0.0164886  0.0263312  0.0292653  0.0325366   0.061608  
 0.0663657 0.00778053   0.028123 0.00338717 0.00147334    0.14251  
 0.0670243  0.0100877  0.0281447 -0.00116359 -0.00496859   0.134713  
 0.0599479  0.0138346  0.0280901 -0.00902694 -0.0132441   0.142168  
  0.058584  0.0120081  0.0279814 -0.0030444  -0.005358   0.150171  
 0.0627683  0.0109493  0.0280194 -0.00248936 -0.00567254   0.142238  
  0.134861 -0.0185715  0.0265814  0.0174239  0.0210655  0.0610794  
  0.124369 -0.0112268  0.0263434  0.0307319  0.0298145  0.0666537  
  0.130665 -0.0149264  0.0268742   0.036948  0.0377683  0.0596709  
  0.140339 -0.0213466   0.026373   0.023407  0.0293503  0.0530124  
  0.132427 -0.0162995  0.0260987  0.0283445  0.0306741  0.0594201  
 0.0960174 0.00737947  0.0213417  0.0394767  0.0377485  0.0715275  
 0.0986109 0.00477254  0.0291237  0.0298218  0.0270652  0.0830174  
  0.116712 -0.00316499   0.019007   0.037608  0.0357686  0.0601252  
  0.105836 0.00252651  0.0197205    0.04004  0.0380008  0.0654743  
 0.0702784  0.0162226  0.0295795 -0.0010374 0.00579997   0.113111  
 0.0693166  0.0088143  0.0288757 0.00225193  0.0046777   0.132298  
  0.069771  0.0128917  0.0292226 0.000235315 0.00502817   0.122139  
 0.0705322  0.0164375   0.027928 -0.000703855 0.00288863   0.110147  
 0.0701344   0.015606  0.0288401 -0.00234378 -0.00175785   0.116007  
 0.0695747  0.0103046  0.0273253 0.00197747 0.00266202   0.126685  
 0.0700578   0.013665  0.0275727 0.000321442 0.00266797   0.117803  
 0.0945377 0.00683351  0.0351007  0.0393044  0.0398243    0.10081  
  0.101207 0.00436187  0.0259421  0.0298639  0.0280218  0.0848937  
  0.115659 -0.00376974  0.0328125  0.0386025   0.040322  0.0896802  
  0.104352 0.00199142  0.0344914  0.0403256  0.0414643  0.0967419  
 0.0820755 0.00969975  0.0281076 -0.0371435 -0.0311864  0.0981743  
 0.0860154  0.0107745  0.0281399 -0.0260537 -0.0155971  0.0916802  
 0.0994308 0.00207945  0.0278497 -0.0383067 -0.0227112  0.0776194  
 0.0969934 0.000245841  0.0278678 -0.0513553 -0.0400661  0.0820235  
 0.0915282 0.00571494  0.0279855 -0.0378913 -0.0267909  0.0874192  
 0.0883643  0.0091975  0.0279657  0.0522929  0.0557175   0.102015  
 0.0783116  0.0153357  0.0280827  0.0358365  0.0410867   0.109672  
 0.0717605  0.0161473  0.0280101  0.0414011  0.0478069   0.124027  
 0.0809372 0.00968038  0.0279393  0.0589267  0.0636568   0.117694  
 0.0800011  0.0128076  0.0279956  0.0468297   0.051992   0.113745  
  0.088878 0.00909791  0.0277481  0.0521346   0.055533   0.101909  
 0.0785763  0.0154719  0.0278894  0.0346378  0.0398309   0.109307  
 0.0725638  0.0159428  0.0278939  0.0408284  0.0475599   0.123058  
 0.0815526 0.00924245   0.027819  0.0600989  0.0646874   0.117531  
 0.0803664  0.0128094  0.0278377  0.0464628  0.0516957   0.113526  
 0.0819453 0.00951403  0.0282614 -0.0379976 -0.0322019  0.0981353  
 0.0856003  0.0108375  0.0284601 -0.0264478 -0.0162385  0.0910864  
   0.09902 0.00216825   0.028146 -0.0382055 -0.0229083  0.0770362  
  0.097064 -2.70292e-07  0.0280378 -0.0517169 -0.0406052  0.0817404  
 0.0912984 0.00564695  0.0282177  -0.038273 -0.0273096  0.0870463  
  0.124136 -0.0178812  0.0278252 -0.0518054 -0.0467147  0.0558435  
 0.0953003 -0.0067385  0.0279741 -0.0714251 -0.0605465  0.0922702  
  0.110627 -0.0129285  0.0279053 -0.0620424 -0.0541978  0.0738802  
 0.0688357  0.0107839  0.0279223  0.0839194  0.0739023   0.143266  
   0.10113 -0.00571066  0.0278492  0.0805077  0.0846523    0.10559  
 0.0853923 0.00220683  0.0278916  0.0833686  0.0800812   0.125046  
 0.0685596  0.0113052  0.0279649  0.0816938  0.0725803   0.142676  
  0.100934 -0.00567454  0.0279398  0.0805509  0.0846573   0.105596  
 0.0848012 0.00270131  0.0279563  0.0822449  0.0792974   0.125179  
  0.123974 -0.0179159  0.0279537 -0.0516691 -0.0468073  0.0556979  
 0.0953393 -0.0070446   0.028048 -0.0720388 -0.0611613  0.0923234  
  0.110663 -0.0131442  0.0280067  -0.062215 -0.0544853  0.0736509  
  0.133357 -0.0143333  0.0250146  0.0106749  0.0218881  0.0660455  
  0.123015 -0.00729818  0.0312521  0.0339005  0.0384047  0.0848256  
  0.128867 -0.0107646  0.0280196  0.0224596  0.0305959  0.0754552  
 0.0688822 0.00582242  0.0277921 0.00491562  0.0064944   0.143033  
 0.0696242 0.00803643  0.0273232 0.00301235 0.00368742   0.132656  
 0.0693259 0.00643677  0.0275369 0.00387614  0.0052342   0.138538  
   0.13327 -0.0142586  0.0242723 0.00904244  0.0176332   0.063634  
  0.124229 -0.00683245  0.0191719  0.0329734  0.0333824  0.0590623  
  0.129557 -0.0105436  0.0215547  0.0210155  0.0256897   0.061067  
 0.0693793  0.0112677  0.0269113 0.00896826  0.0121682   0.135725  
 0.0695712 0.00893234  0.0269775 0.00750914  0.0103549   0.138984  
   0.06585 0.00875412  0.0277938 0.00862196  0.0140126   0.145232  
 0.0656973  0.0112269  0.0277615  0.0100925  0.0170232   0.141398  
 0.0678406  0.0100377  0.0274845 0.00895763   0.013509   0.139444  
 0.0676588  0.0137964  0.0280812  0.0138504  0.0231887   0.132104  
 0.0693361  0.0174868  0.0273202  0.0133187  0.0164737   0.123442  
 0.0693912  0.0147653  0.0270121  0.0114973  0.0141532    0.12917  
 0.0722799  0.0201713  0.0299549  0.0144128  0.0140505   0.102874  
 0.0808691  0.0133789  0.0263796  0.0257666  0.0279243  0.0859663  
 0.0758664  0.0154147  0.0289032  0.0180035  0.0190106  0.0928937  
 0.0780572  0.0137946  0.0274703 -0.0111198 -0.00350146  0.0870029  
 0.0713769   0.018693  0.0314046 -0.000580859 0.00965898   0.101932  
 0.0746768  0.0146667  0.0298833 -0.00469957 0.00425062  0.0922285  
 0.0774124  0.0133553  0.0342422 -0.0101355 0.000791847   0.101219  
  0.072242   0.018669  0.0290578 0.000269216 0.00758048  0.0992987  
 0.0744085  0.0145044  0.0326513 -0.00353581 0.00570178  0.0980988  
 0.0730412  0.0200098    0.02947  0.0132293  0.0154755   0.103567  
 0.0801198  0.0131545  0.0338872  0.0244352   0.026693   0.102163  
 0.0755328  0.0152437  0.0327022  0.0164792  0.0186883   0.100382  
 0.0999708 0.00504361  0.0207237 -0.0274737 -0.0108542  0.0662458  
  0.118502 -0.00514649  0.0189275 -0.0245809 -0.00594173   0.057311  
  0.110442 -0.00354193  0.0289741 -0.0169762 0.00460794  0.0716115  
  0.108903 -4.22774e-05  0.0192582  -0.027752 -0.0104106  0.0603156  
 0.0696832  0.0179959  0.0288525   0.012282  0.0174152    0.12479  
  0.069317  0.0114971  0.0285094 0.00933096  0.0143537   0.137863  
 0.0681574  0.0150062  0.0275511   0.012216  0.0199463   0.130771  
 0.0695854  0.0149292  0.0287087  0.0112489  0.0160685   0.131269  
 0.0989629 0.00435095   0.035576 -0.0272762 -0.00829623   0.098165  
  0.116856 -0.00562519  0.0331139 -0.0256814 -0.00589655  0.0865573  
  0.113187 -0.00401962  0.0255412 -0.0179436 0.00415704  0.0728822  
  0.107159 -0.00051222  0.0349449 -0.0283573 -0.00876101  0.0932203  
 0.0738403  0.0167402  0.0287163 -0.00801605 -0.00372486   0.104844  
 0.0786595  0.0144769  0.0284471 -0.0197807 -0.0138288  0.0995135  
 0.0742451    0.01436    0.02827 -0.0201614 -0.0188891   0.108313  
 0.0710089  0.0161973  0.0285324 -0.0092126 -0.00881153   0.112532  
 0.0743084  0.0155429  0.0285346  -0.013901 -0.0112374    0.10691  
 0.0859863  0.0130479  0.0281699  0.0300278  0.0305562  0.0932232  
 0.0833432   0.014058  0.0282306  0.0363572  0.0389366   0.100777  
 0.0936095 0.00807846  0.0278963  0.0436798  0.0438127  0.0919302  
 0.0954353 0.00743561  0.0277331  0.0365332  0.0350743  0.0862753  
 0.0900438  0.0104801  0.0280566  0.0365334  0.0366457   0.092924  
 0.0866829  0.0128624   0.028435  0.0295523  0.0304164  0.0963636  
 0.0836663  0.0140562  0.0279168  0.0357241  0.0384376   0.101264  
 0.0940708 0.00798815  0.0275277  0.0435408  0.0437591   0.092522  
 0.0962855 0.00719069  0.0278376  0.0364362  0.0353936  0.0892232  
 0.0906432   0.010348  0.0278434  0.0362274  0.0366265   0.094453  
 0.0733536  0.0167178  0.0290424 -0.00868642 -0.00462695   0.105908  
  0.078337  0.0144831  0.0286473 -0.0206478 -0.0149257  0.0993913  
 0.0737951  0.0141774   0.028366 -0.0220618 -0.0210739   0.109122  
 0.0738601  0.0154783   0.028621 -0.0150259 -0.0127075   0.107729  
  0.111751 -0.00255057  0.0268443  0.0421118  0.0396871  0.0779232  
  0.109505 -0.00175268  0.0273665  0.0528331  0.0533186  0.0791532  
  0.131132  -0.013996  0.0271759  0.0485154   0.052821  0.0596526  
  0.121395 -0.00863621   0.027008  0.0459164  0.0460683  0.0692627  
  0.110969 -0.00234913  0.0272943  0.0417482  0.0388338  0.0764738  
  0.109044 -0.00164274  0.0276702  0.0527073   0.053156  0.0786192  
  0.130822 -0.0139238  0.0274096   0.048151  0.0524627  0.0593473  
  0.120891 -0.0085044  0.0272841  0.0455533  0.0454894  0.0683917  
 0.0680473  0.0134505  0.0282405 -0.00975275 -0.0136706    0.12419  
 0.0674113  0.0145129  0.0281653 -0.0280462 -0.0290778   0.121727  
 0.0564677  0.0158009  0.0280505 -0.0283004 -0.0291961   0.142612  
 0.0630512  0.0145461  0.0281302 -0.0184851 -0.0217731   0.133245  
 0.0710392  0.0193867  0.0278288  0.0153601  0.0168344   0.113864  
 0.0753652  0.0185864  0.0290876  0.0203802  0.0246268   0.102436  
 0.0721011  0.0199961   0.028404  0.0157368  0.0159265   0.107641  
 0.0898192 0.00841981  0.0249161 -0.0215264 -0.0085726  0.0759483  
 0.0767675  0.0163553  0.0320417 -0.00570337 0.00394983  0.0984046  
 0.0837046  0.0111966  0.0258888 -0.0175333 -0.00690596  0.0807775  
 0.0894352 0.00788418  0.0335909 -0.0216735 -0.00561353  0.0960301  
  0.079265  0.0160467  0.0272595 -0.00475545 0.00534808  0.0938402  
 0.0829355   0.010788   0.034281  -0.017007 -0.00334257  0.0994919  
 0.0711131  0.0194239  0.0287685  0.0150486  0.0191253   0.115954  
 0.0757139  0.0187414  0.0287152  0.0194256  0.0230272   0.103895  
 0.0722084  0.0198785  0.0294604  0.0149887  0.0182264   0.110017  
  0.104494 -0.00082027  0.0278111  0.0621648  0.0663776  0.0881271  
   0.12837 -0.0156372  0.0278197  0.0598969   0.078456  0.0673797  
   0.11554 -0.0113269  0.0278858  0.0704394  0.0821934  0.0866999  
 0.0752438 0.00869432  0.0281053 -0.0499058 -0.0451147   0.111569  
 0.0619769  0.0107879   0.028046 -0.0759303 -0.0590866   0.133031  
 0.0796833 0.00113957  0.0280486 -0.0753062 -0.0608926   0.112413  
 0.0748169 0.00945221   0.028033 -0.0467204 -0.0427899   0.111823  
  0.062112  0.0112922  0.0280295  -0.071828 -0.0567575   0.132533  
 0.0793017 0.00187199  0.0280054 -0.0729315 -0.0594127   0.112765  
  0.104758 -0.000836501  0.0276123  0.0622179  0.0663811  0.0881735  
  0.128599 -0.0156503  0.0276803  0.0600754  0.0785524  0.0675276  
   0.11576 -0.0113483  0.0277718  0.0705404  0.0822403  0.0867338  
 0.0673117  0.0126606  0.0282484 -0.00222809 -0.00563077   0.128497  
 0.0684516  0.0102513  0.0279263 0.00085138 -0.000457249   0.130737  
  0.117074 -0.00563144  0.0264867  0.0356421  0.0340217  0.0751362  
  0.120482 -0.0069772  0.0278629  0.0332348  0.0343683  0.0780218  
  0.115811 -0.00533317  0.0266568   0.034961  0.0320021  0.0710035  
  0.120049 -0.00654074  0.0239404  0.0323099  0.0307667  0.0659875  
 0.0670543  0.0140145  0.0281995 -0.0317793 -0.0321799   0.122798  
 0.0549272  0.0165445  0.0280613 -0.0405405 -0.0372009    0.14287  
 0.0541892  0.0166679  0.0280743 -0.0186419 -0.0210336   0.147945  
 0.0609257   0.015334  0.0281364 -0.0258524  -0.027068   0.135974  
 0.0806745  0.0144395  0.0291852 -0.0144549 -0.00533054  0.0967137  
  0.073353  0.0176665  0.0298399 -0.00403703 0.00161241     0.1041  
 0.0764456  0.0161859  0.0294161 -0.0090058 -0.0018776   0.100486  
 0.0775182  0.0172324  0.0285017  0.0256607  0.0290716   0.104496  
 0.0812528  0.0146476  0.0307089   0.021446  0.0218453  0.0960659  
 0.0801927  0.0159383  0.0285058  0.0253867  0.0272658  0.0983159  
 0.0778071   0.017248  0.0282096  0.0249059  0.0286823   0.104955  
 0.0835963  0.0143833  0.0271136  0.0206555  0.0211712  0.0950924  
 0.0806945  0.0158022   0.028834  0.0246459  0.0269431   0.100769  
  0.080191  0.0146795  0.0286837 -0.0151854 -0.00652426  0.0946937  
 0.0729558  0.0179373  0.0291963 -0.00468202 0.000249081   0.103985  
 0.0759979  0.0163774   0.029073 -0.00967247 -0.0027882  0.0995067  
 0.0404105   0.023465  0.0279952 -0.0139852 -0.0131817   0.165938  
 0.0491948  0.0172607  0.0279573 0.00302802 0.00214886   0.161706  
 0.0601364  0.0115172  0.0280294 -0.00346922 -0.00649438   0.146823  
 0.0515978  0.0172091  0.0280137 -0.00813274 -0.00989517   0.155912  
  0.148906 -0.0237199  0.0270743  0.0164447  0.0271705  0.0402168  
   0.14735 -0.0197751  0.0275054  0.0311688  0.0511418  0.0368985  
  0.153847 -0.0201502  0.0274936  0.0014034  0.0164222  0.0204764  
  0.151541  -0.019931  0.0274848  0.0163253  0.0356514  0.0287143  
 0.0310967  0.0310392  0.0280124 -0.0491414  -0.036962   0.168993  
 0.0200523  0.0392936  0.0279771 0.00538029 0.00139395    0.18608  
 0.0248063  0.0364197  0.0279942 -0.0220493 -0.0178783   0.178934  
 0.0452634  0.0198982  0.0279766 -0.00107783 -0.0030372   0.163695  
 0.0352672  0.0281833  0.0280118 -0.0360295 -0.0288574    0.16678  
  0.022319  0.0378311  0.0279654  0.0145857 0.00883201   0.185055  
 0.0284942  0.0335595  0.0279876 -0.0137014 -0.0114053   0.176928  
  0.149021 -0.0237538   0.027021  0.0169197   0.027768  0.0404212  
  0.147562 -0.0198072  0.0273826    0.03155  0.0515549  0.0370963  
  0.153797  -0.020141   0.027521 0.00182017  0.0168563  0.0204681  
  0.151628 -0.0199402   0.027435  0.0167321  0.0361006  0.0288166  
  0.144749 -0.0220352  0.0273924 -0.0194783 -0.00253042  0.0380971  
  0.144557 -0.0210585  0.0277512 -0.0244311 -0.0196108    0.02898  
  0.149868  -0.020303  0.0276367 -0.0103162 -0.000724789  0.0242347  
  0.144958  -0.022093   0.027247 -0.0198961 -0.00291781  0.0382069  
  0.144777 -0.0210839  0.0276327 -0.0247588 -0.0198263  0.0291141  
  0.150005 -0.0203151  0.0275617 -0.0106973 -0.0010609  0.0243177  
 0.0462034  0.0212452  0.0279195  0.0311015  0.0285797   0.165185  
 0.0381948  0.0285855   0.027944  0.0634608  0.0478908   0.173535  
 0.0295619  0.0342115  0.0279545  0.0394654  0.0283645   0.180677  
  0.046734  0.0210132  0.0280292 -0.0645568 -0.0489303   0.151626  
  0.139257  -0.017952  0.0275325  0.0451474  0.0652812  0.0515919  
  0.139031 -0.0179303  0.0276705  0.0448506  0.0650196  0.0513967  
 0.0478684  0.0208092  0.0280242 -0.0549299 -0.0432708    0.15159  
 0.0749615  0.0116645  0.0282309 -0.0352856 -0.0323234   0.110504  
 0.0990676 0.00377681  0.0278284  0.0525752  0.0546568  0.0906229  
 0.0994267 0.00372584  0.0275688   0.052506  0.0546132  0.0909533  
 0.0751151  0.0120514  0.0281422 -0.0328496 -0.0303129    0.11017  
 0.0460825  0.0207953  0.0279327  0.0213035  0.0208787   0.164695  
 0.0404862  0.0270877  0.0279483  0.0534153  0.0425189   0.170685  
 0.0303825  0.0334969  0.0279599  0.0332556  0.0237865   0.179814  
  0.145189 -0.0242452  0.0266836 -0.00859163 0.00979996  0.0440102  
  0.139802 -0.0218499  0.0257894 0.00249341  0.0153258  0.0553552  
  0.144011 -0.0231536  0.0265074 0.00822254  0.0209895  0.0481484  
 0.0523247  0.0162801  0.0278926  0.0125481  0.0144672   0.159725  
 0.0637765 0.00846235  0.0278745 0.00682625 0.00860007   0.148231  
 0.0552189   0.014022  0.0279364 0.00324251 0.00380698   0.155715  
  0.144972 -0.0241751  0.0267647 -0.00787442  0.0107447  0.0437282  
  0.139718 -0.0218399   0.025974 0.00374403  0.0176799  0.0558905  
  0.144063 -0.0231731  0.0264806 0.00901279  0.0222503   0.048351  
   0.05929  0.0141061  0.0278752  0.0189317  0.0247979   0.150713  
 0.0615964   0.010132  0.0278802 0.00607292 0.00924885   0.150086  
 0.0540515  0.0155905   0.027907  0.0129638   0.014336   0.157258  
  0.087625   0.010639  0.0238314  0.0329879   0.032699  0.0788683  
  0.071386  0.0175771  0.0300403 -0.00176234 0.00728184   0.106208  
 0.0716091  0.0176559  0.0288561 -0.00123848 0.00431416   0.104367  
 0.0865788  0.0101898  0.0346943  0.0321967  0.0334069   0.101911  
  0.122847 -0.0122689  0.0275682 -0.0446334 -0.0274842  0.0559939  
  0.135525 -0.0199913   0.027732 -0.0380332 -0.0336091  0.0421777  
 0.0621994  0.0159218  0.0279355  0.0428014  0.0470825   0.144009  
 0.0538609  0.0199597  0.0279569   0.068406  0.0578438   0.158362  
 0.0623838  0.0156496  0.0278897  0.0517503  0.0531213   0.145071  
 0.0536721  0.0197109  0.0279347  0.0752641   0.061717   0.159338  
  0.122613 -0.0122415  0.0277893  -0.044375 -0.0274378  0.0557809  
  0.135347 -0.0200023  0.0278578 -0.0377822  -0.033518  0.0419942  
  0.128415 -0.0146429  0.0272011 -0.0338336 -0.0112174  0.0531872  
  0.131423 -0.0165382  0.0266246 -0.0207889 0.00135557  0.0574524  
  0.137675 -0.0193945  0.0269345 -0.0210552 -0.000508109  0.0486042  
  0.058366    0.01735  0.0278734  0.0307906  0.0365004   0.149123  
 0.0624095  0.0127079  0.0278365  0.0152211  0.0225777   0.146167  
 0.0552982  0.0169921  0.0278802  0.0220406  0.0256342   0.155317  
  0.127971 -0.0145156  0.0274387 -0.0333719  -0.010884  0.0525509  
  0.130889 -0.0163772  0.0268591 -0.0200276 0.00226471  0.0565506  
  0.137326 -0.0192935  0.0271068 -0.0204688 0.000114921   0.048132  
 0.0639707 0.00846428  0.0279595 0.00306261 0.00261307   0.146951  
 0.0680066 0.00819509  0.0280738  0.0022126 0.000728093   0.137555  
 0.0644591 0.00995405  0.0280867 -0.0004515  -0.002865   0.142097  
  0.106891 -0.00120936  0.0275249 -0.0304193 -0.0102216  0.0732909  
  0.113596 -0.00573758  0.0275492  -0.036792 -0.0178786  0.0663037  
 0.0698088  0.0164635  0.0280094  0.0228333  0.0319413   0.124036  
 0.0628861  0.0162099  0.0278679  0.0232035  0.0310473   0.140667  
 0.0667756  0.0164647  0.0279444  0.0320517  0.0396436   0.133478  
 0.0683584  0.0164884  0.0278875  0.0251746  0.0342108   0.128768  
 0.0661662  0.0165343  0.0278834  0.0366168  0.0427758   0.135999  
  0.106193 -0.00102349  0.0279788 -0.0301471 -0.0103094   0.072357  
  0.113145 -0.00562593  0.0278238 -0.0365287 -0.0178664  0.0656935  
 0.0697068 0.00524932  0.0279908 0.00456311 0.00697775   0.142126  
 0.0696178 0.00670853   0.028493 0.00337758 0.00590552   0.137503  
 0.0639005  0.0138162  0.0277962   0.016511  0.0241889   0.141271  
  0.120252 -0.00939161  0.0266199 -0.0243334 -0.00138133   0.062849  
  0.098142 0.00387096  0.0284672 -0.0238759 -0.00644559  0.0788112  
  0.108644 -0.00221687  0.0273227 -0.0253068 -0.00532965  0.0707447  
  0.120994 -0.00966337  0.0271795 -0.0250817 -0.00195873  0.0665261  
 0.0992951 0.00360042  0.0277796  -0.024086 -0.00591121  0.0803994  
  0.109455 -0.00252118  0.0277841 -0.0257724 -0.00529637  0.0742496  
 0.0655545  0.0138626  0.0278365  0.0152837  0.0242061   0.138765  
  0.070287  0.0173718  0.0279129  0.0212635   0.029398   0.121816  
 0.0680063  0.0159187  0.0279083  0.0189657  0.0272593   0.130168  
   0.13524 -0.0192734   0.025794 -0.00987891 0.00979891  0.0561836  
  0.130209 -0.0111195  0.0231658 -0.00183731  0.0141409  0.0642937  
  0.134752 -0.0166675  0.0249893 0.00108837  0.0166273  0.0607186  
 0.0646166 0.00971815  0.0278192 0.00891382  0.0141651   0.146997  
  0.069785 0.00604817  0.0279019   0.006307  0.0101208   0.142457  
 0.0669043 0.00741972   0.027837 0.00622393 0.00959467   0.144889  
  0.135708 -0.0194736  0.0262094 -0.0111786 0.00792825  0.0586202  
  0.130188 -0.0112557  0.0259465 -0.00338645  0.0107698  0.0704833  
  0.134837 -0.0167202  0.0254312 -0.000383588  0.0133131  0.0619745  
  0.105574 0.00161873  0.0274382  0.0368194  0.0352886  0.0833118  
  0.104611 0.00191006   0.027099  0.0366033   0.034335  0.0792992  
 0.0692891  0.0146807   0.028374 -0.0062413 -0.00764246   0.119767  
  0.086869  0.0110627  0.0295061 -0.0184551 -0.00603858  0.0885988  
 0.0933887  0.0068239  0.0276682 -0.0209606 -0.00535644   0.079803  
 0.0737956  0.0185037   0.028084   0.024256  0.0303293   0.112286  
 0.0710057  0.0183961  0.0282216  0.0174795  0.0234526   0.118309  
 0.0736147  0.0183103  0.0283342  0.0257689  0.0320198   0.112232  
 0.0707452  0.0179981  0.0280002  0.0184453  0.0240771   0.118405  
 0.0880982  0.0109577  0.0278943 -0.0180776 -0.00519605  0.0883018  
 0.0941997 0.00637681   0.029651 -0.0210016  -0.003886   0.087651  
 0.0678466 0.00619216  0.0279735   0.005269 0.00731669   0.143623  
 0.0647778  0.0084058   0.027854 0.00587518  0.0078405   0.146833  
 0.0696147 0.00671775  0.0274376 0.00593639 0.00863396   0.141455  
  0.083048  0.0125596  0.0286473 -0.0208146 -0.0110441  0.0931281  
 0.0781893  0.0161877    0.02823  0.0308087  0.0353335   0.107093  
 0.0785102  0.0162441  0.0280763  0.0299176   0.034548   0.107248  
 0.0835856  0.0124054  0.0285344 -0.0202766 -0.0102264  0.0942274  
  0.125545 -0.0126735  0.0266524  -0.013553 0.00765854  0.0630018  
  0.127739 -0.0139404  0.0262669 -0.0171829 0.00416097  0.0599539  
 0.0677335  0.0105531  0.0276452 0.00929115   0.016064   0.139476  
 0.0651256   0.011834  0.0278164  0.0123731  0.0194627   0.143041  
  0.126909 -0.0129407  0.0256754 -0.0148997 0.00577553  0.0663425  
  0.128392 -0.0141526  0.0266164 -0.0181739 0.00300833   0.062829  
  0.124817 -0.00801526  0.0206284 -0.0140501 0.00344802  0.0601658  
 0.0694726 0.00864023  0.0282416 0.00791265  0.0122385   0.140892  
  0.123962 -0.00836231  0.0298159 -0.0153449  0.0017365  0.0792125  
-0.000159994  -0.010422   0.027979 0.000349792 0.00086845 0.00625623  
-0.000169889 -0.0104128  0.0279792 0.000358901 0.00087968 0.00626302  
-0.000262163 -0.0104222  0.0279881 0.000202303 0.000669178 0.00636407  
-0.000296786  -0.010402  0.0279893 0.000186257 0.000648089 0.00638104  
-0.000276592 -0.0104226  0.0279919 0.000303549 0.000831871 0.00640319  
-0.000285427 -0.0104198  0.0279923 0.000310627 0.000837139 0.00640695  
-0.00014281 -0.0104208  0.0279724 0.000182088 0.000703876 0.00621199  
-0.000143751 -0.0104179  0.0279721 0.000184114 0.000702405 0.00621426  
-0.000186861 -0.0104033  0.0279765 0.000153249 0.000659977 0.00623686  
-0.000158225 -0.0104576  0.0279803 0.000208806 0.000717224 0.00627139  
-0.000127596  -0.010473  0.0279789 0.000251313 0.000769072 0.00625998  
-0.000140357 -0.0104899  0.0279831 0.000246276 0.000757375 0.00629283  
-0.000140887 -0.0104857  0.0279831 0.000273312 0.00079056 0.00629538  
-0.000136276 -0.0104993  0.0279842 0.000257038 0.000770373 0.00630178  
-0.000148824 -0.0104976  0.0279853 0.00025874 0.000770276 0.00631423  
-0.000136052 -0.0104984   0.027984 0.000254699 0.000766424 0.00630016  
-0.000156694 -0.0104938  0.0279859 0.000257767 0.000768762 0.00632172  
-0.00015315 -0.0104866  0.0279847 0.000276254 0.000790606  0.0063093  
-0.00013552 -0.0104857  0.0279823 0.000270831 0.000786144 0.00628721  
-0.000206646 -0.0104697  0.0279883 0.000265268 0.000771795 0.00635703  
-0.000161887 -0.0104822  0.0279844 0.000234991 0.000742291 0.00630881  
-0.000163289 -0.0104835  0.0279856 0.000277377 0.000792046 0.00632039  
-0.000216022 -0.0104646  0.0279889 0.000263511 0.00077091 0.00636587  
-0.000185105 -0.0104703  0.0279856 0.000228799 0.000726296 0.00632603  
-0.000143853 -0.0104857  0.0279829 0.000240846 0.000749473   0.006292  
-0.000166374 -0.0104547  0.0279831 0.000313095 0.000834859 0.00629691  
-0.000167198 -0.0104485  0.0279802 0.000202869 0.000704402 0.00627366  
-0.000143886 -0.0104616  0.0279808 0.000301727 0.000820313 0.00627468  
-0.000191338 -0.0104612  0.0279867 0.000302778 0.000822393 0.00633237  
-0.000288723 -0.0104322   0.027992 0.000268331 0.000765249 0.00642383  
-0.000227326  -0.010412  0.0279872 0.000356584 0.000883473 0.00632661  
-0.00010803 -0.0104329  0.0279692 0.000246492 0.000771587 0.00619807  
-0.000128126 -0.0104678  0.0279781 0.000243871 0.000758587 0.00625441  
-0.000107375 -0.0104309  0.0279688 0.000247318 0.000769516 0.00619613  
-0.000223767 -0.0104116  0.0279827 0.00017121 0.000653351 0.00629758  
-0.000225653 -0.0104226  0.0279841 0.000178463 0.000664316 0.00630957  
-0.000198236 -0.0104647  0.0279877 0.000289537 0.000809208 0.00634615  
-0.000287531 -0.0104331  0.0279923 0.000267784 0.00076626 0.00642613  
-0.000248324 -0.0104124  0.0279893 0.000349603 0.00087965 0.00635487  
-0.000128776 -0.0104551  0.0279773 0.000292382 0.000813258 0.00625027  
-0.000124242 -0.0104552  0.0279765 0.000286259 0.000805492 0.00624248  
-0.00018492  -0.010399  0.0279758 0.000153643 0.00065962 0.00623722  
-0.000216935 -0.0104572  0.0279873 0.000228483 0.000719986 0.00634968  
-0.000120196 -0.0104281  0.0279721 0.000314857 0.000834919 0.00621695  
-0.000116445  -0.010429  0.0279718 0.00031301 0.000830182 0.00621098  
-0.000228873 -0.0104577   0.027989 0.000242308 0.00073487 0.00637219  
-0.000284309 -0.0104296  0.0279909 0.000236266 0.000707324 0.00640943  
-0.000229087 -0.0103955  0.0279861 0.000376103 0.000905696 0.00631535  
-0.000286501 -0.0103994   0.027992 0.000347638 0.00088252 0.00638567  
-0.000295751 -0.0104177  0.0279906 0.000228805 0.000693414 0.00640712  
-0.000287292 -0.0104283  0.0279922 0.000289349 0.000801293 0.00641762  
-0.000235439 -0.0104411  0.0279894 0.000307355 0.00083021 0.00636808  
-0.000199348 -0.0104672  0.0279877  0.0002836 0.00079664 0.00634656  
-0.000246599  -0.010451  0.0279901 0.000266725 0.000768302 0.00639101  
-0.0002409 -0.0104476  0.0279898 0.000287086 0.000799805 0.00638122  
-0.000345964 -0.0103943  0.0279945 0.000312754 0.000845893 0.00645735  
-0.000353572 -0.0104068  0.0279935 0.000266015 0.000756731 0.00647804  
-0.000348268 -0.0103996  0.0279941 0.000287734 0.00080027 0.00646966  
-0.000281357   -0.01043  0.0279922 0.000284221 0.000799763 0.00641639  
-0.000235894 -0.0104447  0.0279898 0.000297933 0.000819722 0.00637556  
-0.000206646 -0.0104656  0.0279884 0.000276914 0.000789508 0.00635642  
-0.000253555 -0.0104475  0.0279907 0.000264615 0.000767906 0.00639847  
-0.000244703 -0.0104465  0.0279903 0.000282174 0.000794612 0.00638759  
-0.000222628 -0.0104459  0.0279868 0.000215327 0.000698446   0.006344  
-0.00017683 -0.0104604  0.0279832 0.000215647 0.000714794 0.00630102  
-0.000193712 -0.0104297  0.0279813 0.000186146 0.000679702 0.00628428  
-0.000244955 -0.0104171  0.0279857 0.000186242 0.000660681 0.00633267  
-0.000209066 -0.0104391  0.0279844 0.000200825 0.000689407 0.00631628  
-0.000336167 -0.0103752  0.0279895 0.000175811 0.000613966 0.00639117  
-0.000258701 -0.0104127  0.0279866 0.000182269 0.00065624 0.00634185  
-0.000262409 -0.0103828  0.0279835 0.000146843 0.00062283 0.00629989  
-0.000296541 -0.0103793  0.0279865 0.000160606 0.000618649 0.00634059  
-0.000194278 -0.0104169  0.0279832 0.00035501 0.00087746 0.00629082  
-0.000263511 -0.0103757  0.0279887 0.000392141  0.0009209 0.00632993  
-0.000179689 -0.0103858  0.0279779 0.000395199 0.000905428 0.00624322  
-0.000222077 -0.0103805  0.0279834 0.000392729 0.00091427  0.0062841  
-0.000334488 -0.0103975  0.0279952 0.000308538 0.000842954 0.00645725  
-0.000353871 -0.0104064  0.0279948 0.000268653 0.000756336 0.00648211  
-0.000342859 -0.0104016   0.027995 0.00029082 0.000799618 0.00647105  
-0.000124805 -0.0103916  0.0279647 0.00016904 0.000705651  0.0061751  
-0.000122103 -0.0104248  0.0279701 0.000214977 0.000736322 0.00620401  
-8.6638e-05  -0.010402  0.0279602 0.000258042 0.000784528 0.00615484  
-0.000101575 -0.0103985  0.0279619 0.000215412 0.000745985 0.00616561  
-0.000140324 -0.0104921  0.0279834 0.000248103 0.00075844 0.00629606  
-0.000164668 -0.0104772  0.0279843 0.000233753 0.000736548 0.00630943  
-0.000170996 -0.0104833  0.0279859 0.000244704 0.000749847   0.006325  
-0.000146587 -0.0104967  0.0279849 0.00025508 0.000765847 0.00631075  
-0.000156265 -0.0104875  0.0279847 0.000246022 0.000752666 0.00631054  
-0.00026326 -0.0104185  0.0279908 0.000329388 0.000855709 0.00638048  
-0.000307972 -0.0103811  0.0279935 0.000363396 0.000906128 0.00639497  
-0.00032172  -0.010387  0.0279945 0.00033363 0.000872908 0.00642777  
-0.000136781 -0.0104922  0.0279832 0.000261975 0.000775774 0.00629365  
-0.000141899 -0.0104982  0.0279846 0.000258131 0.000770404 0.00630674  
-0.00015134 -0.0104932  0.0279852 0.00026658 0.000779366 0.00631258  
-0.000144737 -0.0104858  0.0279835 0.000273148 0.00078858 0.00629788  
-0.000144591 -0.0104923  0.0279842 0.000264719 0.000778944 0.00630331  
-0.000145735 -0.0104969   0.027985 0.000258757 0.00077132 0.00631079  
-0.0001428 -0.0104988  0.0279848 0.000256593 0.000768596 0.00630793  
-0.000143903 -0.0104983  0.0279848 0.00025662 0.000769164 0.00630784  
-0.000160566 -0.0104895  0.0279858 0.000266604 0.000778928 0.00632158  
-0.000151427 -0.0104847  0.0279843 0.00027472 0.000791132  0.0063065  
-0.000139785 -0.0104925  0.0279837 0.000264596 0.000780125 0.00629866  
-0.000149935  -0.010491  0.0279848 0.000265675 0.000780648 0.00630967  
-0.000155875  -0.010491  0.0279851 0.000248251 0.000757299 0.00631307  
-0.000138657 -0.0104946  0.0279836 0.000251959 0.00076456  0.0062972  
-0.000151661 -0.0104855  0.0279838 0.000240509 0.000748964  0.0063017  
-0.000147796 -0.0104924  0.0279844 0.000250067 0.000759888 0.00630535  
-0.000134072 -0.0104797  0.0279811 0.000264061 0.00078163 0.00627788  
-0.000133922 -0.0104812  0.0279809 0.000248169 0.000763188 0.00627568  
-0.000137459 -0.0104865  0.0279824 0.000257278 0.000772738 0.00628737  
-0.000140925 -0.0104655  0.0279795 0.000229679 0.000742771 0.00626524  
-0.000159559 -0.0104706  0.0279824 0.000222563 0.000729633 0.00629036  
-0.000145907 -0.0104754  0.0279816 0.000234233 0.000745237 0.00628292  
-0.000187725 -0.0104701  0.0279858 0.000231638 0.000730551 0.00632891  
-0.000190425 -0.0104392   0.027982 0.00019255 0.000690554  0.0062891  
-0.000222656 -0.0104406  0.0279859 0.000204581 0.00069229 0.00633194  
-0.000189778 -0.0104556  0.0279841 0.00021309 0.000710372 0.00631105  
-0.000126437 -0.0103926  0.0279643 0.000162851 0.000700747 0.00617055  
-0.00012202 -0.0104273  0.0279705 0.000213578 0.000737788 0.00620387  
-8.708e-05 -0.0104033  0.0279603 0.00025132 0.000778699 0.00615564  
-0.000102743 -0.0103996  0.0279618 0.000208751 0.000740051 0.00616358  
-0.00017607 -0.0104833  0.0279867 0.000262121 0.000771043 0.00633464  
-0.000172262 -0.0104732  0.0279857 0.000290323 0.000807409 0.00632115  
-0.000174776 -0.0104796  0.0279864 0.000275077 0.000787393 0.00633015  
-0.000183901 -0.0104795  0.0279872 0.00026032 0.000769581 0.00634187  
-0.000181344 -0.0104734  0.0279867 0.000284162 0.000801015 0.00633433  
-0.0001828 -0.0104773   0.027987 0.00027139 0.000783499 0.00633917  
-0.000136489 -0.0104769  0.0279805 0.000241233 0.000753575  0.0062734  
-0.000145478 -0.0104585   0.027979  0.0002229 0.000731243 0.00626349  
-0.000155034 -0.0104685  0.0279817 0.000227186 0.000733251 0.00628672  
-0.000314341 -0.0103859  0.0279902 0.000182725 0.000626047 0.00638474  
-0.00025919 -0.0103767  0.0279838 0.000142456 0.00061722 0.00629643  
-0.000288731 -0.0103806  0.0279873 0.000162609 0.000621602 0.00634081  
-0.00015266 -0.0104414  0.0279797 0.000325695 0.00084423 0.00626456  
-0.000167629 -0.0104619  0.0279839 0.000302715 0.000822277 0.00630352  
-0.000209735 -0.0104378  0.0279869 0.00032796 0.000851108 0.00633036  
-0.000182072 -0.0104398  0.0279836 0.000327475 0.000849232 0.00629789  
-0.00011851 -0.0104532  0.0279743 0.000248904 0.00077049  0.0062298  
-0.000150686 -0.0104404  0.0279766 0.00019547 0.000710234  0.0062437  
-0.000131365 -0.0104475  0.0279752 0.000222374 0.000740653 0.00623602  
-0.00013159 -0.0104771  0.0279803 0.000259072 0.000774289 0.00627096  
-0.000137249 -0.0104841  0.0279819 0.000252624 0.000765753 0.00628366  
-0.000140542 -0.0104737  0.0279816 0.000285677 0.000802634 0.00628084  
-0.000156776 -0.0104731  0.0279836 0.000288698 0.000805995 0.00629999  
-0.000286324 -0.0104109  0.0279922 0.000327665 0.000857491  0.0063979  
-0.000254336 -0.0104062  0.0279894 0.000352484 0.000883732 0.00635308  
-0.000244855 -0.0104251  0.0279894 0.000327266 0.00085497 0.00636171  
-0.000118544 -0.0104493  0.0279736 0.000244593 0.000763951 0.00622555  
-0.000155503 -0.0104341  0.0279764 0.000192882 0.000703466 0.00624533  
-0.000133797 -0.0104424  0.0279748 0.00021882 0.000734225 0.00623475  
-0.000127345  -0.010465  0.0279781 0.000269483 0.000788516 0.00625541  
-0.000124715  -0.010441  0.0279746 0.000303702 0.000824481 0.00623309  
-0.000111993 -0.0104308  0.0279704 0.000279249 0.000801469 0.00620697  
-0.000119855 -0.0104474  0.0279742 0.000273911 0.000794814  0.0062312  
-0.000211543 -0.0104649  0.0279879 0.000248436 0.000746397 0.00635482  
-0.000181288 -0.0104784  0.0279864 0.000248503 0.00075164  0.0063331  
-0.000208655 -0.0104142  0.0279809 0.000166325 0.000661933 0.00627664  
-0.000195922 -0.0103723  0.0279728 0.000123815 0.000641915 0.00621084  
-0.000233078 -0.0103778  0.0279789 0.000136472 0.000630015 0.00625759  
-0.000163249 -0.0104121  0.0279743 0.000169302 0.000683136 0.00622425  
-0.000159856 -0.0103828  0.0279683 0.000146174 0.000672523 0.00619047  
-0.000148042  -0.010455  0.0279803 0.00030384 0.000825172 0.00627444  
-0.000153269 -0.0104706   0.027983 0.000292059 0.000811378 0.00629589  
-0.000140168 -0.0104682  0.0279805 0.000282339 0.00080159 0.00627495  
-0.000182343 -0.0104604  0.0279855 0.000302507 0.000822573 0.00632155  
-0.000167484 -0.0104716  0.0279849 0.000289427 0.000807208 0.00631397  
-0.000169452 -0.0104341  0.0279813 0.000335412 0.000856542  0.0062808  
-0.000204825 -0.0104337   0.027986 0.000331362 0.000857158 0.00632454  
-0.000240121 -0.0104051   0.027988 0.000362567 0.000890956 0.00633747  
-0.000197014 -0.0104046  0.0279823 0.000367991 0.000892218 0.00628652  
-0.000201711 -0.0104203  0.0279845 0.000347994 0.000873334 0.00630745  
-0.000291211 -0.0104282  0.0279913 0.000250539 0.000730351 0.00641765  
-0.000346065 -0.0103924  0.0279917 0.000216553 0.000665845 0.00644989  
-0.000349273 -0.0103983  0.0279927 0.000242567 0.000713369 0.00646696  
-0.000204534 -0.0104647  0.0279871 0.000234558 0.000729259 0.00634638  
-0.000222697 -0.0104616   0.027989 0.00025426 0.000754005  0.0063696  
-0.000193786 -0.0104734  0.0279873 0.00024933 0.000750405 0.00634473  
-0.000192627 -0.0103706  0.0279737 0.000127052 0.000644122 0.00621574  
-0.000162535 -0.0104087  0.0279738 0.000171195 0.000682673 0.00622543  
-0.000156519 -0.0103816  0.0279688 0.00015146 0.000676761 0.00619493  
-0.000177892 -0.0104268  0.0279786 0.000180503 0.000686808 0.00625899  
-0.000113914 -0.0103958  0.0279664 0.000341793 0.000855554 0.00618661  
-0.000144509 -0.0104203  0.0279755 0.00033636 0.000857066 0.00623979  
-0.000182766 -0.0103816  0.0279785 0.000397427 0.000910118 0.00625086  
-0.000144775 -0.0103899  0.0279721 0.000365369 0.000883869  0.0062165  
-0.000220422 -0.0104398  0.0279881 0.000315839 0.000838928 0.00635054  
-0.000113474 -0.0103954  0.0279659 0.000346598 0.000857741 0.00618021  
-0.000139032 -0.0104253  0.0279754 0.000331571 0.00084932 0.00623412  
-0.000145478 -0.0103911  0.0279718 0.00036808 0.000883631 0.00621043  
-0.000286118 -0.0104325  0.0279916 0.000252661 0.000737654 0.00641872  
-0.00034612  -0.010398  0.0279932 0.000226589 0.000675247 0.00645231  
-0.00034863 -0.0104016   0.027994 0.000248528 0.000716248  0.0064689  
-0.000273001 -0.0104264  0.0279895 0.000218566 0.000688161 0.00638642  
-0.000329937 -0.0103914  0.0279918 0.000204074 0.000651742 0.00641923  
-0.000263202 -0.0103675   0.027989 0.000402558 0.00093398 0.00632653  
-0.0002221 -0.0103742  0.0279836 0.000397586 0.000921982 0.00628531  
-0.000331612 -0.0103721  0.0279942 0.00036109 0.000908283 0.00641091  
-0.000338693 -0.0103822  0.0279944 0.000333999 0.00087366 0.00643663  
-0.000297106 -0.0104098    0.02799 0.000207485 0.000673023 0.00639552  
-0.00033945 -0.0103836  0.0279907 0.000199927 0.000642364 0.00642125  
-0.000296528 -0.0103727  0.0279915 0.000376566 0.000914396 0.00636651  
-0.000125084 -0.0104623  0.0279772 0.000262489 0.000778981 0.00624866  
-0.000120941  -0.010441  0.0279739 0.000299941 0.000818648 0.00622575  
-0.000110078 -0.0104301    0.02797 0.000278911 0.000798492 0.00620311  
-0.000117724 -0.0104456  0.0279735 0.000270018 0.00078893 0.00622549  
-9.65921e-05 -0.0104001  0.0279626 0.000302281 0.000823401 0.00616722  
-0.000135227 -0.0104581  0.0279787 0.000294343 0.000813234 0.00625914  
-0.000132914 -0.0104684  0.0279794 0.000274805  0.0007916  0.0062643  
-9.64112e-05 -0.0104011  0.0279628 0.000296212 0.000818561 0.00617078  
-0.000287119  -0.010374  0.0279916 0.000380277 0.000918096  0.0063624  
-0.000207228 -0.0104057  0.0279798 0.000162381 0.000656332 0.00627034  
-0.000229824 -0.0103736  0.0279793 0.000136036 0.000628392 0.00625803  
-0.000147318 -0.0104374  0.0279781 0.000319927 0.000841735 0.00625783  
-0.000179614 -0.0104196   0.027978 0.000177794 0.000681211 0.00625682  
-0.000253314 -0.0104389  0.0279888 0.000227285 0.000707045 0.00637778  
-0.000256572 -0.0104261  0.0279878 0.000206244 0.000681892 0.00636112  
-0.000250281 -0.0104459  0.0279895 0.000248264 0.00073832 0.00638639  
-0.000138328 -0.0104405   0.027977 0.000313362 0.000832277 0.00624626  
-0.00025836 -0.0104423  0.0279901 0.000238439 0.000720615 0.00639243  
-0.000239364 -0.0104443  0.0279883 0.000225467 0.000708618 0.00636609  
-0.000255679 -0.0104456  0.0279904 0.000252642 0.000745438 0.00639594  
 0.0919487 0.00468231  0.0281388  0.0634108  0.0687855   0.102643  
 0.0914193 0.00456662  0.0282537  0.0627932  0.0679795   0.102189  
 0.0913333 0.00479615  0.0278506  0.0625901  0.0678648   0.102274  
 0.0909171 0.00508409  0.0279254  0.0626298  0.0683416   0.102392  
 0.0851391 0.00502665  0.0280321  -0.051583 -0.0456839  0.0958934  
 0.0847583  0.0050778   0.028114 -0.0512716  -0.045276  0.0957946  
  0.084585 0.00532472  0.0278376 -0.0511424 -0.0453108  0.0959708  
 0.0840571 0.00558326  0.0279671 -0.0511231  -0.045821  0.0960905  
 0.0836931 0.00602347  0.0279631 -0.0502538  -0.044824  0.0961111  
 0.0842294 0.00576278  0.0278314 -0.0502677 -0.0442958  0.0959962  
 0.0843966 0.00551258  0.0281172 -0.0503947 -0.0442593  0.0958152  
 0.0847834 0.00545443  0.0280352 -0.0507087 -0.0446784  0.0959121  
  0.091211 0.00500263   0.027925  0.0623612  0.0683142   0.101861  
 0.0916289 0.00471371  0.0278502  0.0623229  0.0678348   0.101742  
 0.0917132 0.00448471   0.028256  0.0625262  0.0679513   0.101657  
 0.0922469 0.00460126  0.0281402  0.0631476  0.0687643   0.102114  
  0.135966 -0.0197215  0.0282695 -0.0367401 -0.0187518  0.0436568  
  0.135144 -0.0197888  0.0283377 -0.0355272 -0.0172289  0.0430906  
  0.135075 -0.0195949  0.0280036 -0.0350691 -0.0167754  0.0431993  
  0.134674 -0.0190642  0.0278867 -0.0344267 -0.0171768  0.0435307  
  0.055573  0.0166472  0.0281193  0.0306362  0.0354577   0.153978  
 0.0555302  0.0165834  0.0280492  0.0304496  0.0353185   0.153621  
 0.0553805  0.0168012   0.027926   0.030495   0.035382     0.1537  
 0.0552314  0.0169317  0.0280072  0.0305466  0.0353762   0.153775  
 0.0517576  0.0188925  0.0280035  0.0446111  0.0438114   0.157602  
 0.0519078  0.0187324  0.0279385  0.0445801  0.0438212   0.157537  
 0.0520704  0.0185121  0.0280525  0.0446026  0.0437784   0.157471  
  0.052142  0.0185936  0.0280842  0.0448068  0.0438935   0.157787  
  0.134667 -0.0190697  0.0278867 -0.0344318 -0.0171617  0.0435512  
  0.135069 -0.0196009  0.0280037 -0.0350751 -0.0167603  0.0432192  
  0.135138 -0.0197951   0.028338 -0.0355332 -0.0172137  0.0431102  
   0.13596 -0.0197279    0.02827 -0.0367468 -0.0187374  0.0436774  
  0.141125 -0.0216816  0.0279358  0.0328281  0.0389322  0.0489814  
  0.141241 -0.0222953  0.0281278  0.0335551  0.0389413  0.0485744  
   0.14122 -0.0224581  0.0284403  0.0339686  0.0394352   0.048547  
  0.141972 -0.0222983    0.02851  0.0354205  0.0413306  0.0495723  
 0.0507119   0.016976  0.0280648 -0.0133415 -0.0164067   0.154391  
 0.0508705  0.0168472  0.0279572 -0.0132069 -0.0164373   0.154442  
 0.0510679  0.0166301  0.0279737  -0.013055 -0.0162881   0.154367  
 0.0511731  0.0165106  0.0279781 -0.0128109 -0.0161015   0.154322  
 0.0445413  0.0206272   0.027989 -0.0309867 -0.0284251   0.157111  
 0.0444408  0.0207477  0.0279861 -0.0311864  -0.028557   0.157178  
 0.0442539  0.0209733   0.027962 -0.0312731 -0.0286844   0.157274  
 0.0440955  0.0211328  0.0280366 -0.0313392 -0.0286693   0.157231  
  0.141968 -0.0222913  0.0285099  0.0354305  0.0413444  0.0495725  
  0.141215  -0.022451  0.0284403  0.0339779  0.0394486  0.0485472  
  0.141236  -0.022288  0.0281276  0.0335643  0.0389546  0.0485746  
   0.14112 -0.0216743  0.0279357  0.0328374  0.0389459  0.0489814  
 0.0845683  0.0153976  0.0254987 -0.00979999 -0.0048032  0.0900213  
 0.0839278  0.0150344  0.0275871 -0.00933156 -0.0012203  0.0920715  
 0.0839812  0.0145926   0.028043 -0.00933159 -0.00109045  0.0918306  
 0.0837259  0.0136663  0.0296546 -0.0095049 -0.00375574  0.0926839  
 0.0747523  0.0188266  0.0287159  0.0194166  0.0265361   0.108201  
 0.0744885   0.019478  0.0280737  0.0200008  0.0258292    0.10773  
 0.0746975  0.0197693  0.0274383  0.0202843  0.0261906   0.107972  
 0.0741538  0.0197095  0.0273804  0.0212447  0.0275439   0.107588  
 0.0740501  0.0198427  0.0273469  0.0205727  0.0267446   0.107304  
 0.0745709  0.0199205  0.0274328  0.0195935  0.0253749   0.107713  
 0.0743602  0.0196368  0.0280545  0.0193043  0.0250076   0.107476  
 0.0746012  0.0189509  0.0287361   0.018662  0.0256798   0.107899  
 0.0837618   0.013643  0.0296084 -0.00987628 -0.00406958  0.0927087  
 0.0839804  0.0145583  0.0280455 -0.00967805 -0.00140415  0.0918595  
 0.0839285  0.0149991  0.0275881 -0.00967647 -0.00153426  0.0921051  
 0.0845123  0.0153585  0.0255681 -0.0101743 -0.00512808  0.0900923  
  0.108842 -0.00477333    0.03191   0.024319  0.0290338  0.0788023  
  0.110682  -0.004448  0.0285281  0.0244898  0.0267559  0.0759599  
   0.11073 -0.00394079   0.027876   0.024324  0.0266695  0.0760124  
  0.112047 -0.00280273  0.0250605  0.0230354  0.0282056  0.0753038  
 0.0676267  0.0110768  0.0276762 0.00181226 -0.00214419   0.132501  
  0.067573  0.0110096  0.0278743 0.00150814 -0.00240291   0.132497  
 0.0673982  0.0111281  0.0278888 0.00113376 -0.00274301   0.132547  
 0.0670815  0.0110397  0.0283728 0.000828054 -0.00255469   0.132499  
 0.0679674  0.0140006  0.0284141 -0.000295344 -0.00288163   0.125144  
 0.0684249  0.0141376   0.027808 0.000135377 -0.00286888   0.125264  
 0.0685913  0.0140104  0.0278309 0.000576466 -0.00244699   0.125202  
 0.0686505  0.0140706  0.0275658 0.000991147 -0.00225446   0.125159  
  0.112049 -0.00280373  0.0250611  0.0230371  0.0282045  0.0753012  
  0.110732 -0.00394224  0.0278759  0.0243244  0.0266695  0.0760107  
  0.110684 -0.00444927  0.0285283  0.0244901  0.0267559  0.0759581  
  0.108845 -0.00477442  0.0319087  0.0243189  0.0290317  0.0787986  
 0.0708009  0.0128486  0.0279872  0.0559322  0.0609263   0.130609  
 0.0711018  0.0126414   0.027882  0.0558314   0.060747    0.13047  
  0.071251  0.0124166   0.028134  0.0558767  0.0607304   0.130384  
  0.071488  0.0125441  0.0280885  0.0561656  0.0610317   0.130793  
 0.0630912  0.0146621  0.0279943  0.0197371  0.0305356   0.140553  
 0.0632736  0.0146019  0.0278637  0.0196065  0.0304911   0.140396  
 0.0633792  0.0144082  0.0280356  0.0194167  0.0303217   0.140285  
 0.0633602  0.0143995  0.0282534   0.019496  0.0304989   0.140834  
 0.0614514  0.0101926  0.0280333  0.0095808   0.014962   0.149878  
 0.0615287  0.0101423  0.0279389 0.00962078  0.0149112   0.149798  
 0.0616524 0.00997459  0.0280004 0.00955388  0.0148607   0.149739  
 0.0616545 0.00991957  0.0281828 0.00972663  0.0151433   0.150091  
 0.0840425  0.0132893  0.0275852  0.0403019  0.0448527   0.100545  
 0.0846453  0.0129811  0.0276318  0.0398911  0.0435987   0.100711  
 0.0845144  0.0126181  0.0283579  0.0399235  0.0435173   0.100454  
 0.0851185   0.012432  0.0284951  0.0402261  0.0447955   0.100988  
  0.107429 -0.00522898  0.0278763 -0.0492628 -0.0361225  0.0680309  
   0.10805 -0.00566081   0.027855 -0.0495865 -0.0353676  0.0678375  
   0.10815 -0.00592868  0.0282726 -0.0499292 -0.0355587   0.067659  
  0.108831 -0.00592488  0.0281604 -0.0508275 -0.0366232  0.0680184  
  0.121515 -0.0116293  0.0272141 -0.0266241 -0.00551156   0.061078  
  0.121855 -0.0125787  0.0279912 -0.0273611 -0.00407554  0.0606627  
  0.121841 -0.0129526  0.0284968 -0.0277035 -0.0043542  0.0603923  
  0.122272 -0.0129319  0.0291236 -0.0289491 -0.00678684  0.0617367  
  0.138129 -0.0241444  0.0278912 -0.00779571 0.00997409  0.0541477  
   0.13822  -0.025067  0.0282824 -0.00898112 0.00997677  0.0528167  
  0.138263 -0.0252505  0.0284694 -0.00927699 0.00963234  0.0526767  
  0.138301 -0.0248129   0.029045 -0.0105637 0.00776584  0.0543687  
 0.0786211  0.0142083  0.0277618 -0.0239767  -0.020933  0.0985064  
  0.079397  0.0139469  0.0276235 -0.0235625 -0.0197206  0.0986838  
 0.0794103  0.0136221  0.0281259 -0.0235248 -0.0195485   0.098423  
 0.0799143  0.0132739  0.0281334  -0.023695 -0.0202105  0.0984173  
  0.108941 -0.00600659   0.028157 -0.0509073 -0.0368342  0.0679302  
  0.108261 -0.00601275  0.0282707 -0.0500111 -0.0357765  0.0675726  
   0.10816 -0.00574675  0.0278563 -0.0496688  -0.035585  0.0677492  
  0.107541 -0.0053176  0.0278795 -0.0493454 -0.0363325  0.0679433  
  0.122283 -0.0129391  0.0291218 -0.0289678 -0.00679606  0.0617209  
  0.121851 -0.0129601  0.0284967 -0.0277232 -0.00436555  0.0603791  
  0.121865 -0.0125865  0.0279913 -0.0273807 -0.00408662  0.0606491  
  0.121525 -0.0116372  0.0272149 -0.0266448 -0.00552139  0.0610632  
  0.138302 -0.0248126  0.0290447  -0.010567 0.00776418   0.054366  
  0.138263   -0.02525  0.0284693 -0.00928048 0.00963065  0.0526748  
   0.13822 -0.0250665  0.0282823 -0.00898466 0.00997519  0.0528146  
   0.13813 -0.0241439   0.027891 -0.00779964 0.00997241  0.0541451  
 0.0799622  0.0130905  0.0281177 -0.0245915 -0.0213298  0.0985132  
 0.0794653  0.0134185  0.0281247 -0.0244188 -0.0207048  0.0985165  
 0.0794414  0.0137387  0.0276349 -0.0244533  -0.020873  0.0987735  
 0.0786742  0.0139967  0.0277895 -0.0248424 -0.0220199   0.098623  
 0.0369395   0.024519  0.0280336 0.00418673 0.00334973   0.172047  
 0.0368866  0.0245545  0.0280047 0.00396629 0.00320826   0.171972  
  0.036748   0.024759  0.0279791 0.00388715 0.00315758   0.172028  
 0.0366846  0.0248856  0.0280209 0.00383232 0.00315051   0.171974  
 0.0706099  0.0134276  0.0281015  0.0540027  0.0590657   0.130832  
 0.0703797  0.0133146  0.0281359  0.0537473  0.0587733   0.130419  
 0.0702415  0.0135432  0.0278691  0.0537226  0.0588058   0.130515  
 0.0699318  0.0137427  0.0279799  0.0538469   0.059001   0.130645  
 0.0851069  0.0123883  0.0284777  0.0405452   0.045294   0.101101  
 0.0845032  0.0125659   0.028355  0.0402401   0.044046   0.100573  
 0.0846286  0.0129248  0.0276364  0.0402065  0.0441243   0.100825  
 0.0840266  0.0132305  0.0276033  0.0406077  0.0453451   0.100674  
 0.0647561  0.0121877  0.0279786 -0.0472037 -0.0447952   0.126806  
 0.0645688  0.0122987  0.0280096 -0.0472764 -0.0447965   0.126855  
 0.0643442  0.0125353  0.0279044 -0.0473235 -0.0449409   0.126995  
 0.0640023  0.0127299  0.0280336 -0.0474007 -0.0450852   0.127052  
  0.115669 -0.00676642  0.0278513  0.0581566  0.0640267  0.0724308  
  0.116084 -0.00720458  0.0279046  0.0583564  0.0634165   0.072336  
  0.116107 -0.00743478  0.0283777  0.0587321  0.0637395  0.0722746  
   0.11696 -0.00737268  0.0282898  0.0599067  0.0652848  0.0728761  
  0.116963 -0.00738153  0.0282879  0.0599576  0.0653991  0.0729122  
   0.11611 -0.00744404  0.0283767  0.0587836  0.0638567   0.072312  
  0.116086 -0.00721426  0.0279046  0.0584079  0.0635336  0.0723727  
   0.11567 -0.0067771  0.0278522  0.0582087  0.0641424  0.0724674  
 0.0634052  0.0138038  0.0280397 -0.0424772 -0.0413007   0.126886  
 0.0637637  0.0136169  0.0278917 -0.0423674 -0.0411401   0.126842  
  0.063982  0.0133817   0.028005 -0.0422893 -0.0409784   0.126699  
 0.0641729  0.0132578  0.0279719 -0.0422011 -0.0409737   0.126637  
 0.0592709  0.0101741  0.0280268 0.00221592 0.00245429   0.152032  
 0.0592026  0.0102468  0.0279791 0.00197545 0.00216904   0.151928  
 0.0590391  0.0104277  0.0279627 0.00188146  0.0020779   0.151979  
 0.0589431  0.0104958  0.0280852 0.00174202 0.00216108   0.151964  
  0.088041  0.0111386  0.0309338  0.0213966  0.0273528  0.0921603  
 0.0891778  0.0119606  0.0282097  0.0219275  0.0247084  0.0907704  
 0.0892222  0.0124675   0.027597  0.0219843  0.0248208  0.0910014  
 0.0903575  0.0129788  0.0249751   0.022047  0.0277415   0.089033  
 0.0718284  0.0183185  0.0276612 -0.00144377 -0.00178794   0.109544  
 0.0716106  0.0185902  0.0278457 -0.00194422 -0.00165257   0.109921  
 0.0715862  0.0187987  0.0275574 -0.00233384 -0.00210114   0.110053  
 0.0708424  0.0186732  0.0280481 -0.00318691 -0.00304143   0.109519  
 0.0712472  0.0190748   0.027977 -0.00270198 -0.00184146   0.108179  
 0.0719895  0.0192337  0.0275271 -0.00177921 -0.000733053   0.108834  
  0.071987  0.0190225  0.0278365 -0.00140713 -0.000297044   0.108699  
 0.0722231  0.0187172  0.0276547 -0.0008533 -0.00048022   0.108269  
 0.0903572  0.0129827    0.02497  0.0220299  0.0277271  0.0890301  
 0.0892133  0.0124727  0.0275964  0.0219692  0.0248151  0.0910031  
 0.0891688  0.0119656    0.02821   0.021912  0.0247025   0.090773  
 0.0880234   0.011144  0.0309384  0.0213746  0.0273361  0.0921622  
 0.0669677 0.00883075  0.0283097 0.00134621 -0.00109636   0.137965  
 0.0671872 0.00891067  0.0279195 0.00160091 -0.00134084   0.138021  
 0.0673406 0.00878712  0.0279125 0.00187623 -0.00110396    0.13797  
 0.0674225 0.00884879  0.0277446 0.00210976 -0.000848107   0.137976  
  0.128961 -0.0172024  0.0265863  0.0192058  0.0264921  0.0644332  
  0.128205 -0.0183308  0.0282004  0.0202987  0.0255527  0.0640763  
   0.12822 -0.0186392  0.0285465  0.0204932  0.0257119  0.0641467  
   0.12657  -0.018444  0.0311782  0.0207211  0.0277095  0.0675587  
  0.126567 -0.0184411  0.0311784  0.0207233  0.0277101  0.0675612  
  0.128217 -0.0186365  0.0285465  0.0204946  0.0257113  0.0641481  
  0.128201 -0.0183279  0.0282004  0.0203001  0.0255521  0.0640778  
  0.128958 -0.0171995  0.0265861  0.0192067  0.0264922  0.0644348  
 0.0638173 0.00998486  0.0282394 0.00823128  0.0164359    0.14726  
 0.0638395  0.0100615  0.0279967 0.00809878  0.0161344   0.146833  
 0.0637369  0.0102133  0.0279218 0.00821534  0.0162237   0.146896  
 0.0636571  0.0102349   0.028028 0.00821055  0.0163035   0.147009  
 0.0614607  0.0126163  0.0279086 -0.00822576 -0.0142623   0.139641  
 0.0613372  0.0127585  0.0279409 -0.00848996 -0.0144792   0.139753  
 0.0611256  0.0129528  0.0279166 -0.00873711 -0.0147206   0.139833  
 0.0608753  0.0130475  0.0281276 -0.00898361 -0.0146958   0.139783  
  0.150938 -0.0261876  0.0281144 -0.00270467  0.0125199  0.0340442  
   0.15078 -0.0266097  0.0282117 -0.00372968  0.0118601  0.0333743  
  0.150812  -0.026669  0.0282971 -0.00421029  0.0112464  0.0333115  
  0.151351 -0.0264094  0.0282362 -0.00527344 0.00999334  0.0339037  
  0.040156  0.0227695  0.0280175  0.0159244  0.0130179    0.17013  
 0.0402218  0.0226452  0.0279731  0.0159699  0.0130321    0.17016  
 0.0403601   0.022439  0.0280149  0.0160336  0.0130508   0.170106  
  0.040403  0.0224397   0.028055  0.0162552  0.0131929    0.17026  
  0.151353 -0.0264089  0.0282361 -0.00527665 0.00999035  0.0338995  
  0.150814 -0.0266683   0.028297 -0.00421377  0.0112433  0.0333078  
  0.150782  -0.026609  0.0282117 -0.00373317   0.011857  0.0333704  
  0.150939  -0.026187  0.0281142 -0.00270857  0.0125164    0.03404  
  0.136785 -0.0247423  0.0293478  0.0131253  0.0221412  0.0598464  
  0.137253 -0.0253766  0.0284826   0.011961  0.0206215  0.0574121  
  0.137257 -0.0252665  0.0283539  0.0116814  0.0203414  0.0574254  
  0.137114 -0.0242989  0.0282157   0.010433  0.0199341  0.0591447  
  0.137115    -0.0243  0.0282159  0.0104302  0.0199329  0.0591442  
  0.137258 -0.0252674  0.0283539  0.0116785  0.0203405   0.057425  
  0.137254 -0.0253775  0.0284825   0.011958  0.0206206  0.0574116  
  0.136786 -0.0247432  0.0293474  0.0131221  0.0221399  0.0598453  
 0.0650669 0.00778107  0.0281477 0.00415969 0.00336455   0.145689  
 0.0651752 0.00777767  0.0279518 0.00435991 0.00319401   0.145691  
 0.0653205 0.00763505  0.0279587 0.00449409 0.00331125   0.145651  
 0.0653853 0.00757113  0.0279996 0.00472794 0.00367368   0.145782  
 0.0694456  0.0146137  0.0279314 -0.0176308 -0.0213233   0.117705  
 0.0692028  0.0148347  0.0279768 -0.0177357  -0.021278   0.117828  
 0.0690303  0.0150718  0.0277793 -0.0179606 -0.0215629   0.117985  
 0.0684971  0.0152239  0.0280595 -0.0183062 -0.0219425   0.117967  
  0.101963 0.00227224  0.0290253  0.0426851  0.0442596  0.0844224  
  0.101283 0.00248956  0.0285131  0.0418167  0.0417894  0.0834005  
  0.101458 0.00290219  0.0277424   0.041648  0.0417307  0.0836694  
  0.100936 0.00355054  0.0272497  0.0416929  0.0434946  0.0834817  
  0.100938 0.00355169  0.0272421  0.0415954   0.043387  0.0834753  
  0.101456 0.00290218  0.0277424  0.0415492  0.0416148  0.0836671  
  0.101281 0.00248872   0.028513  0.0417172  0.0416727  0.0833976  
  0.101956 0.00226962  0.0290342  0.0425829  0.0441506  0.0844235  
 0.0692516  0.0156579  0.0280527 -0.0151042 -0.0183292    0.11623  
 0.0698341  0.0155224  0.0277441 -0.0146833 -0.0178513   0.116304  
  0.069987  0.0152834  0.0279672 -0.0144308 -0.0175363   0.116144  
 0.0702439  0.0150313   0.027918 -0.0143064 -0.0176131   0.115987  
  0.104229 -0.00172755  0.0313384 -0.0120127 0.000504445  0.0779604  
  0.105548 -0.00110045  0.0283897 -0.0124323 0.00308421    0.07574  
    0.1055 -0.000567038  0.0278356 -0.0122774  0.0031152  0.0758853  
  0.106987 0.000390381  0.0245991 -0.0118624 0.000339407  0.0743775  
 0.0685023  0.0162662  0.0277908  0.0133742  0.0220017   0.125111  
 0.0687935  0.0162983  0.0276876  0.0129809  0.0217464   0.124853  
 0.0687628  0.0161427  0.0279647  0.0125822  0.0213691   0.124721  
 0.0686146  0.0156629   0.028731  0.0121333   0.021589   0.125284  
 0.0681304  0.0147192  0.0284995  0.0157567  0.0267371   0.129543  
 0.0681739  0.0149424  0.0280169  0.0158985  0.0264228   0.128781  
 0.0681486  0.0151256  0.0277533  0.0162128  0.0267149   0.128923  
 0.0678694  0.0151436  0.0278968  0.0165206  0.0269106   0.129173  
     0.107 0.000394847  0.0245879 -0.0117975 0.000387856  0.0743893  
  0.105503 -0.000565068  0.0278357 -0.0122189 0.00315958  0.0758917  
  0.105551 -0.0010986  0.0283893 -0.0123735 0.00312824  0.0757473  
  0.104221 -0.00172728  0.0313514 -0.0119514 0.000546662  0.0779756  
 0.0767726  0.0193143  0.0296375  0.0140234  0.0205592  0.0996832  
 0.0772889  0.0204814  0.0278664  0.0152456   0.019263  0.0997806  
 0.0773561  0.0208157  0.0274281  0.0154763  0.0195138  0.0999561  
 0.0782284  0.0205882    0.02564  0.0164589   0.021937  0.0977143  
 0.0758823   0.019656  0.0285166 0.000979077 0.00341597  0.0987486  
  0.075974  0.0205722  0.0277566 0.000207441 0.00476337  0.0993981  
 0.0759336  0.0208617  0.0274852 2.93267e-06 0.00450151  0.0995443  
 0.0765609  0.0205575  0.0261094 -0.00110157 0.00166828  0.0970321  
 0.0766419  0.0206105  0.0260277 -0.00089538 0.00185486  0.0968885  
 0.0759285  0.0209212  0.0274851 0.000170731 0.00466729  0.0994699  
 0.0759722  0.0206312  0.0277532 0.000374448 0.00492404  0.0993319  
 0.0758447  0.0197055  0.0285489 0.00116464 0.00356996  0.0986742  
 0.0782114  0.0206225  0.0256206  0.0163814  0.0218724  0.0977032  
 0.0773146  0.0208539  0.0274272  0.0154109  0.0194739  0.0999625  
 0.0772481  0.0205206   0.027864  0.0151794  0.0192241  0.0997913  
 0.0767172  0.0193512  0.0296423  0.0139485  0.0204963   0.099689  
 0.0677215 0.00645856  0.0279421 0.00385301 0.00381681   0.142285  
 0.0676679 0.00649074   0.027936 0.00367244 0.00344843   0.142126  
 0.0675463 0.00659099  0.0279509 0.00349746 0.00329972   0.142155  
 0.0674228 0.00655668  0.0282191 0.00329821  0.0035592   0.142194  
  0.091754 0.00863321  0.0270425 -0.0251693 -0.0138638  0.0837947  
 0.0924543 0.00802953  0.0276281 -0.0248765 -0.0114682  0.0840919  
 0.0923516 0.00759276   0.028321 -0.0250295 -0.0114782  0.0837243  
 0.0929979 0.00714547  0.0287644 -0.0257315 -0.0135391  0.0842877  
 0.0730527  0.0169503  0.0283236  0.0291828  0.0381359   0.117263  
 0.0728101   0.017039  0.0281709  0.0291919  0.0376833   0.116667  
  0.072834  0.0173265  0.0276641  0.0293761  0.0379126   0.116887  
 0.0723362  0.0174388  0.0278401  0.0298228  0.0385488   0.116929  
 0.0725942  0.0176749  0.0278051  0.0280117  0.0371264   0.115824  
  0.073091  0.0175868  0.0276397  0.0275147  0.0364402   0.115808  
 0.0730519  0.0172991  0.0281599  0.0273031  0.0361846   0.115582  
 0.0732785  0.0171619  0.0283667  0.0272322  0.0366518   0.116191  
  0.093012 0.00714527  0.0287604 -0.0257855  -0.013592  0.0842696  
 0.0923656 0.00758995  0.0283211 -0.0250826 -0.0115382   0.083706  
 0.0924677 0.00802624  0.0276287 -0.0249295 -0.0115276  0.0840731  
 0.0917672 0.00862957  0.0270465 -0.0252214 -0.0139125  0.0837812  
  0.130605 -0.0212597   0.030265 -0.00533704  0.0108444  0.0633365  
  0.131574 -0.0216632  0.0285422 -0.00486249  0.0121439  0.0607213  
  0.131566 -0.0213914  0.0282359 -0.0045633  0.0123589  0.0608347  
  0.131801 -0.0202143  0.0272662 -0.00329085  0.0123037  0.0626865  
  0.067339 0.00798293  0.0280073 0.00652219  0.0130696   0.142122  
 0.0673971 0.00798836  0.0279085 0.00655487  0.0128829   0.141962  
 0.0674574 0.00787666  0.0279829 0.00640358  0.0127523   0.141913  
 0.0673891 0.00767852  0.0283795 0.00640677  0.0131291   0.142232  
    0.1318  -0.020214  0.0272664 -0.00328785  0.0123047  0.0626886  
  0.131566 -0.0213909  0.0282359 -0.0045602  0.0123598  0.0608363  
  0.131574 -0.0216628  0.0285422 -0.00485948  0.0121449  0.0607227  
  0.130604 -0.0212592  0.0302652 -0.00533371   0.010846  0.0633384  
 0.0783556  0.0158355  0.0282312 -0.0126571 -0.00921834  0.0995914  
 0.0778344  0.0164382  0.0280727 -0.0126968 -0.00840491  0.0997797  
 0.0779568  0.0167793  0.0274741 -0.0128126 -0.00864122   0.100028  
 0.0771402  0.0169601  0.0274592 -0.0136211 -0.0104167   0.099419  
 0.0815574   0.016174  0.0271546   0.028617   0.033974  0.0993845  
 0.0821526  0.0159854  0.0274712  0.0277946  0.0319329   0.100043  
 0.0818881  0.0155761  0.0282952  0.0277044  0.0317119  0.0997274  
 0.0824631  0.0150624  0.0288261  0.0275953  0.0333329   0.100218  
 0.0825977  0.0149677  0.0287968  0.0281615   0.033825   0.100283  
 0.0820005  0.0154648  0.0283033  0.0282435   0.032219  0.0997909  
 0.0822671  0.0158727  0.0274752  0.0283289  0.0324358   0.100105  
 0.0816479  0.0160677  0.0271943  0.0291394  0.0344396  0.0994782  
 0.0772297  0.0170781  0.0274032 -0.0127951 -0.0095387  0.0991764  
 0.0780275  0.0169037  0.0274667 -0.0119526 -0.00766623  0.0998444  
 0.0779012  0.0165598  0.0280661 -0.0118359 -0.00742898  0.0995919  
 0.0784211  0.0159298  0.0282547 -0.0117862 -0.00830057  0.0993877  
 0.0661603  0.0124787  0.0282036 -0.00476599 -0.00931495    0.13152  
 0.0665042  0.0124394  0.0278684 -0.0044067 -0.00930388   0.131612  
 0.0667006  0.0122675  0.0279069 -0.00408017 -0.00897876   0.131534  
 0.0668244   0.012142  0.0278188 -0.00380178 -0.00876596   0.131379  
  0.119345 -0.0108337  0.0299208  0.0343916  0.0365987  0.0719421  
  0.119348 -0.0107953    0.02854  0.0332521  0.0334943  0.0699512  
  0.119373 -0.0103997  0.0280182  0.0330339  0.0333291  0.0701709  
  0.119248 -0.00935998   0.026948  0.0324305  0.0349843   0.070429  
  0.119247 -0.00936182  0.0269469  0.0324131  0.0349724  0.0704341  
  0.119371 -0.0104019  0.0280183  0.0330163  0.0333176   0.070176  
  0.119345 -0.0107974  0.0285399  0.0332343  0.0334827  0.0699563  
   0.11934 -0.0108358  0.0299227  0.0343718  0.0365855  0.0719473  
   0.11804 -0.0123545  0.0312342 -0.0116983 0.00481777   0.069886  
  0.119618 -0.0123084  0.0285047 -0.0115132 0.00701108  0.0669027  
  0.119601 -0.0118894  0.0280697 -0.0112405 0.00717415  0.0669937  
  0.120881  -0.010681  0.0255623 -0.0099173 0.00597559  0.0672422  
 0.0676251  0.0117776  0.0279044 0.00932649  0.0184042   0.134665  
 0.0677612  0.0117683  0.0278271 0.00923314  0.0182626   0.134418  
 0.0677887  0.0116471  0.0279691 0.00893193  0.0180011   0.134342  
 0.0676453   0.011273  0.0286172 0.00877584  0.0183158   0.134823  
  0.120878 -0.0106801   0.025562 -0.00990262 0.00598342  0.0672501  
  0.119599 -0.0118878  0.0280695 -0.0112268  0.0071806  0.0669998  
  0.119615  -0.012307  0.0285048 -0.0114996 0.00701786  0.0669086  
  0.118036 -0.0123531  0.0312359 -0.0116827  0.0048273  0.0698923  
  0.067355  0.0109861  0.0285975 0.00950444  0.0188638   0.136559  
 0.0674771  0.0113656  0.0279724 0.00960336  0.0185062   0.136091  
 0.0674352  0.0114913  0.0278413 0.00987059  0.0187366   0.136162  
   0.06731  0.0115191  0.0279062 0.00993428  0.0188404   0.136395  
 0.0674536  0.0066166  0.0283578 0.00632456  0.0120149   0.144086  
 0.0674826  0.0068405  0.0279828 0.00630821  0.0116069   0.143781  
 0.0674179 0.00694166  0.0279294  0.0063978  0.0116776   0.143817  
 0.0673739 0.00695211  0.0280147 0.00633939  0.0118534   0.143988  
 0.0716063  0.0175906  0.0282362 -0.00265042 -0.00189863   0.109415  
 0.0692724  0.0145753  0.0280657  -0.018004 -0.0212419   0.117886  
 0.0614119  0.0125547  0.0280007 -0.00837062 -0.0142968   0.139694  
 0.0677513    0.01056  0.0278795 0.00150297 -0.00225663   0.132068  
  0.071172  0.0164801  0.0278504 -0.00877538 -0.0106912   0.113248  
 0.0697014  0.0150815  0.0276302 -0.000243825 -0.00234361   0.120523  
 0.0656161  0.0135961   0.027916 -0.0135633 -0.0185217   0.129049  
  0.065039  0.0118963  0.0278199 -0.0025582 -0.00768688   0.135981  
 0.0709763  0.0161963  0.0281394 -0.00950035 -0.0107136   0.113373  
 0.0696548  0.0144406  0.0280317 -0.00103529 -0.00247728   0.120198  
 0.0655043  0.0135441  0.0280338  -0.013818 -0.0184977   0.129168  
 0.0650641  0.0116819   0.027934 -0.00277457 -0.00778237   0.135887  
 0.0682747  0.0144101  0.0278081 -0.00603204 -0.00944614   0.124274  
 0.0681893  0.0141423  0.0280223 -0.00652768 -0.00952909   0.124271  
 0.0717142  0.0184343  0.0278293 -0.00172086 -0.00168043   0.109781  
 0.0693139  0.0147366   0.027968 -0.0176457 -0.0213178   0.117762  
 0.0613965  0.0126948  0.0279337 -0.00835851  -0.014373   0.139721  
 0.0676006   0.010959  0.0278695 0.00163501 -0.00225455   0.132542  
 0.0709354  0.0167837  0.0279187 -0.00903336 -0.0105886   0.113513  
 0.0695833  0.0151491  0.0278445 -0.000641759 -0.00239499   0.120702  
 0.0654341  0.0137856  0.0279535 -0.0137501 -0.0186095   0.129186  
 0.0649462  0.0119698  0.0279105 -0.00284161 -0.00794196    0.13607  
 0.0710337  0.0166596  0.0279104 -0.00887934 -0.0106328   0.113403  
 0.0696316  0.0150559  0.0278323 -0.000465741 -0.00231056   0.120667  
 0.0655189  0.0137023  0.0279442 -0.0136376 -0.0185733   0.129127  
 0.0649901  0.0119253  0.0278935 -0.00270863 -0.00781501   0.136075  
 0.0681167  0.0145883  0.0279037 -0.00630701 -0.00952686    0.12447  
 0.0681858  0.0145085  0.0278829 -0.00616089 -0.00947999   0.124417  
 0.0715884  0.0186971  0.0277268 -0.00214964 -0.00182998   0.110051  
 0.0691222  0.0149499   0.027884 -0.0178637 -0.0213628   0.117921  
 0.0612422  0.0128559  0.0279231 -0.00861894 -0.0145868   0.139791  
 0.0675004    0.01107   0.027878 0.00131639 -0.00256463   0.132545  
 0.0708271  0.0170114  0.0276659 -0.00934595 -0.0109718   0.113658  
 0.0694613  0.0153061   0.027738 -0.00104421 -0.0028089   0.120793  
 0.0652365  0.0140044  0.0278539  -0.013987 -0.0188741   0.129306  
 0.0647511   0.012129  0.0279007 -0.00315568 -0.00824057   0.136134  
 0.0708809  0.0168978  0.0278057 -0.00920134 -0.0107199   0.113614  
 0.0695261  0.0152301  0.0278006 -0.000849623 -0.00256712    0.12079  
 0.0653439  0.0138931  0.0279036 -0.0138792 -0.0187069   0.129249  
 0.0648618  0.0120528  0.0278985 -0.00300215 -0.00807903   0.136108  
 0.0679601  0.0147806  0.0277873 -0.00663177 -0.00988197   0.124575  
 0.0680452   0.014687  0.0278481 -0.00647726 -0.0096685   0.124541  
 0.0713035  0.0187594  0.0277187 -0.00271591 -0.00268111   0.109867  
 0.0687926  0.0151546  0.0278859 -0.0180956  -0.021811   0.117984  
 0.0609911  0.0130016  0.0280197 -0.00884566 -0.0147491   0.139822  
 0.0672424  0.0110993   0.028089 0.000964745 -0.00276852   0.132581  
 0.0701922  0.0170566  0.0280242 -0.00996109 -0.0116646   0.113396  
 0.0689459  0.0151942  0.0282647 -0.00159207 -0.00312626   0.120541  
 0.0648472  0.0141291  0.0280985 -0.0142834  -0.019037   0.129274  
 0.0644684  0.0121513  0.0282268 -0.00344808 -0.00814637   0.136075  
 0.0705746  0.0170376  0.0277932 -0.0096008  -0.011366   0.113555  
 0.0692504  0.0152678  0.0279376 -0.00131372 -0.00307054   0.120735  
 0.0650503  0.0140723  0.0279601 -0.0141082 -0.0190039   0.129299  
 0.0646045  0.0121349  0.0280561 -0.00329553 -0.00826168    0.13614  
 0.0674915  0.0148087  0.0281597 -0.00708486 -0.0101516   0.124426  
 0.0677547   0.014793  0.0279458 -0.00683058 -0.0100799   0.124535  
 0.0707514  0.0182537  0.0284892 -0.00386479 -0.0025163   0.109882  
 0.0685766  0.0150314  0.0281964 -0.0184794 -0.0215949   0.118096  
 0.0610229   0.012902  0.0281227 -0.00893175 -0.0145386   0.139853  
 0.0673449   0.010902   0.028284 0.000670387 -0.00230893   0.132514  
 0.0701909  0.0167029  0.0283513 -0.0103455 -0.0111775   0.113643  
 0.0690411  0.0149344  0.0283978 -0.00203934 -0.00273611   0.120701  
 0.0649631  0.0139507  0.0281583 -0.0143379 -0.0187916   0.129364  
 0.0646685  0.0119651  0.0282179 -0.00346492 -0.00793093   0.136155  
 0.0675965  0.0145322   0.028301 -0.00729715 -0.00979893   0.124586  
  0.137318 -0.0225267  0.0269402  0.0109437  0.0197556  0.0584441  
  0.126722 -0.0151919  0.0270794  0.0217913  0.0273985  0.0653991  
  0.118994 -0.00869275  0.0268392  0.0345066  0.0351381  0.0697971  
  0.141583 -0.0212673  0.0275268  0.0337101   0.039145  0.0485953  
   0.13355 -0.0210817  0.0275069    0.01457  0.0231643  0.0615705  
  0.139232 -0.0232745  0.0280342  0.0207901  0.0289394  0.0539711  
  0.123788 -0.0130648  0.0269111  0.0255832  0.0304439  0.0677377  
  0.129571 -0.0157714   0.027533  0.0333706  0.0374324  0.0605537  
   0.13263  -0.019227  0.0270024  0.0161895  0.0234604  0.0614548  
  0.139538 -0.0222246  0.0272494   0.021535  0.0289173  0.0535406  
  0.123089 -0.0117372   0.026645  0.0278495  0.0307477  0.0673118  
  0.129709 -0.0151944  0.0272359  0.0347845  0.0376314  0.0601183  
  0.131449  -0.018393  0.0276062  0.0239598  0.0300926  0.0607206  
  0.131478 -0.0171727  0.0269129  0.0252625  0.0301725  0.0602066  
  0.137271 -0.0249478  0.0282494  0.0114522   0.020141  0.0580114  
  0.128292 -0.0178862   0.027776  0.0202094  0.0254106  0.0648286  
   0.11951 -0.0100021  0.0274522  0.0328484  0.0337051  0.0704436  
  0.141229 -0.0220618  0.0280159  0.0332459  0.0389242  0.0488367  
  0.133307  -0.022138  0.0282958  0.0158205  0.0229451  0.0604007  
  0.139346 -0.0240578  0.0282462  0.0217588  0.0290701   0.053039  
   0.12367  -0.014166  0.0281209  0.0264123  0.0290853  0.0672238  
  0.129721 -0.0165908  0.0280742  0.0340489  0.0367152  0.0601748  
  0.133359 -0.0217603  0.0280215  0.0156683   0.022794  0.0610256  
  0.139361 -0.0237669   0.028107  0.0214514  0.0289765  0.0534824  
  0.123838 -0.0137484   0.027566  0.0262915  0.0292159  0.0676335  
  0.129755  -0.016274  0.0277764  0.0338108   0.036914  0.0604474  
  0.131541 -0.0193034   0.028185  0.0248248  0.0295656  0.0599325  
  0.131613  -0.018947  0.0278609   0.024597  0.0296202  0.0603435  
  0.137261 -0.0253287  0.0284067  0.0118205  0.0204834  0.0573705  
   0.12821 -0.0184871  0.0283733  0.0203839  0.0254951  0.0641018  
   0.11936 -0.0105974  0.0282664  0.0331126  0.0335012   0.070035  
  0.141244 -0.0223721  0.0282485   0.033769  0.0391946  0.0484961  
  0.133321 -0.0223364  0.0285054  0.0160864   0.023186  0.0604139  
  0.139333 -0.0242029  0.0284734  0.0220707  0.0294467  0.0530063  
  0.123709 -0.0145233  0.0285219  0.0266297  0.0292535  0.0670818  
  0.129679 -0.0168691  0.0285155  0.0343711  0.0370401  0.0600566  
  0.133316 -0.0222453  0.0283945  0.0159409  0.0230172  0.0603631  
   0.13935 -0.0241242  0.0283304  0.0219165  0.0292841  0.0529769  
  0.123686 -0.0143463  0.0283189  0.0265025  0.0291646  0.0671261  
   0.12971 -0.0167272  0.0282684   0.034212  0.0369266  0.0600594  
  0.131541  -0.019548  0.0285105  0.0250876  0.0298407  0.0598339  
  0.131546 -0.0194225  0.0283293  0.0249518  0.0297393  0.0598444  
  0.137116  -0.025181  0.0287697  0.0122639  0.0210252  0.0581542  
  0.127975 -0.0185601  0.0291368  0.0208241  0.0260396  0.0647173  
  0.119169 -0.0108594  0.0292085  0.0335992  0.0343192  0.0705682  
  0.141437 -0.0224323  0.0285656  0.0345128  0.0402102  0.0489923  
   0.13228 -0.0218399  0.0301547  0.0169609   0.025058  0.0633521  
   0.13956  -0.023821  0.0289024  0.0234491  0.0313073  0.0546895  
  0.123122 -0.0144689  0.0303668  0.0274212  0.0319536  0.0695903  
   0.13009 -0.0167908  0.0291317  0.0356753  0.0394967  0.0615405  
  0.133125 -0.0222109  0.0289614  0.0163721  0.0235631  0.0610615  
  0.139364 -0.0240914  0.0286994  0.0225187  0.0300914  0.0536399  
  0.123433 -0.0145155  0.0292236  0.0269362  0.0298181  0.0677459  
   0.12973 -0.0168804  0.0288723  0.0348371  0.0378784  0.0605766  
  0.131502 -0.0193071  0.0294836  0.0262325  0.0321126  0.0618078  
  0.131442 -0.0194896  0.0289507  0.0254786  0.0304982  0.0604938  
  0.137609 -0.0229024   0.027634  0.0148515   0.023353  0.0598331  
  0.129604 -0.0162423  0.0276345  0.0255822  0.0311835  0.0670172  
  0.120586 -0.00983279  0.0282338  0.0366672  0.0373078  0.0721339  
  0.142525 -0.0217098  0.0276433  0.0359094  0.0411103  0.0491394  
  0.134212 -0.0200214  0.0276202  0.0199101  0.0271983  0.0629025  
  0.140219 -0.0226491  0.0276137  0.0243594  0.0315315  0.0544078  
  0.124657 -0.0128016  0.0282465  0.0306865  0.0335903  0.0700328  
   0.13097 -0.0159669   0.027847  0.0370211  0.0396999  0.0613496  
  0.132365 -0.0179549  0.0279462  0.0280498  0.0328232  0.0619881  
 0.0652575 0.00770456  0.0280604 0.00426296 0.00333057   0.145702  
 0.0672142 0.00880303  0.0281054 0.00120068 -0.00109114   0.137951  
 0.0663266  0.0122763  0.0282272 -0.00481314 -0.00907687   0.131644  
 0.0508353  0.0168684  0.0280485 -0.0132529 -0.0163229   0.154394  
 0.0658791 0.00814606  0.0282192 0.00266472 0.00138239   0.142208  
 0.0582003  0.0123087  0.0281033 -0.00353056 -0.00550007   0.150111  
 0.0664844  0.0107462  0.0282409 -0.0015586 -0.00517631   0.134723  
 0.0595231  0.0143092  0.0281294 -0.00933204 -0.0135093   0.142162  
  0.066085  0.0080929  0.0280802 0.00267978 0.00135649   0.142208  
 0.0583548  0.0122117  0.0280555 -0.0034274 -0.00545883   0.150139  
 0.0666949   0.010575  0.0282054 -0.0016277 -0.00500675   0.134811  
 0.0596709  0.0141631  0.0281263 -0.00930351 -0.0133552   0.142217  
 0.0622913  0.0114199  0.0281603 -0.00289295 -0.00584049   0.142299  
 0.0624682  0.0112766  0.0281309 -0.00285263 -0.00572487   0.142355  
 0.0651028 0.00778991  0.0280454 0.00429305 0.00324155   0.145717  
 0.0670734 0.00889609  0.0280719 0.00147755 -0.00133336   0.138055  
 0.0663341  0.0124529  0.0280259 -0.00456571 -0.00937348   0.131597  
 0.0507768  0.0169185  0.0280125 -0.0132676 -0.0164407    0.15443  
  0.066034  0.0081821  0.0279393 0.00290345 0.00117705   0.142241  
 0.0583353  0.0122359  0.0279547 -0.00336068  -0.005584   0.150143  
 0.0667678  0.0107482  0.0278934 -0.00123856 -0.00527626   0.134803  
 0.0597723  0.0142222  0.0279173 -0.00909403 -0.0135248   0.142217  
 0.0659423 0.00818194  0.0280598  0.0028117 0.00120867   0.142269  
 0.0582515  0.0122786    0.02803 -0.00342863 -0.00556386   0.150146  
 0.0666265  0.0107448  0.0280529 -0.00137942 -0.00530348   0.134811  
 0.0596406  0.0142679  0.0280194 -0.00920011 -0.0135576   0.142209  
 0.0624945  0.0113752  0.0279287 -0.00265591 -0.00592937   0.142343  
 0.0623836  0.0113981  0.0280417 -0.00275713 -0.00592767   0.142348  
 0.0652607 0.00770805  0.0279459 0.00442752 0.00324798   0.145672  
 0.0672773 0.00885071  0.0279094 0.00173869 -0.00121504   0.138016  
 0.0666142  0.0123563  0.0278828 -0.00424836 -0.0091203   0.131576  
 0.0509775  0.0167381  0.0279601 -0.0131355 -0.0163603   0.154404  
 0.0661842 0.00804644  0.0279398 0.00310649 0.00135277   0.142196  
 0.0585092  0.0120547   0.027966 -0.00321665 -0.00544491   0.150086  
 0.0669392  0.0105956  0.0279118 -0.000934184 -0.00498853   0.134738  
 0.0599744  0.0140295  0.0279423 -0.00885838 -0.0132928   0.142141  
 0.0661225 0.00811643  0.0279298  0.0030043 0.00126436   0.142227  
 0.0584332  0.0121462  0.0279521 -0.00328966 -0.00551507   0.150113  
 0.0668658  0.0106763  0.0278953 -0.0010894 -0.00511951    0.13478  
 0.0598834  0.0141264  0.0279247 -0.00898151 -0.0133983    0.14218  
 0.0626691  0.0112085   0.027941 -0.00243681 -0.00572015   0.142282  
 0.0625937   0.011294   0.027927 -0.00254851 -0.00581951   0.142314  
 0.0653436 0.00759133  0.0279948 0.00456612 0.00344674   0.145715  
 0.0673707 0.00873651  0.0279257 0.00198215 -0.000944534   0.138035  
  0.066755  0.0122133   0.027885  -0.003939 -0.00887151   0.131512  
 0.0511216  0.0165659  0.0279809 -0.0129428 -0.0161984   0.154349  
 0.0662566 0.00803792  0.0278858 0.00335163 0.00168318   0.142262  
 0.0585959  0.0119601  0.0279835 -0.00297333 -0.00518334    0.15011  
  0.067044  0.0105322  0.0278055  -0.000675 -0.00474535   0.134647  
 0.0600905  0.0139057  0.0279089 -0.00860008 -0.0130867   0.142053  
 0.0662122 0.00800008  0.0279605 0.00319033 0.00149623    0.14226  
 0.0585498  0.0120027  0.0279831 -0.00311801 -0.00532901   0.150105  
 0.0669802   0.010552  0.0278985 -0.000813251 -0.0048651   0.134758  
 0.0600301  0.0139681  0.0279379 -0.00873354 -0.0131938   0.142119  
 0.0627619  0.0111159  0.0279127 -0.0021871 -0.00546074   0.142253  
 0.0627116  0.0111594  0.0279433 -0.00232623 -0.00560032   0.142296  
 0.0654694 0.00752935  0.0279535 0.00489159 0.00361385   0.145784  
 0.0675384 0.00835144  0.0279876 0.00203801 -0.000775972   0.137688  
 0.0667879  0.0119284   0.027979   -0.00409 -0.00885212   0.131374  
 0.0511278  0.0165558  0.0279981 -0.0128569 -0.0161396   0.154346  
 0.0663608 0.00778092  0.0279697 0.00339112 0.00165136   0.142136  
 0.0586095  0.0119624  0.0279793 -0.00294242 -0.00523632   0.150137  
 0.0670834  0.0102499   0.027948 -0.000862888 -0.00479842   0.134543  
 0.0600501  0.0138336  0.0279917 -0.00875219 -0.0131373   0.142069  
 0.0627936  0.0110154   0.027957 -0.00224649 -0.00551875   0.142237  
  0.137609 -0.0229012  0.0276341  0.0148553  0.0233544   0.059834  
  0.129601 -0.0162391  0.0276347  0.0255844  0.0311828  0.0670196  
   0.12059 -0.00983135  0.0282321  0.0366846  0.0373168  0.0721263  
  0.142521  -0.021703  0.0276432  0.0359195  0.0411238  0.0491395  
  0.132277 -0.0218373   0.030155   0.016965  0.0250597  0.0633545  
  0.139558 -0.0238191  0.0289026  0.0234562   0.031312  0.0546905  
  0.123121 -0.0144657  0.0303659  0.0274332  0.0319621  0.0695902  
  0.130088 -0.0167849  0.0291308  0.0356928  0.0395129  0.0615405  
   0.13421 -0.0200186  0.0276204  0.0199147  0.0271997  0.0629047  
  0.140217 -0.0226471  0.0276137  0.0243668   0.031536  0.0544085  
  0.124657 -0.0127988  0.0282454  0.0306975   0.033596  0.0700307  
  0.130967 -0.0159614  0.0278465  0.0370375  0.0397142  0.0613488  
    0.1315 -0.0193042  0.0294834  0.0262418  0.0321191  0.0618089  
  0.132363 -0.0179522  0.0279459  0.0280589  0.0328288  0.0619883  
  0.137116 -0.0251801  0.0287699   0.012267  0.0210262   0.058155  
  0.127972 -0.0185574  0.0291372  0.0208255  0.0260391  0.0647192  
  0.119172 -0.0108574  0.0292084  0.0336175  0.0343319  0.0705633  
  0.141433 -0.0224253  0.0285656  0.0345224  0.0402238  0.0489925  
  0.133318 -0.0223339  0.0285054    0.01609   0.023187  0.0604154  
  0.139331 -0.0242009  0.0284735  0.0220773  0.0294509   0.053007  
  0.123707 -0.0145203  0.0285219  0.0266403  0.0292605  0.0670809  
  0.129676  -0.016863  0.0285156  0.0343874  0.0370555  0.0600569  
  0.133122 -0.0222084  0.0289617  0.0163758  0.0235642  0.0610634  
  0.139362 -0.0240895  0.0286995  0.0225256  0.0300958  0.0536407  
  0.123431 -0.0145126  0.0292237   0.026947  0.0298256  0.0677453  
  0.129727 -0.0168744  0.0288722  0.0348538  0.0378944   0.060577  
  0.131539 -0.0195452  0.0285106   0.025096  0.0298465  0.0598345  
   0.13144 -0.0194869  0.0289508  0.0254873  0.0305043  0.0604946  
   0.13726 -0.0253277  0.0284067  0.0118235  0.0204844  0.0573709  
  0.128207 -0.0184842  0.0283734  0.0203853  0.0254946  0.0641033  
  0.119362 -0.0105953  0.0282663  0.0331303   0.033513    0.07003  
  0.141239 -0.0223649  0.0282484  0.0337783  0.0392079  0.0484963  
  0.133304 -0.0221354  0.0282957   0.015824  0.0229462  0.0604022  
  0.139344 -0.0240558  0.0282462  0.0217653  0.0290743  0.0530396  
  0.123668 -0.0141629  0.0281208  0.0264228  0.0290923  0.0672229  
  0.129718 -0.0165845   0.028074   0.034065  0.0367306  0.0601751  
  0.133313 -0.0222427  0.0283946  0.0159445  0.0230183  0.0603647  
  0.139347 -0.0241222  0.0283304   0.021923  0.0292883  0.0529774  
  0.123684 -0.0143433  0.0283189   0.026513  0.0291718  0.0671252  
  0.129706  -0.016721  0.0282683  0.0342282   0.036942  0.0600597  
  0.131539 -0.0193005  0.0281849  0.0248331  0.0295714   0.059933  
  0.131543 -0.0194196  0.0283293  0.0249602  0.0297451   0.059845  
   0.13727 -0.0249467  0.0282493   0.011455   0.020142  0.0580119  
  0.128289 -0.0178833  0.0277758  0.0202106  0.0254102    0.06483  
  0.119512      -0.01  0.0274523  0.0328654  0.0337171  0.0704385  
  0.141224 -0.0220545  0.0280157  0.0332551  0.0389377  0.0488368  
  0.133547  -0.021079  0.0275066  0.0145733  0.0231658   0.061572  
   0.13923 -0.0232724   0.028034  0.0207965  0.0289439  0.0539716  
  0.123786 -0.0130618  0.0269115  0.0255932  0.0304513   0.067737  
  0.129567 -0.0157654  0.0275333  0.0333868  0.0374482  0.0605536  
  0.133356 -0.0217577  0.0280213  0.0156718  0.0227951  0.0610271  
  0.139358 -0.0237648  0.0281069  0.0214579  0.0289808  0.0534829  
  0.123836 -0.0137454  0.0275659  0.0263016  0.0292232  0.0676326  
  0.129752 -0.0162678  0.0277764  0.0338267  0.0369297  0.0604476  
  0.131446   -0.01839  0.0276062  0.0239678  0.0300987  0.0607211  
  0.131611  -0.018944  0.0278609  0.0246052  0.0296261   0.060344  
  0.137317 -0.0225255    0.02694  0.0109468  0.0197568  0.0584443  
   0.12672  -0.015189   0.027079  0.0217922  0.0273977  0.0653999  
  0.118996 -0.00869202  0.0268409  0.0345221  0.0351478  0.0697929  
  0.141577 -0.0212603   0.027527    0.03372  0.0391587  0.0485951  
  0.132627 -0.0192243  0.0270021  0.0161932  0.0234618  0.0614558  
  0.139535 -0.0222226  0.0272494  0.0215419  0.0289217  0.0535409  
  0.123087  -0.011735   0.026646  0.0278586  0.0307537  0.0673113  
  0.129706 -0.0151892  0.0272367  0.0348004  0.0376465  0.0601184  
  0.131475 -0.0171701  0.0269132  0.0252707  0.0301781  0.0602069  
 0.0909946  0.0107074  0.0291325  0.0253014  0.0294222  0.0921892  
  0.111941 -0.00384222   0.029275  0.0298755  0.0334149  0.0794533  
  0.114579 -0.00962295  0.0312894  0.0134655  0.0210266  0.0730769  
 0.0922309 0.00808212  0.0311146  0.0133012  0.0195599  0.0866974  
 0.0969648 0.00403958   0.031536  0.0228845  0.0283847   0.086259  
  0.113988 -0.00742931   0.032643  0.0188537  0.0268391  0.0809928  
 0.0919301 0.00740418    0.03365   0.018188  0.0252966  0.0932316  
  0.100326 0.00421083  0.0292213  0.0279029  0.0318658  0.0865384  
  0.102714 -0.000418094  0.0312595  0.0134405  0.0203865  0.0800707  
  0.102093 0.00033189  0.0334423  0.0184962  0.0262232  0.0877144  
 0.0888296  0.0116122  0.0291826  0.0219394  0.0250181  0.0907815  
  0.110365 -0.00461119  0.0293921  0.0247748  0.0270393  0.0762369  
  0.115986 -0.00931695  0.0286711  0.0144306  0.0209345  0.0719314  
 0.0933968 0.00889819  0.0284381  0.0145677  0.0194738  0.0866585  
 0.0985984 0.00462876   0.028364  0.0233121  0.0258918  0.0841098  
  0.115733 -0.00936369  0.0293884  0.0147879   0.021239  0.0727626  
 0.0931826 0.00853293  0.0292319  0.0148297  0.0196657  0.0869734  
 0.0982703 0.00436046  0.0293101  0.0234712  0.0261902  0.0842484  
  0.103977 0.000178427  0.0285701  0.0145034  0.0202952  0.0795483  
  0.103736 -3.33133e-05  0.0293499  0.0148169  0.0205575  0.0801658  
 0.0891866  0.0122141  0.0279217  0.0219256  0.0247418  0.0908893  
  0.110703 -0.00420487  0.0282047  0.0244271  0.0265447  0.0759277  
  0.116185 -0.00885092  0.0279026  0.0143862  0.0209396  0.0722067  
 0.0936522 0.00945504  0.0274847  0.0146154  0.0195511  0.0869706  
 0.0986531 0.00513425  0.0277216  0.0232731  0.0259125  0.0842402  
  0.116087 -0.00907462  0.0282691  0.0145268  0.0208611  0.0720248  
 0.0935286 0.00917287  0.0279519   0.014721  0.0194224  0.0868162  
 0.0986187 0.00487764  0.0280533  0.0232832   0.025798  0.0841579  
  0.104216 0.000697572  0.0276755  0.0144973  0.0203327   0.079851  
  0.104099 0.00043993   0.028108  0.0146267  0.0202322  0.0796922  
 0.0896424  0.0126862  0.0266306  0.0221561  0.0253203  0.0908181  
  0.111002 -0.00353095  0.0270858  0.0244675  0.0267939   0.076295  
  0.116964 -0.00785492  0.0262273  0.0133349   0.021084  0.0736606  
  0.094813  0.0102291  0.0247404  0.0137029   0.019985  0.0865787  
   0.10002 0.00593123  0.0248442  0.0226679  0.0282029  0.0827199  
  0.116298 -0.00831858  0.0272158  0.0146297  0.0210439  0.0723176  
 0.0939943   0.009718  0.0266051  0.0149877  0.0197932  0.0865763  
 0.0990074 0.00545282  0.0268061  0.0234343  0.0262291  0.0842907  
  0.105179  0.0016263  0.0253891   0.013449  0.0206378  0.0804045  
  0.104456 0.00109326  0.0268599   0.014814  0.0205103  0.0796812  
 0.0880806  0.0122407  0.0271326  0.0263263  0.0295518  0.0889643  
  0.109901 -0.00216868  0.0260424  0.0282415   0.031204  0.0744902  
  0.117106 -0.00550607  0.0224837  0.0170991  0.0246111  0.0679874  
 0.0958317 0.00944658  0.0225611  0.0186574  0.0248575  0.0795996  
 0.0975685 0.00586819  0.0266092  0.0277025  0.0309065   0.082415  
  0.105967 0.00228869  0.0222399  0.0180068  0.0248461  0.0736352  
 0.0686408  0.0104216  0.0277991 0.00395454 0.00376915   0.133203  
 0.0705055   0.018244  0.0275965 0.00355961 0.00465276   0.113602  
 0.0689218  0.0101997  0.0274766 0.00374651 0.00335435   0.132466  
 0.0704615   0.017769  0.0276904 0.00240246 0.00360842   0.112872  
 0.0695426  0.0147538  0.0276746 0.00350666 0.00399994   0.122867  
 0.0696608  0.0143899   0.027557 0.00280797 0.00325148   0.122098  
 0.0686538  0.0103925  0.0278424 0.00369952  0.0034402    0.13294  
  0.070513  0.0184138  0.0277111  0.0028406 0.00434242   0.113622  
 0.0686618   0.010336  0.0278718  0.0038111 0.00357081   0.132977  
 0.0705452  0.0182717  0.0277264 0.00308149 0.00444763   0.113497  
 0.0695526     0.0148  0.0277689 0.00303376 0.00370443   0.122733  
 0.0695634  0.0147055  0.0277929 0.00320751 0.00382749     0.1227  
 0.0685308  0.0104363  0.0279078 0.00333149  0.0030978   0.132945  
 0.0704464  0.0184978  0.0276542 0.00238698 0.00383483   0.113661  
 0.0686102  0.0104064  0.0278824 0.00350863 0.00326734   0.132962  
 0.0704749  0.0184472  0.0277232 0.00259179  0.0041131   0.113716  
 0.0694443  0.0148613  0.0277885 0.00260096  0.0032629   0.122753  
  0.069506  0.0148224  0.0278017 0.00280465 0.00349997   0.122788  
 0.0682246  0.0103427  0.0283814 0.00309774   0.003244   0.133045  
 0.0698109  0.0182649  0.0282726 0.00166584 0.00304908    0.11339  
 0.0684042  0.0103778  0.0281198 0.00316704 0.00311516   0.133012  
 0.0702158  0.0183884  0.0278872  0.0019671 0.00344634   0.113533  
 0.0689842  0.0146983  0.0283583 0.00213524 0.00296289   0.122687  
 0.0692713  0.0147768  0.0280239 0.00231365 0.00310119   0.122739  
 0.0685555 0.00993459  0.0286494 0.00298502 0.00391269   0.133068  
 0.0698302  0.0175933  0.0289729 0.00107994 0.00426838   0.113594  
 0.0691678  0.0141672  0.0288245 0.00177693 0.00391758   0.122794  
 0.0710871  0.0186069  0.0285112 -0.00348973 -0.00131305   0.108582  
  0.068174  0.0138174  0.0283884 -0.000618346 -0.00250067   0.125186  
  0.068443  0.0118127  0.0284042  0.0029434  0.0032141   0.129365  
 0.0699402   0.018479  0.0282569 0.00198071 0.00363794   0.112797  
 0.0697526     0.0169  0.0282216 -0.00179581 -0.00236118   0.115661  
 0.0687563  0.0113811  0.0287259 0.00270646 0.00399494     0.1294  
 0.0699264  0.0177663  0.0290208 0.00136951 0.00491559   0.113009  
 0.0697685  0.0165981  0.0284492 -0.0024038 -0.00190974   0.115863  
 0.0691713  0.0154707  0.0283509 0.00229158 0.00341806    0.12066  
 0.0693316  0.0148988   0.028901 0.00187751  0.0044846   0.120783  
 0.0717224   0.019181  0.0276624 -0.00218803 -0.00137979   0.108603  
 0.0682182  0.0140899  0.0280425 -0.000103984 -0.0030169   0.125276  
 0.0688144  0.0119411  0.0278712 0.00322244 0.00317676   0.129307  
 0.0705716  0.0187265   0.027646 0.00272642 0.00449462   0.113096  
 0.0703406  0.0170584  0.0276676 -0.0011306 -0.00181301   0.116036  
 0.0686641   0.011873  0.0281024 0.00302006 0.00313881    0.12936  
 0.0703475  0.0186096  0.0278723 0.00229328 0.00408883   0.112954  
 0.0701135   0.017005  0.0278615 -0.00145546 -0.00218831   0.115931  
  0.069659  0.0156577  0.0277648 0.00279921 0.00382015   0.120754  
 0.0694811  0.0155643  0.0280024  0.0024843 0.00362478   0.120723  
 0.0719748  0.0191306  0.0277098 -0.00160443 -0.00047913   0.108835  
 0.0685176  0.0140749  0.0278268 0.000346254 -0.00263855   0.125277  
 0.0689354  0.0118919  0.0278159 0.00362405 0.00356389   0.129296  
 0.0706309  0.0186466  0.0276991 0.00317338 0.00499932   0.113059  
 0.0704358  0.0168924  0.0278222 -0.000712989 -0.0013721   0.115936  
 0.0688906  0.0119079  0.0278558 0.00341401 0.00337318   0.129329  
  0.070595  0.0186772  0.0277153 0.00292628 0.00476843   0.113155  
 0.0703868  0.0169768  0.0277622 -0.000929688 -0.00155155   0.116043  
 0.0697617  0.0155988  0.0277494 0.00324155 0.00428026   0.120736  
 0.0697157   0.015619  0.0277847 0.00300615 0.00406844   0.120795  
 0.0720941  0.0188505  0.0278283 -0.00117056 -0.000344081   0.108533  
 0.0686197  0.0139421  0.0278235  0.0007289 -0.00231798   0.125224  
 0.0689057  0.0119277  0.0277488 0.00392992 0.00386935   0.129539  
 0.0706227  0.0184612  0.0275902 0.00394119 0.00533758   0.113033  
  0.070571  0.0167958  0.0275821 -0.000228676 -0.00139602   0.115703  
 0.0689427  0.0118231  0.0278425 0.00375551 0.00369086   0.129314  
 0.0706627  0.0184972  0.0277176 0.00342083 0.00510692    0.11292  
  0.070489  0.0167739  0.0278158 -0.000512588 -0.00130591   0.115869  
 0.0697431  0.0155328  0.0276608 0.00376535 0.00458866   0.120859  
 0.0697699  0.0154939  0.0277762 0.00342954 0.00440457   0.120684  
 0.0719769  0.0179085  0.0282883 -0.00216859 -0.000598816   0.108134  
  0.068694  0.0134161  0.0279188 0.00031992 -0.00247593   0.124627  
 0.0691743  0.0116067  0.0274734 0.00357668  0.0033684   0.128718  
  0.070561  0.0179789  0.0276739 0.00273171 0.00420027    0.11227  
 0.0704663  0.0160203  0.0281112 -0.00127605  -0.001553   0.115337  
 0.0698463  0.0151475  0.0275357 0.00297866 0.00373367   0.120052  
 0.0880719  0.0122423  0.0271319  0.0263221  0.0295533  0.0889607  
  0.109903 -0.00217062  0.0260436  0.0282428   0.031204  0.0744882  
  0.116967 -0.00785768  0.0262275   0.013335  0.0210836  0.0736584  
 0.0948019  0.0102359  0.0247435  0.0137057  0.0199843  0.0865863  
   0.10003 0.00592466  0.0248445    0.02267  0.0282016  0.0827134  
  0.117109 -0.00550897  0.0224841  0.0170999  0.0246122  0.0679858  
 0.0958235 0.00944913  0.0225662  0.0186583  0.0248515  0.0796076  
 0.0975766 0.00586204  0.0266101  0.0277062  0.0309088  0.0824101  
   0.10518 0.00162457  0.0253904  0.0134503  0.0206372  0.0804035  
   0.10597 0.00228503  0.0222412  0.0180086   0.024846  0.0736327  
 0.0896331  0.0126913  0.0266307  0.0221414  0.0253099  0.0908207  
  0.111004 -0.00353237  0.0270862   0.024468  0.0267938  0.0762934  
  0.116189 -0.00885406  0.0279026   0.014386  0.0209398   0.072205  
 0.0936437 0.00946197  0.0274842  0.0146146  0.0195498  0.0869786  
 0.0986614 0.00512838  0.0277212  0.0232741  0.0259153  0.0842353  
  0.116301 -0.0083217   0.027216  0.0146293  0.0210439  0.0723159  
 0.0939852 0.00972482  0.0266051  0.0149861  0.0197932  0.0865837  
 0.0990148 0.00544695  0.0268068  0.0234356  0.0262308  0.0842859  
  0.104218 0.000695374  0.0276753  0.0144973  0.0203329  0.0798502  
  0.104458 0.00109105    0.02686  0.0148138  0.0205106  0.0796803  
 0.0891776  0.0122193  0.0279215  0.0219106  0.0247331  0.0908914  
  0.110705 -0.00420617  0.0282047  0.0244275  0.0265446  0.0759259  
  0.115989 -0.00932001  0.0286712    0.01443  0.0209347  0.0719295  
 0.0933878 0.00890515  0.0284381   0.014566  0.0194724  0.0866657  
 0.0986061 0.00462294  0.0283645   0.023313  0.0258946  0.0841052  
   0.11609 -0.00907765   0.028269  0.0145264  0.0208612  0.0720229  
 0.0935198 0.00917987  0.0279517  0.0147196  0.0194215  0.0868238  
 0.0986268 0.00487182  0.0280533  0.0232844  0.0257999  0.0841527  
  0.103979 0.000176188  0.0285704   0.014503  0.0202952  0.0795471  
  0.104102 0.000437801  0.0281079  0.0146265  0.0202324  0.0796911  
 0.0888213  0.0116174  0.0291815  0.0219246  0.0250081  0.0907832  
  0.110368 -0.00461224  0.0293915  0.0247752  0.0270395  0.0762349  
  0.114583 -0.00962617  0.0312887  0.0134652  0.0210259  0.0730729  
 0.0922235 0.00809033  0.0311106  0.0133032  0.0195603   0.086703  
  0.096972 0.00403403  0.0315354  0.0228836  0.0283827  0.0862525  
  0.115737 -0.00936653  0.0293881  0.0147876  0.0212394  0.0727607  
 0.0931741 0.00853989  0.0292314  0.0148278  0.0196653  0.0869812  
  0.098279 0.00435492  0.0293092  0.0234727  0.0261924  0.0842431  
  0.102718 -0.000419491  0.0312575  0.0134413  0.0203858  0.0800677  
  0.103738 -3.52954e-05  0.0293495  0.0148168  0.0205581  0.0801649  
 0.0909872  0.0107095  0.0291344  0.0252919  0.0294245  0.0921915  
  0.111943 -0.00384444  0.0292741  0.0298729   0.033414  0.0794474  
  0.113991 -0.00743325  0.0326428  0.0188516  0.0268397  0.0809893  
 0.0919233 0.00740997  0.0336456  0.0181779  0.0252882  0.0932307  
  0.100333 0.00420538  0.0292206  0.0279026  0.0318681  0.0865315  
  0.102095 0.000328234  0.0334413  0.0184933  0.0262222  0.0877091  
 0.0837723 0.00598802  0.0280687 -0.0506384 -0.0445402  0.0961457  
 0.0785382  0.0139695  0.0281652 -0.0245846 -0.0204418  0.0986666  
 0.0913394 0.00839558  0.0278105 -0.0265011  -0.013563  0.0836473  
  0.107567 -0.0051542  0.0279471 -0.0499676 -0.0359893  0.0679936  
 0.0815225  0.0101587  0.0278727 -0.0362921 -0.0320969  0.0979102  
 0.0962719 0.000371452  0.0279151 -0.0500529 -0.0405056  0.0819531  
 0.0854997  0.0115526  0.0274172 -0.0241074 -0.0169569  0.0909966  
  0.098737 0.00242891  0.0274906  -0.035994 -0.0235164  0.0772156  
 0.0815279  0.0100229  0.0281161   -0.03677  -0.031709  0.0980001  
 0.0963783 0.00038835  0.0280115 -0.0506036 -0.0402939  0.0819538  
 0.0851996   0.011318  0.0280126 -0.0251159 -0.0165751  0.0910327  
 0.0985779 0.00239185  0.0278769  -0.037026 -0.0233069  0.0771544  
 0.0908866 0.00614233  0.0276942 -0.0363251 -0.0276684  0.0870986  
 0.0908152 0.00604648   0.028012 -0.0370723 -0.0273527   0.087118  
  0.084002 0.00589344  0.0278571 -0.0502179 -0.0445902  0.0960745  
 0.0791183  0.0140912  0.0276076 -0.0236813 -0.0203139  0.0986421  
 0.0923729 0.00830526  0.0272157   -0.02488 -0.0123487  0.0840469  
  0.107812 -0.00546528  0.0278131 -0.0493921 -0.0357395  0.0679784  
 0.0821796 0.00988986  0.0277282 -0.0360939 -0.0312493  0.0979284  
 0.0968552 2.51136e-05   0.027838  -0.050223  -0.039847  0.0817963  
 0.0862223    0.01113  0.0276093 -0.0237862 -0.0151897  0.0912525  
 0.0993808 0.00191132  0.0277325 -0.0360435  -0.022021  0.0772486  
 0.0819244  0.0100301  0.0277388 -0.0361284 -0.0316858  0.0979511  
 0.0966212 0.000188709  0.0278293 -0.0500995 -0.0401877  0.0819065  
 0.0860222  0.0113382  0.0274167 -0.0238499 -0.0159214  0.0912193  
 0.0992049 0.00215206  0.0275318 -0.0359591 -0.0226274  0.0773143  
 0.0915533  0.0057496  0.0277214 -0.0362513 -0.0264889  0.0871212  
 0.0913306  0.0059393  0.0276335 -0.0362218 -0.0270192  0.0871661  
 0.0843139 0.00563553   0.027976 -0.0503497 -0.0442026  0.0959001  
 0.0793978  0.0137791  0.0278898 -0.0235663 -0.0195515  0.0985734  
 0.0923995 0.00780736  0.0279767 -0.0249632 -0.0115307  0.0839179  
    0.1081 -0.00579505  0.0280563 -0.0497737   -0.03539   0.067722  
 0.0822745 0.00959772  0.0281262 -0.0361353 -0.0311448   0.097704  
   0.09699 -0.000234974  0.0281957 -0.0504676 -0.0399258  0.0816136  
 0.0861661  0.0107488  0.0282294 -0.0238394 -0.0151063  0.0909446  
 0.0993648 0.00155008    0.02832 -0.0362975 -0.0221202   0.076969  
 0.0822249 0.00974012   0.027935 -0.0361349 -0.0311172  0.0978243  
 0.0969228 -0.000106283  0.0280145 -0.0503625 -0.0398104  0.0816887  
 0.0861875  0.0109366  0.0279289 -0.0238324 -0.0151119  0.0911114  
   0.09937   0.001729  0.0280234 -0.0361861 -0.0220351   0.077099  
 0.0915888 0.00542329  0.0282261 -0.0364047 -0.0264896  0.0868681  
 0.0915681 0.00558391  0.0279769 -0.0363464 -0.0264278  0.0869928  
 0.0845638  0.0054639  0.0281115 -0.0505051 -0.0445019  0.0958368  
 0.0795952   0.013464  0.0281785 -0.0235501  -0.019886  0.0983639  
 0.0924422 0.00737846  0.0286735 -0.0252353 -0.0122509  0.0838488  
   0.10841 -0.00596262  0.0282897 -0.0502822 -0.0360949  0.0677983  
 0.0827237 0.00938784  0.0280817 -0.0363752 -0.0316753  0.0977506  
 0.0975271 -0.000262271  0.0280969 -0.0510791 -0.0406717  0.0818409  
 0.0867229  0.0103496  0.0284373 -0.0242288 -0.0163686  0.0911828  
  0.100015 0.00132697  0.0284587 -0.0370424 -0.0236128   0.077432  
 0.0824537 0.00949148  0.0281459  -0.036203 -0.0314333  0.0976854  
  0.097205 -0.000276259  0.0282008  -0.050702  -0.040318  0.0816928  
 0.0863185  0.0105679  0.0284066  -0.023963 -0.0156447  0.0909652  
 0.0995504 0.00142722   0.028482 -0.0365687 -0.0227618  0.0770938  
  0.092153 0.00520527  0.0282532  -0.036906 -0.0274894  0.0871046  
 0.0917793 0.00530915  0.0283074 -0.0365812 -0.0269579  0.0869179  
 0.0846103 0.00562597  0.0279867 -0.0509576 -0.0444487  0.0960536  
 0.0797002  0.0133061   0.028159 -0.0243219 -0.0199483  0.0986737  
 0.0930872 0.00737698  0.0283235 -0.0269107 -0.0130338  0.0845171  
  0.108757 -0.00560996  0.0278938 -0.0511275 -0.0363258  0.0680458  
  0.082533 0.00949506  0.0280642 -0.0368053 -0.0314288  0.0979459  
 0.0973997 -1.98565e-05  0.0279438 -0.0513525 -0.0404026  0.0819325  
 0.0866793  0.0104573  0.0282352 -0.0251919 -0.0160976  0.0914346  
  0.100029 0.00163161  0.0280857 -0.0378303 -0.0232803  0.0775462  
 0.0920561 0.00540027  0.0280702 -0.0374952 -0.0271943  0.0872602  
 0.0919143 0.00494309  0.0279029  0.0637392  0.0684881   0.102702  
  0.085184  0.0126052  0.0280763  0.0412678  0.0449951   0.101282  
 0.0729663  0.0171968  0.0281063  0.0297248  0.0379992   0.117526  
 0.0705118  0.0136702  0.0279651  0.0542587  0.0588687   0.130927  
 0.0889215 0.00862486  0.0283015  0.0514448  0.0565155   0.102129  
 0.0813759  0.0092106  0.0281128  0.0585676  0.0642306   0.117723  
 0.0788667  0.0148125  0.0283912  0.0345428  0.0416752   0.109721  
 0.0721963  0.0156761  0.0282092  0.0406169  0.0482456   0.124009  
 0.0889444 0.00887597  0.0279732  0.0519648  0.0562098   0.102243  
 0.0813045 0.00945879  0.0279357  0.0588507  0.0639863   0.117801  
 0.0788528  0.0150458  0.0280917  0.0351758   0.041462   0.109956  
 0.0721026  0.0159279  0.0280257  0.0410223  0.0480595    0.12419  
 0.0804956  0.0122978  0.0282431  0.0460227  0.0525873   0.113771  
 0.0804525  0.0125418  0.0280014   0.046472  0.0523468   0.113921  
 0.0916259  0.0045813  0.0282605  0.0630325  0.0684056   0.102381  
 0.0846781  0.0124558  0.0285094  0.0403287  0.0446117   0.100732  
 0.0728939   0.016954  0.0282927  0.0291332  0.0379217    0.11684  
 0.0704822  0.0133255  0.0281544  0.0538302  0.0589454   0.130587  
  0.088346 0.00866076  0.0283166  0.0509774  0.0554894   0.101633  
 0.0810043 0.00910044  0.0281902  0.0581491  0.0637026   0.117302  
 0.0784567  0.0149561  0.0282567  0.0344212  0.0408671   0.109178  
 0.0719583  0.0156727  0.0281594  0.0404967  0.0478716   0.123516  
 0.0885413 0.00861058  0.0283895  0.0511432  0.0559887   0.101811  
 0.0811568 0.00911186     0.0282  0.0583034  0.0639932   0.117478  
 0.0785845  0.0148573  0.0283886  0.0344299  0.0412531   0.109337  
 0.0720519  0.0156349  0.0282252  0.0405094  0.0480732    0.12368  
 0.0800983  0.0123157  0.0282337  0.0457454  0.0519201   0.113292  
 0.0802414   0.012271  0.0282976  0.0458291  0.0522585   0.113458  
 0.0913805 0.00468216  0.0280398  0.0627063  0.0678392   0.102207  
 0.0845704  0.0127463  0.0279891  0.0402416  0.0440175   0.100698  
 0.0728273  0.0171862  0.0279179  0.0293015   0.037724   0.116805  
 0.0703153  0.0134317   0.027994  0.0537486  0.0587303   0.130454  
 0.0883653 0.00896064  0.0277458  0.0508578  0.0554679   0.101809  
 0.0808884 0.00933034  0.0278596  0.0580367  0.0636649   0.117394  
 0.0785298  0.0152774  0.0276456  0.0345018   0.041026   0.109413  
 0.0718977  0.0159324  0.0277682  0.0405743  0.0479982   0.123677  
 0.0883603 0.00881149  0.0280207  0.0509342  0.0554026   0.101709  
 0.0809507 0.00921711  0.0280149   0.058107  0.0636124   0.117329  
 0.0784981  0.0151188  0.0279488  0.0344793  0.0408753   0.109308  
 0.0719328  0.0158055  0.0279591  0.0405508  0.0478667   0.123602  
 0.0800743  0.0125961  0.0277546  0.0457264  0.0519769   0.113462  
  0.080091  0.0124577  0.0279869  0.0457517  0.0518746   0.113373  
 0.0911594 0.00493177  0.0278521  0.0625539  0.0681312   0.102366  
 0.0844417  0.0130846  0.0275341  0.0403079   0.044697    0.10083  
 0.0726384  0.0174086  0.0276896  0.0295365  0.0382756   0.116943  
 0.0700973  0.0136437  0.0279031  0.0537487  0.0589463   0.130601  
 0.0878531  0.0092708  0.0277776  0.0510653  0.0562944   0.101813  
 0.0805267 0.00957397  0.0279569  0.0581218  0.0639935   0.117523  
 0.0779838  0.0154828  0.0277282  0.0349271   0.041934   0.109366  
 0.0714997  0.0160917  0.0279115  0.0408555  0.0483998   0.123762  
 0.0881822 0.00911363  0.0277017  0.0508872  0.0558821   0.101865  
 0.0807289 0.00944844  0.0278803  0.0580333  0.0638659   0.117485  
 0.0783384  0.0153962  0.0276138  0.0346352  0.0414913   0.109443  
 0.0717291  0.0160242  0.0278003  0.0406676  0.0482438   0.123745  
 0.0796202  0.0128282  0.0278525  0.0459731  0.0525784   0.113511  
 0.0798975  0.0127176  0.0277539  0.0457889  0.0523029   0.113524  
 0.0910798 0.00517037  0.0279447  0.0631915  0.0681829   0.102477  
 0.0840382  0.0131368  0.0278911  0.0413805  0.0449832   0.100792  
 0.0723382  0.0174428  0.0279934  0.0301758  0.0381413   0.117096  
 0.0700249  0.0138221  0.0279833  0.0541382  0.0588041   0.130729  
 0.0879467 0.00927497   0.027915  0.0517222  0.0560347   0.101911  
 0.0806533 0.00965187  0.0279692  0.0585363  0.0638122   0.117606  
 0.0779871  0.0154224  0.0279571  0.0354773  0.0415592   0.109513  
 0.0715522  0.0161226  0.0279898  0.0411848  0.0481068   0.123889  
 0.0796926  0.0128394  0.0279602  0.0464499   0.052299   0.113624  
 0.0913752 0.00509018  0.0279436  0.0629246  0.0681559   0.101945  
 0.0840462  0.0131883  0.0278855  0.0410947   0.044491   0.100662  
 0.0725759  0.0176528  0.0279989  0.0283856  0.0367135   0.115995  
 0.0709014   0.012934  0.0279832  0.0562306  0.0607441   0.130685  
 0.0881028 0.00922925  0.0277686  0.0508548  0.0560535   0.101422  
 0.0810113 0.00913719  0.0279607  0.0592297   0.064966   0.117247  
 0.0780171  0.0156826  0.0276971  0.0337716  0.0406425   0.108564  
 0.0721833  0.0158828  0.0279025  0.0402882  0.0480991   0.122538  
 0.0881943 0.00923009  0.0279113  0.0515234  0.0557935   0.101519  
 0.0811408 0.00922021  0.0279688  0.0596459   0.064791   0.117326  
 0.0780054  0.0156036  0.0279545  0.0343461  0.0402559   0.108717  
 0.0722336  0.0159117  0.0279872  0.0406256  0.0478019   0.122663  
 0.0798039  0.0128612  0.0278429  0.0456034  0.0522394   0.113034  
 0.0798727   0.012868  0.0279589  0.0460865   0.051956   0.113148  
 0.0914545 0.00484966  0.0278513   0.062286  0.0681026   0.101835  
 0.0844614  0.0131423  0.0275214  0.0399958  0.0441822   0.100711  
    0.0729  0.0176636  0.0276544  0.0276947   0.036826    0.11585  
 0.0709597  0.0127441  0.0279153  0.0558464  0.0608787   0.130561  
 0.0886167 0.00891614  0.0277429  0.0506443  0.0552076   0.101424  
 0.0813711 0.00889006  0.0278648  0.0591551  0.0646463   0.117113  
 0.0785721  0.0154841  0.0276276  0.0333121  0.0396672    0.10864  
 0.0725858   0.015726  0.0277607  0.0400005  0.0476775   0.122452  
 0.0884347 0.00907053  0.0276948  0.0506743  0.0556286   0.101478  
 0.0812117 0.00900918  0.0278855  0.0591468  0.0648433   0.117207  
 0.0783826  0.0156017   0.027585  0.0334585  0.0401592   0.108658  
 0.0724174  0.0158181  0.0277891  0.0400966  0.0479326   0.122519  
 0.0802627  0.0126298  0.0277482  0.0453467  0.0516165   0.112992  
 0.0800859  0.0127516  0.0277442   0.045413  0.0519515   0.113052  
 0.0916753 0.00459998  0.0280406  0.0624392  0.0678098   0.101675  
 0.0845843  0.0128006  0.0279885  0.0399256  0.0434931   0.100582  
 0.0730759  0.0174454  0.0279034  0.0274257  0.0362401   0.115728  
 0.0711809  0.0125317  0.0279992  0.0558674  0.0606801   0.130412  
 0.0885934 0.00861364  0.0283208  0.0507648  0.0552293   0.101246  
 0.0814911 0.00866272  0.0281896   0.059276  0.0646907   0.117025  
 0.0784835  0.0151563  0.0282588  0.0332205  0.0394943   0.108397  
 0.0726395  0.0154661  0.0281614  0.0399185  0.0475463   0.122288  
 0.0886097 0.00876565  0.0280213  0.0507212  0.0551433   0.101323  
 0.0814354 0.00877807  0.0280171  0.0592295  0.0645971   0.117049  
 0.0785323  0.0153221  0.0279419  0.0332843  0.0395117   0.108533  
 0.0726177  0.0155986  0.0279568  0.0399746  0.0475435   0.122377  
 0.0802808  0.0123471  0.0282366  0.0453626  0.0515561   0.112819  
 0.0802764  0.0124902  0.0279854  0.0453705  0.0515125   0.112903  
 0.0919212 0.00449978  0.0282629  0.0627668  0.0683807    0.10185  
 0.0846862  0.0125043  0.0285206  0.0400107  0.0440915   0.100614  
 0.0731254  0.0171937  0.0283061  0.0272184  0.0364167   0.115743  
 0.0713579  0.0124338  0.0281464  0.0559749  0.0609082   0.130555  
 0.0891742 0.00857222  0.0283108  0.0512351  0.0562772   0.101745  
 0.0818661 0.00878086  0.0281076  0.0597081  0.0652214   0.117449  
 0.0788978  0.0149842  0.0284206  0.0333158  0.0403396    0.10894  
 0.0728788  0.0154584  0.0282239  0.0400316  0.0479361   0.122789  
 0.0887889 0.00856123  0.0283973  0.0509313  0.0557362   0.101424  
 0.0816458 0.00867748  0.0281969  0.0594367  0.0649835   0.117204  
 0.0786081  0.0150464   0.028405  0.0332176   0.039891   0.108551  
 0.0727328  0.0154233  0.0282332   0.039928  0.0477546   0.122453  
 0.0806818  0.0123207  0.0282534  0.0456315  0.0522371     0.1133  
  0.080424   0.012299  0.0283047  0.0454427  0.0518996   0.112984  
 0.0922139 0.00486288  0.0279016  0.0634776  0.0684653   0.102173  
 0.0852069  0.0126446   0.028084    0.04097  0.0445007   0.101167  
 0.0731921  0.0174145  0.0281372  0.0278253  0.0365107   0.116478  
 0.0713894  0.0127894  0.0279558  0.0564026  0.0608353   0.130872  
 0.0892037 0.00882249  0.0279754  0.0517659  0.0559708   0.101858  
 0.0817938 0.00903113  0.0279317  0.0599823  0.0649768   0.117521  
 0.0788913  0.0152091  0.0281137  0.0339867  0.0401298    0.10919  
 0.0727895  0.0157108  0.0280337  0.0404517  0.0477528   0.122984  
 0.0806421  0.0125634  0.0280069  0.0460924  0.0519956   0.113456  
 0.0849653 0.00520014  0.0279848 -0.0518236 -0.0454572  0.0960305  
  0.079745   0.013133  0.0281434 -0.0251806 -0.0210682  0.0987644  
 0.0930989  0.0073785  0.0283211 -0.0269586 -0.0130839  0.0844966  
  0.108865 -0.00569301  0.0278933 -0.0512037 -0.0365379  0.0679573  
 0.0828019 0.00911701  0.0280729 -0.0372733 -0.0326487  0.0978314  
  0.097813 -0.000560823  0.0280938 -0.0515875 -0.0412193  0.0816678  
 0.0867768   0.010259  0.0284249 -0.0246851 -0.0168561  0.0911813  
  0.100051  0.0012948  0.0284549 -0.0371126 -0.0237118   0.077393  
 0.0826094 0.00922909  0.0280568 -0.0376821 -0.0324051   0.098023  
 0.0976847 -0.000318049  0.0279425 -0.0518546 -0.0409519  0.0817569  
 0.0867292  0.0103719  0.0282247 -0.0256259 -0.0165841  0.0914296  
  0.100063 0.00160013  0.0280839 -0.0378954 -0.0233784  0.0775061  
 0.0922517 0.00503435  0.0282465  -0.037392 -0.0279469  0.0870416  
 0.0921529 0.00523141  0.0280652 -0.0379686  -0.027653  0.0871943  
 0.0849241 0.00503193  0.0281074 -0.0513819 -0.0455135  0.0958186  
 0.0796516  0.0132679  0.0281685 -0.0244463 -0.0210299  0.0984609  
 0.0924576 0.00737647  0.0286713 -0.0252891  -0.012309  0.0838308  
  0.108522 -0.0060456  0.0282865 -0.0503636 -0.0363104  0.0677119  
 0.0823599  0.0093143  0.0281235 -0.0370334 -0.0321413  0.0977837  
 0.0972787 -0.00053822  0.0281933 -0.0509763 -0.0404803    0.08144  
 0.0862203  0.0106482  0.0282294 -0.0242921 -0.0156142  0.0909458  
 0.0994014 0.00151589  0.0283193 -0.0363676 -0.0222251  0.0769312  
 0.0825386 0.00921294  0.0281389 -0.0371021 -0.0324211  0.0977676  
 0.0974934 -0.000577582  0.0281974 -0.0512112 -0.0408698  0.0815207  
 0.0863748  0.0104714     0.0284  -0.024418 -0.0161468  0.0909675  
 0.0995876 0.00139377  0.0284797 -0.0366387 -0.0228651  0.0770559  
 0.0916895 0.00524564  0.0282249 -0.0368889 -0.0269596   0.086806  
 0.0918805 0.00513418  0.0283029 -0.0370667 -0.0274239  0.0868569  
 0.0846726 0.00519921  0.0279773 -0.0512253 -0.0452191  0.0958761  
 0.0794481  0.0135733  0.0278941 -0.0244587 -0.0207034  0.0986636  
 0.0924132 0.00780436  0.0279769 -0.0250163 -0.0115891  0.0838997  
  0.108211 -0.00588004  0.0280561 -0.0498557 -0.0356073  0.0676346  
 0.0822576 0.00960234  0.0277366 -0.0369893 -0.0322432  0.0980038  
 0.0971405 -0.000280864  0.0278416 -0.0507298 -0.0403997  0.0816194  
 0.0862718   0.011027  0.0276144 -0.0242366  -0.015695  0.0912519  
 0.0994164  0.0018761  0.0277334 -0.0361137 -0.0221255  0.0772098  
  0.082307 0.00945474  0.0279374 -0.0370315  -0.032112  0.0979008  
 0.0972098 -0.000410841  0.0280151 -0.0508701 -0.0403641  0.0815128  
 0.0862395   0.010835  0.0279312 -0.0242839 -0.0156165  0.0911108  
 0.0994061 0.00169432  0.0280235 -0.0362563 -0.0221394  0.0770607  
 0.0916505  0.0055695  0.0277255 -0.0367333 -0.0269567  0.0870567  
 0.0916672  0.0054051  0.0279782 -0.0368295 -0.0268962   0.086929  
 0.0843599  0.0054541  0.0278635 -0.0510909 -0.0455969  0.0960512  
 0.0791608  0.0138806  0.0276298 -0.0245635 -0.0214427  0.0987414  
 0.0923848 0.00830159  0.0272186 -0.0249327 -0.0124056  0.0840288  
  0.107922 -0.00555244  0.0278158 -0.0494747 -0.0359544  0.0678901  
 0.0816091 0.00986798  0.0278866 -0.0371732 -0.0330523  0.0979986  
 0.0965619 6.34325e-05  0.0279187 -0.0505564 -0.0410463  0.0817791  
 0.0855514  0.0114466  0.0274359 -0.0245449 -0.0174264   0.091011  
 0.0987725 0.00239219  0.0274946 -0.0360647 -0.0236145  0.0771795  
 0.0820029 0.00974075  0.0277519 -0.0370188 -0.0326648  0.0980314  
 0.0969075 -0.000118392  0.0278338 -0.0506052 -0.0407352  0.0817308  
 0.0860695  0.0112343  0.0274296 -0.0242952 -0.0164147  0.0912241  
 0.0992398 0.00211631  0.0275343 -0.0360295   -0.02273  0.0772758  
  0.090987 0.00596001  0.0277036 -0.0367998 -0.0281154  0.0870417  
 0.0914274 0.00575814  0.0276411 -0.0367012 -0.0274794  0.0871043  
 0.0841387 0.00555288  0.0280669 -0.0515014 -0.0455429  0.0961222  
 0.0786125  0.0137736  0.0281642 -0.0254156  -0.021533  0.0987781  
 0.0913572 0.00838897  0.0278122 -0.0265478 -0.0136151  0.0836301  
  0.107681 -0.00524205  0.0279483 -0.0500467 -0.0362009  0.0679067  
 0.0816243 0.00974142   0.028115 -0.0376335 -0.0326698  0.0980853  
 0.0966703 8.31765e-05  0.0280112 -0.0511028 -0.0408386  0.0817785  
 0.0852639  0.0112194  0.0280145 -0.0255349 -0.0170462  0.0910448  
 0.0986159 0.00235559  0.0278787 -0.0370908 -0.0234046  0.0771181  
 0.0909219 0.00586813  0.0280127 -0.0375375 -0.0278026  0.0870591  
 0.0947255 -0.00662048  0.0279806 -0.0706794 -0.0609828  0.0923262  
  0.123345 -0.0180245  0.0279319 -0.0502412 -0.0467508  0.0558058  
 0.0948464 -0.00661008  0.0280314 -0.0710077 -0.0607665  0.0922867  
  0.123493 -0.0178882  0.0279635 -0.0508662 -0.0466985  0.0557651  
   0.10994 -0.0129405  0.0279567 -0.0609018 -0.0544605  0.0738869  
  0.110075 -0.0128656  0.0280009 -0.0613734 -0.0543157  0.0738496  
 0.0952097 -0.00692151  0.0279097 -0.0707639 -0.0605997  0.0921591  
  0.123831 -0.0183432  0.0279284 -0.0504826 -0.0462024  0.0556176  
 0.0949907 -0.00677776  0.0279224 -0.0706919 -0.0608257  0.0922702  
  0.123635 -0.0182074  0.0279017 -0.0503319 -0.0464802  0.0557454  
  0.110439 -0.0132572  0.0279162 -0.0610601 -0.0539828  0.0736994  
  0.110225 -0.0131146  0.0279102 -0.0609508 -0.0542425  0.0738237  
 0.0954759 -0.00715345  0.0280781  -0.070941 -0.0605829  0.0920404  
  0.124023 -0.0184911  0.0281645 -0.0508087 -0.0464435  0.0555783  
 0.0953431 -0.00703788  0.0279942 -0.0708652 -0.0605259  0.0920737  
  0.123922 -0.0184149  0.0280411 -0.0506561 -0.0462458  0.0555594  
  0.110674 -0.0134494  0.0281208 -0.0613081 -0.0540894  0.0736199  
  0.110554 -0.0133523  0.0280163 -0.0611956 -0.0539629  0.0736265  
 0.0958558 -0.00719088  0.0280195 -0.0712743 -0.0609446  0.0922045  
  0.124654 -0.0184202  0.0280861 -0.0516236  -0.047443  0.0559914  
 0.0956532 -0.00719691  0.0280712 -0.0710714 -0.0607969  0.0921191  
  0.124282 -0.0184885  0.0281699 -0.0511344 -0.0469576  0.0557724  
  0.111183 -0.0134324  0.0280499 -0.0618782 -0.0547606  0.0739136  
  0.110895 -0.0134702  0.0281187 -0.0615349 -0.0544515  0.0737597  
 0.0956623 -0.00697679  0.0279807 -0.0714159 -0.0607436  0.0922322  
  0.124545 -0.0181453  0.0279238 -0.0518816  -0.047145  0.0559353  
  0.111021 -0.0131839  0.0279538 -0.0620749 -0.0545081  0.0739027  
  0.100467 -0.00584615  0.0279619  0.0794633  0.0847533   0.105386  
 0.0684443  0.0107153   0.027987  0.0833094  0.0740718   0.143116  
  0.100641 -0.00572939  0.0279652  0.0799314   0.084653   0.105424  
 0.0685636  0.0107788  0.0279846  0.0835861  0.0739549   0.143136  
 0.0848694 0.00211763   0.027976  0.0825656  0.0802261   0.124881  
 0.0850155  0.0022032  0.0279774  0.0829275  0.0801137   0.124906  
  0.100832 -0.00615294  0.0279211   0.079451  0.0844347   0.105245  
 0.0686863  0.0104754  0.0279361  0.0833056  0.0739671   0.143009  
  0.100667 -0.00601398   0.027922  0.0794143  0.0846264   0.105348  
 0.0685633  0.0105942   0.027951  0.0832776  0.0740521   0.143089  
 0.0851749  0.0018393  0.0279281  0.0825596  0.0800204   0.124752  
 0.0850287 0.00197084  0.0279373  0.0825267  0.0801568   0.124846  
  0.101044 -0.00633945  0.0281504  0.0796796  0.0845721   0.105255  
 0.0689022  0.0102532  0.0280793  0.0834724  0.0739684   0.142969  
  0.100938 -0.00624565  0.0280282  0.0795728   0.084428   0.105209  
 0.0687966  0.0103652  0.0280027  0.0833971  0.0739241   0.142961  
  0.085395 0.00162968  0.0281122  0.0827574   0.080084   0.124734  
 0.0852863 0.00173513  0.0280141  0.0826662  0.0799926   0.124707  
  0.101527 -0.00621025  0.0280723  0.0802745  0.0852655   0.105747  
  0.069129  0.0103483  0.0280535  0.0837953  0.0742169   0.143342  
  0.101252 -0.00631657  0.0281493    0.07992  0.0849487   0.105496  
 0.0690134  0.0102591  0.0280865  0.0836036  0.0741125   0.143143  
 0.0857437 0.00173656  0.0280596  0.0832025  0.0805363   0.125159  
 0.0855535 0.00164165  0.0281141  0.0829383   0.080336   0.124939  
  0.101427 -0.00594393  0.0279353  0.0804928  0.0849964   0.105699  
 0.0690252  0.0105816  0.0279752   0.083912  0.0740681   0.143335  
 0.0856371 0.00198639  0.0279571  0.0833609  0.0803297   0.125132  
  0.101476 -0.00619585  0.0280719  0.0804083  0.0853218   0.105851  
 0.0689246  0.0108556  0.0280577  0.0815912  0.0729288   0.142813  
  0.101377 -0.00592981  0.0279353  0.0806259  0.0850522   0.105803  
 0.0688214  0.0110895  0.0279746  0.0817178  0.0727769   0.142817  
 0.0852567 0.00221351  0.0280612  0.0821355  0.0797898   0.125366  
 0.0851508 0.00246248  0.0279571  0.0822971  0.0795827   0.125344  
  0.100993 -0.00632387  0.0281503  0.0798144  0.0846293   0.105361  
 0.0686998  0.0107596  0.0280838   0.081278  0.0726805   0.142438  
  0.101202 -0.00630149   0.028149  0.0800545  0.0850055     0.1056  
 0.0688094  0.0107658   0.028092  0.0814036   0.072825   0.142611  
 0.0849105 0.00210789  0.0281139  0.0816982  0.0793418   0.124943  
 0.0850677 0.00211931  0.0281162  0.0818753  0.0795917   0.125146  
  0.100781 -0.00613663  0.0279211  0.0795856  0.0844922   0.105351  
 0.0684907  0.0109827  0.0279307  0.0811227  0.0726832   0.142483  
  0.100887 -0.00622973  0.0280282  0.0797075  0.0844853   0.105314  
 0.0685978  0.0108722  0.0280019  0.0812089  0.0726373   0.142434  
 0.0846936 0.00231869  0.0279257  0.0815062  0.0792813   0.124965  
 0.0848036 0.00221398  0.0280136  0.0816101  0.0792519    0.12492  
  0.100415 -0.00582927   0.027962  0.0795977  0.0848107   0.105492  
 0.0682436  0.0112196  0.0279863  0.0811371  0.0727934   0.142591  
  0.100615 -0.00599733   0.027922  0.0795488  0.0846839   0.105453  
 0.0683662  0.0111001  0.0279471  0.0810995  0.0727717   0.142563  
 0.0843871 0.00259491  0.0279758  0.0815162  0.0794884   0.125093  
 0.0845472 0.00244946  0.0279356  0.0814753  0.0794187   0.125058  
  0.100589 -0.00571357  0.0279655  0.0800652  0.0847099   0.105529  
 0.0683594  0.0112848  0.0279844  0.0814137  0.0726695   0.142617  
 0.0845317 0.00267931  0.0279774  0.0818753  0.0793723   0.125121  
 0.0960354 -0.00754696  0.0280184 -0.0719594   -0.06155   0.092302  
  0.124715 -0.0184882  0.0280849 -0.0516723 -0.0475853  0.0559635  
 0.0958411 -0.00733202  0.0279808 -0.0720966 -0.0613516  0.0923254  
  0.124604  -0.018214  0.0279242 -0.0519293 -0.0472876  0.0559069  
  0.111402  -0.013691  0.0280489 -0.0621767 -0.0550663  0.0737639  
   0.11124 -0.0134423  0.0279539 -0.0623712 -0.0548146  0.0737506  
 0.0956584 -0.00751116  0.0280758 -0.0716285 -0.0611951  0.0921361  
  0.124085   -0.01856  0.0281633 -0.0508593 -0.0465889  0.0555506  
 0.0958351 -0.00755401  0.0280688 -0.0717583 -0.0614058  0.0922167  
  0.124344  -0.018557  0.0281684 -0.0511843 -0.0471018   0.055745  
  0.110895 -0.0137098  0.0281193 -0.0616069 -0.0543975  0.0734686  
  0.111116 -0.0137298  0.0281169 -0.0618338 -0.0547586  0.0736099  
 0.0953884 -0.00728042  0.0279128 -0.0714512 -0.0612125  0.0922522  
  0.123892 -0.0184133  0.0279289 -0.0505339 -0.0463481  0.0555888  
 0.0955237 -0.00739614  0.0279946 -0.0715523  -0.061139  0.0921674  
  0.123984 -0.0184844  0.0280408  -0.050707 -0.0463913  0.0555311  
  0.110657 -0.0135191  0.0279179 -0.0613584 -0.0542903   0.073546  
  0.110774 -0.0136134  0.0280164  -0.061494 -0.0542708  0.0734737  
 0.0949075 -0.0069796  0.0279818 -0.0713654 -0.0615877  0.0924213  
  0.123407 -0.0180961  0.0279327 -0.0502944 -0.0468946   0.055777  
 0.0951701 -0.00713691  0.0279254 -0.0713791  -0.061435  0.0923644  
  0.123696 -0.0182782  0.0279025 -0.0503841 -0.0466252  0.0557164  
  0.110161 -0.0132034  0.0279577    -0.0612 -0.0547639  0.0737348  
  0.110444 -0.0133771   0.027912 -0.0612493 -0.0545482  0.0736709  
 0.0950298 -0.00696753  0.0280304 -0.0716892 -0.0613738  0.0923789  
  0.123555 -0.0179596  0.0279641 -0.0509174 -0.0468424  0.0557365  
  0.110296 -0.0131269  0.0280007 -0.0616697 -0.0546207  0.0736964  
  0.134636    -0.0243  0.0288984 0.00653994  0.0184976  0.0620141  
  0.124561 -0.0147405  0.0270245   0.011402  0.0204176  0.0690676  
  0.133871 -0.0203576  0.0268553 0.00618243  0.0176827  0.0629795  
  0.124831 -0.0118449  0.0231241  0.0145219  0.0230599    0.06432  
  0.130669 -0.0200969   0.028038 0.00891083  0.0196753  0.0652279  
  0.130453 -0.0164721  0.0249601  0.0100456   0.020407  0.0634764  
  0.134934 -0.0249258   0.028424 0.00707256   0.018594     0.0599  
  0.124132 -0.0157807  0.0280734  0.0125742  0.0205704  0.0670411  
  0.134807 -0.0244949  0.0284077 0.00696906  0.0184393  0.0606156  
  0.124167 -0.0152389  0.0275409  0.0127698  0.0205852  0.0673114  
  0.130668 -0.0209106   0.028262 0.00963382  0.0197263  0.0631289  
  0.130614 -0.0204134  0.0279989 0.00967792   0.019649   0.063627  
  0.134923  -0.024976  0.0285032 0.00723041  0.0187069  0.0599037  
  0.123968 -0.0161639  0.0287028  0.0126702  0.0206072  0.0668162  
  0.134922 -0.0249325  0.0284442 0.00716019  0.0186402  0.0598264  
  0.124053 -0.0159509  0.0283435  0.0127304  0.0205294  0.0668628  
  0.130587 -0.0211265  0.0286163 0.00975115  0.0197908  0.0630157  
  0.130624 -0.0209951  0.0284087 0.00975063   0.019721  0.0629934  
  0.134399 -0.0245099  0.0295308 0.00749785  0.0191598  0.0622647  
  0.122768 -0.0162277  0.0309873  0.0121614  0.0205637  0.0683111  
  0.134743 -0.0246192  0.0286627 0.00738855  0.0189367  0.0606975  
  0.123732 -0.0160708  0.0292508  0.0129939  0.0209101  0.0677273  
  0.129783 -0.0209774  0.0302965 0.00953241  0.0199681  0.0648654  
  0.130365 -0.0208772  0.0289677 0.00999376  0.0200538   0.063889  
  0.133891 -0.0205897  0.0276301 0.00947642  0.0207937  0.0643296  
   0.12177 -0.0133986  0.0317407  0.0165193  0.0258069  0.0754145  
   0.12879 -0.0173019  0.0296646  0.0128352  0.0233533   0.069814  
 0.0681824 0.00610306  0.0281691 0.00412627 0.00612254   0.142944  
  0.068533 0.00931854  0.0283477 0.00337173  0.0038966   0.135039  
 0.0684611 0.00599787   0.028051 0.00418124  0.0061828   0.142953  
  0.068837 0.00893402  0.0285795 0.00331987  0.0044856   0.135035  
 0.0684318  0.0071945  0.0282549 0.00360968 0.00512099   0.139724  
 0.0687303 0.00695624  0.0283085 0.00360978 0.00544012   0.139729  
   0.06826 0.00614938  0.0279515 0.00422671 0.00583797   0.142842  
 0.0687878 0.00941033  0.0279196 0.00361674 0.00373912   0.134945  
 0.0682143 0.00613681  0.0280426 0.00419387 0.00591642   0.142899  
 0.0686834 0.00935573  0.0281077  0.0034688 0.00376722   0.135004  
 0.0685914 0.00726072  0.0279428 0.00376852 0.00488217    0.13962  
 0.0685201 0.00722871  0.0280797 0.00368483 0.00494129   0.139683  
 0.0683326 0.00608039  0.0279525 0.00429353 0.00589421   0.142821  
 0.0688993 0.00936809  0.0278597 0.00394312 0.00403787   0.134942  
 0.0683118 0.00611476  0.0279434 0.00426219 0.00585563   0.142834  
 0.0688605 0.00938148  0.0278939 0.00377394 0.00388459   0.134959  
 0.0686799 0.00720724   0.027912 0.00395806 0.00505174   0.139609  
 0.0686517 0.00723041  0.0279249 0.00386231 0.00495838   0.139623  
 0.0683383 0.00600949  0.0280854 0.00435033 0.00624337   0.142992  
 0.0689064 0.00939095  0.0278294 0.00418842   0.004381   0.135204  
 0.0683358  0.0060383  0.0280158 0.00432832 0.00602481     0.1429  
 0.0689101 0.00931051  0.0278921 0.00404139 0.00416774   0.134979  
  0.068691 0.00717959  0.0279606  0.0040798 0.00538499   0.139816  
  0.068687 0.00716066  0.0279588 0.00402325 0.00518093    0.13967  
 0.0685692 0.00592532  0.0279473  0.0046889 0.00643007   0.143049  
 0.0691658 0.00917557  0.0275268 0.00403351 0.00403003   0.134519  
 0.0689404  0.0070516   0.027728    0.00422 0.00535482   0.139521  
  0.134399 -0.0245095   0.029531 0.00749887  0.0191602  0.0622654  
  0.122767 -0.0162265  0.0309879  0.0121612  0.0205631  0.0683124  
  0.133891 -0.0205891  0.0276302 0.00947772  0.0207942  0.0643302  
  0.121769 -0.0133967  0.0317409  0.0165204  0.0258073  0.0754157  
  0.129782 -0.0209763  0.0302968 0.00953337  0.0199685  0.0648664  
  0.128789 -0.0173005  0.0296647  0.0128367  0.0233539  0.0698152  
  0.134922 -0.0249755  0.0285033 0.00723134  0.0187072  0.0599039  
  0.123967 -0.0161628  0.0287029  0.0126703  0.0206071  0.0668165  
  0.134742 -0.0246188  0.0286628 0.00738954   0.018937  0.0606978  
  0.123731 -0.0160697  0.0292509   0.012994  0.0209099  0.0677277  
  0.130586 -0.0211254  0.0286163 0.00975214  0.0197912  0.0630162  
  0.130364 -0.0208762  0.0289678 0.00999476  0.0200541  0.0638896  
  0.134934 -0.0249253   0.028424 0.00707339  0.0185944  0.0599001  
  0.124131 -0.0157795  0.0280734  0.0125741  0.0205703  0.0670413  
  0.134921  -0.024932  0.0284442 0.00716107  0.0186405  0.0598265  
  0.124051 -0.0159497  0.0283435  0.0127304  0.0205293  0.0668631  
  0.130667 -0.0209094   0.028262 0.00963468  0.0197268  0.0631293  
  0.130623 -0.0209941  0.0284088 0.00975154  0.0197214  0.0629939  
  0.134636 -0.0242995  0.0288983 0.00654068   0.018498  0.0620142  
   0.12456 -0.0147393  0.0270242  0.0114015  0.0204175  0.0690677  
  0.134807 -0.0244944  0.0284077  0.0069699  0.0184397  0.0606156  
  0.124165 -0.0152376  0.0275408  0.0127697   0.020585  0.0673116  
  0.130667 -0.0200958  0.0280378 0.00891143  0.0196759  0.0652282  
  0.130613 -0.0204123  0.0279988 0.00967876  0.0196494  0.0636273  
  0.133871 -0.0203569  0.0268551 0.00618346  0.0176831  0.0629794  
   0.12483 -0.0118438  0.0231238  0.0145215  0.0230598  0.0643198  
  0.130452  -0.016471  0.0249599  0.0100464  0.0204074  0.0634764  
 0.0674341  0.0116568  0.0281248  0.0102485  0.0189063   0.137512  
  0.067606 0.00696799  0.0280058  0.0069455  0.0121372   0.144622  
 0.0638629  0.0102207  0.0280456 0.00863744  0.0164429   0.147498  
 0.0685699  0.0100591  0.0285508 0.00654744  0.0130359   0.134667  
 0.0655487  0.0105261  0.0283857  0.0092072  0.0174661   0.141627  
 0.0686829 0.00801228  0.0284251 0.00548843   0.010833   0.138067  
 0.0656765 0.00828396  0.0282802 0.00795483  0.0144632   0.145428  
  0.068811   0.010095  0.0286039 0.00732825  0.0137745    0.13593  
 0.0656231  0.0108864  0.0281127 0.00974834  0.0175162   0.142138  
 0.0689189 0.00799644   0.028499 0.00612306  0.0114632   0.139098  
 0.0657782 0.00853084  0.0280467 0.00843781  0.0145371   0.145764  
 0.0673528 0.00919927   0.028454 0.00748976  0.0140123   0.139193  
 0.0675101 0.00942037  0.0282757  0.0081284  0.0143429   0.140019  
 0.0674223  0.0112995  0.0281494 0.00951437  0.0185404   0.136202  
 0.0674681 0.00679479  0.0280855 0.00630496  0.0117192   0.143871  
 0.0638319  0.0100075  0.0281064 0.00811279  0.0162394   0.146958  
 0.0687858  0.0103225  0.0279656 0.00682669  0.0128471   0.134535  
 0.0656271  0.0107104  0.0279836 0.00917981  0.0171559   0.141144  
 0.0688257 0.00823845  0.0279748 0.00567459  0.0105807   0.137991  
 0.0657011  0.0084176  0.0279851 0.00786497   0.014104   0.145042  
 0.0687062  0.0102715  0.0281295 0.00674102  0.0129097    0.13467  
  0.065598  0.0106373  0.0281352 0.00914274  0.0172335   0.141263  
 0.0687732 0.00819654  0.0281066 0.00561447  0.0106689   0.138113  
  0.065689 0.00836072  0.0281013   0.007865  0.0142133   0.145148  
  0.067466 0.00943342   0.027977  0.0075911  0.0137142   0.138914  
 0.0674214 0.00937796  0.0281186 0.00754121  0.0137946   0.139031  
 0.0674664  0.0114293  0.0279115  0.0097408  0.0185953   0.136126  
 0.0674642 0.00689107  0.0279494 0.00635739  0.0116313   0.143786  
 0.0638004   0.010137   0.027954 0.00816461  0.0161648   0.146873  
 0.0688007  0.0103951  0.0278462 0.00714681  0.0131406   0.134594  
 0.0655597  0.0108396  0.0278839 0.00937509  0.0173222   0.141211  
 0.0688299 0.00830116  0.0278898 0.00589901   0.010788   0.138034  
 0.0656185 0.00853882  0.0279262 0.00796499  0.0141876   0.145089  
  0.068808  0.0103666  0.0278935  0.0070007  0.0129793   0.134569  
  0.065606  0.0107719  0.0279339 0.00928343  0.0172199   0.141182  
 0.0688443 0.00827693  0.0279157 0.00579749  0.0106709   0.138014  
 0.0656727 0.00847626  0.0279519 0.00791937  0.0141324   0.145064  
 0.0674359 0.00952946  0.0278818 0.00780227  0.0139013   0.138967  
 0.0674649 0.00948393  0.0279219 0.00770538  0.0137934   0.138942  
 0.0673611  0.0115193  0.0278772 0.00997852  0.0188599   0.136236  
  0.067376 0.00695622  0.0279826 0.00641692   0.011771   0.143873  
 0.0636777  0.0102513  0.0279637  0.0082366   0.016282   0.146957  
 0.0687015  0.0103309  0.0279897 0.00725811  0.0134236   0.134815  
 0.0654596  0.0108409  0.0279899 0.00941126   0.017425   0.141397  
 0.0687721 0.00824332  0.0280391 0.00592933  0.0110805   0.138218  
 0.0655571 0.00854433   0.028034 0.00792752  0.0143252   0.145232  
 0.0687588  0.0104033   0.027862 0.00726978  0.0132532   0.134655  
 0.0654935  0.0108758   0.027919 0.00943558  0.0174069   0.141282  
  0.068805 0.00830183  0.0279104 0.00598382   0.010887    0.13809  
 0.0655682  0.0085668  0.0279705 0.00798558  0.0142604   0.145149  
 0.0673488 0.00950639  0.0279938 0.00783837  0.0140923   0.139157  
 0.0673887 0.00954668  0.0279128 0.00787792  0.0140026   0.139031  
 0.0674508  0.0114278  0.0279372  0.0103381  0.0185891   0.136458  
 0.0675774 0.00686706  0.0279766  0.0065406  0.0117524   0.143992  
 0.0637789  0.0102849  0.0279303 0.00842386  0.0161272   0.147029  
 0.0689927  0.0104737   0.027511 0.00744711   0.012843   0.134863  
 0.0655832  0.0108857  0.0278992 0.00969704  0.0171897   0.141406  
 0.0690757 0.00832953  0.0275684 0.00612768  0.0106721    0.13825  
 0.0657228 0.00855324  0.0279296 0.00814629  0.0141556   0.145231  
 0.0675742 0.00954612  0.0277709 0.00807572  0.0137837    0.13919  
 0.0681096  0.0152922  0.0280593  0.0165236  0.0266368    0.13004  
 0.0678298  0.0129482  0.0285569  0.0129578  0.0234689   0.132817  
 0.0689035  0.0162266  0.0286605 0.00996783  0.0172835   0.122478  
 0.0678354  0.0136364  0.0280656  0.0137818  0.0234048   0.133532  
 0.0689024  0.0164122  0.0287324  0.0107712  0.0179745   0.123969  
 0.0687148  0.0134557  0.0286317 0.00839672  0.0151331   0.128005  
 0.0688716  0.0135067   0.028722 0.00918977  0.0159396   0.129421  
 0.0681534  0.0148348  0.0282223  0.0157954  0.0265045    0.12893  
 0.0679022  0.0132651  0.0279915  0.0131011  0.0231169   0.132166  
 0.0691453  0.0166831  0.0279185  0.0105325  0.0173816   0.122317  
  0.067862  0.0131748  0.0281924  0.0130093  0.0231745   0.132293  
 0.0690605   0.016566  0.0281293  0.0103147  0.0173373    0.12237  
 0.0689714  0.0138027  0.0279417 0.00882172  0.0151133   0.127865  
 0.0688859  0.0137209   0.028132 0.00866484  0.0151192   0.127963  
 0.0681705  0.0150286  0.0278998  0.0160632  0.0265249   0.128872  
 0.0678673  0.0134234  0.0277934  0.0133975  0.0233801   0.132275  
  0.069194   0.016797  0.0276803   0.010958  0.0178145    0.12242  
 0.0678931  0.0133411  0.0279057  0.0132555  0.0232134    0.13223  
 0.0691776   0.016745  0.0278031  0.0107625  0.0175707     0.1224  
 0.0690085  0.0138959   0.027761 0.00920867  0.0154916   0.127946  
 0.0690021  0.0138566  0.0278448 0.00903147   0.015282   0.127922  
 0.0680138  0.0151772  0.0277991  0.0163506   0.026919    0.12902  
 0.0676549  0.0134505  0.0278952  0.0136011  0.0235149    0.13253  
 0.0689401  0.0166766   0.027837  0.0113348  0.0182211   0.122561  
 0.0677594  0.0134661  0.0278349  0.0135198  0.0235512   0.132363  
 0.0691005  0.0167924  0.0276824  0.0112208  0.0180407   0.122416  
  0.068833  0.0138027  0.0279126 0.00945097  0.0158527   0.128136  
 0.0689414  0.0138989  0.0277665 0.00940581  0.0156532   0.127975  
  0.067917  0.0151567  0.0280195  0.0168012  0.0267315   0.129219  
 0.0677521  0.0133965  0.0280014  0.0139373  0.0233459   0.132576  
 0.0690042  0.0167137  0.0276528  0.0117597  0.0173409   0.122737  
 0.0690061  0.0139248  0.0275347 0.00976158  0.0150333   0.128237  
 0.0784961  0.0184884  0.0288444  0.0162204  0.0211513   0.099712  
 0.0740982  0.0207855  0.0286285 0.00957996  0.0151612   0.100736  
 0.0778385  0.0191448  0.0295279  0.0103423  0.0159547  0.0959699  
 0.0744393  0.0197722  0.0291265  0.0105686  0.0159278   0.101676  
 0.0781432   0.016712  0.0319064  0.0123866  0.0187505  0.0987765  
 0.0750915  0.0211628   0.028226 0.00851474  0.0134456  0.0976171  
 0.0751027  0.0185533  0.0304531 0.00895816  0.0146315  0.0984797  
 0.0770959  0.0200568  0.0285406  0.0150056  0.0192711  0.0993988  
 0.0742277  0.0218474  0.0277249  0.0109997  0.0153172   0.101814  
 0.0784019  0.0201808   0.027973  0.0114729  0.0159879  0.0971388  
 0.0741546  0.0215112  0.0280471  0.0107005  0.0151238   0.101337  
 0.0783567   0.019664   0.028505   0.011494  0.0159141  0.0968605  
 0.0751074  0.0220706  0.0277387 0.00942539  0.0138695  0.0992271  
 0.0751559  0.0216339   0.027971 0.00936511  0.0136858   0.098723  
 0.0773021  0.0206458   0.027687  0.0153214  0.0193943  0.0999005  
 0.0743025  0.0220231  0.0274468  0.0112785  0.0156326   0.101924  
 0.0785991  0.0205507  0.0273223  0.0116337   0.016119  0.0973501  
 0.0742447  0.0219426  0.0276106  0.0111368  0.0154912   0.101903  
 0.0785004   0.020352  0.0276592   0.011616  0.0159895  0.0973012  
 0.0752205  0.0222584  0.0273894 0.00961187  0.0140251   0.099333  
 0.0751574  0.0221576  0.0275744 0.00956326  0.0139234  0.0993369  
 0.0776938  0.0207937  0.0267288   0.015754  0.0200725  0.0995192  
 0.0747993  0.0215101  0.0264889  0.0123226   0.017418   0.100143  
 0.0796776  0.0205573  0.0250646  0.0114091  0.0166489  0.0956932  
 0.0745133  0.0219004  0.0270322  0.0116366   0.016068    0.10142  
 0.0789689  0.0204762  0.0266279  0.0119392   0.016367  0.0966901  
  0.076043  0.0219077  0.0258505 0.00972917  0.0144911  0.0974744  
 0.0754995  0.0220461  0.0269668 0.00986886   0.014211  0.0986646  
 0.0761751  0.0191801  0.0281992  0.0192989  0.0231272  0.0984372  
 0.0734374  0.0204303  0.0281837  0.0139784  0.0170409   0.100903  
 0.0803719  0.0177907  0.0253016  0.0152395  0.0202582  0.0910352  
 0.0761664  0.0192095  0.0270347  0.0121909  0.0161616  0.0951398  
 0.0768963  0.0182728  0.0285597 -0.00156278 0.00353284  0.0982606  
 0.0774507  0.0194608  0.0288883 0.00444224 0.00817667  0.0955204  
 0.0739497  0.0210494  0.0277332 0.00537007 0.00819086   0.100672  
 0.0772742  0.0167829   0.031564 0.00177201 0.00657283  0.0978437  
 0.0739918  0.0198651  0.0282766 0.00351155 0.00730597   0.100218  
 0.0751489  0.0213154  0.0277118 0.00662401  0.0101259  0.0974233  
 0.0749217  0.0185709  0.0300076 0.00509544 0.00912897  0.0976436  
 0.0758983  0.0202236  0.0281317 0.000376826 0.00461599  0.0989669  
 0.0776952  0.0204129  0.0278942 0.00374626 0.00874305   0.096876  
 0.0738204  0.0218212  0.0276057 0.00418091 0.00827931   0.101621  
 0.0776757  0.0199338  0.0283105 0.00361539 0.00868972  0.0965115  
 0.0738385    0.02152  0.0277394  0.0044057  0.0083236   0.101139  
 0.0749764  0.0220833  0.0276699 0.00586677  0.0102812  0.0989583  
 0.0750567   0.021662  0.0278253 0.00584118  0.0102893  0.0984372  
 0.0759406  0.0207223  0.0276306 0.000143158 0.00461512  0.0995148  
 0.0778339  0.0207596  0.0273314 0.00365346 0.00865194  0.0970602  
 0.0737672  0.0219507  0.0275203 0.00392062 0.00795424   0.101677  
 0.0777542  0.0205791  0.0276294 0.00364119 0.00877501  0.0970153  
  0.073777   0.021885  0.0275922 0.00404834 0.00811155   0.101704  
  0.075028  0.0222498  0.0274131 0.00572268  0.0101439  0.0990383  
 0.0749906  0.0221556  0.0275654 0.00574905  0.0102544    0.09906  
 0.0761646  0.0208058  0.0269311 -0.000293547 0.00377434  0.0990182  
 0.0788997  0.0207237  0.0250941 0.00393025 0.00786144  0.0951733  
 0.0740725  0.0213966  0.0269108 0.00274841 0.00569204  0.0996362  
 0.0781396  0.0206706   0.026732 0.00336623 0.00827162  0.0963346  
 0.0738897  0.0217744  0.0272813 0.00351606 0.00737764   0.101129  
 0.0758168  0.0218748  0.0259588 0.00566377 0.00925525  0.0970221  
 0.0752565  0.0220104  0.0270912 0.00544663 0.00980291   0.098328  
 0.0741207  0.0193583   0.028747 -0.0039626 0.00103955  0.0983023  
 0.0791613   0.018039  0.0257641 -0.00036546 0.00403395   0.091032  
 0.0725286  0.0200448  0.0291105 0.000809911 0.00623882   0.100513  
 0.0757392  0.0190595  0.0275105  0.0025951 0.00735036  0.0946869  
 0.0741202  0.0193661  0.0287399 -0.00387777 0.00109116  0.0981605  
 0.0789145  0.0207526  0.0250787 0.00403918   0.007991  0.0951671  
 0.0740904  0.0214124   0.026891 0.00286196 0.00577644  0.0996103  
 0.0792098  0.0180368   0.025708 -0.000274435 0.00411087  0.0909145  
 0.0725242  0.0200432  0.0291152 0.000899164 0.00629472   0.100483  
 0.0758197  0.0218906   0.025953   0.005717 0.00930991  0.0970137  
 0.0757513   0.019056   0.027499 0.00264517 0.00739259  0.0946417  
  0.076173  0.0208617  0.0269202 -0.000118292 0.00396297  0.0989429  
 0.0778347  0.0207866   0.027329 0.00374007 0.00874136  0.0970431  
 0.0737571  0.0219717  0.0275212 0.00402427 0.00803023   0.101669  
 0.0781427  0.0206952  0.0267295 0.00345363 0.00836533  0.0963128  
 0.0738841   0.021793  0.0272809 0.00362316 0.00746325    0.10112  
 0.0750247  0.0222648  0.0274128 0.00576725  0.0101845  0.0990291  
 0.0752544  0.0220238  0.0270914 0.00549217 0.00984574  0.0983176  
 0.0759376  0.0207819  0.0276277 0.000311772 0.00478655  0.0994437  
 0.0776939  0.0204399  0.0278943 0.00383138 0.00882964  0.0968581  
 0.0738117  0.0218438  0.0276033  0.0042844 0.00835321   0.101616  
 0.0777541  0.0206059  0.0276285 0.00372551  0.0088636  0.0969984  
  0.073768  0.0219069  0.0275909 0.00415193 0.00818876   0.101696  
 0.0749728   0.022099   0.027669 0.00591054  0.0103204  0.0989491  
 0.0749874  0.0221708  0.0275648 0.00579273  0.0102943  0.0990513  
  0.075894   0.020279  0.0281317 0.000536342 0.00479008  0.0988865  
 0.0774466  0.0194897  0.0288829 0.00452564 0.00828171  0.0954728  
 0.0739368  0.0210683   0.027731 0.00548362 0.00827152   0.100654  
 0.0776758  0.0199585  0.0283106 0.00369569 0.00877668  0.0964949  
 0.0738311  0.0215418  0.0277344 0.00450605 0.00840233   0.101128  
 0.0751477   0.021333  0.0277031 0.00666437    0.01017  0.0974007  
 0.0750542  0.0216768  0.0278234 0.00588291  0.0103278  0.0984278  
 0.0769342  0.0182715  0.0285805 -0.00143577 0.00365421  0.0981525  
 0.0772572  0.0167744  0.0316234 0.00185741 0.00665299  0.0978528  
 0.0739893  0.0198681  0.0282785 0.00362076 0.00737453   0.100194  
 0.0749151  0.0185709  0.0300214 0.00514505 0.00916934  0.0976281  
 0.0761397  0.0191936   0.028202  0.0192529  0.0231046  0.0984302  
  0.074782  0.0215211  0.0264872  0.0122789    0.01738   0.100161  
 0.0796543  0.0205782  0.0250676  0.0113763  0.0166005  0.0957081  
 0.0734125  0.0204368  0.0281858  0.0139384  0.0170037   0.100922  
 0.0803655  0.0178016  0.0252912  0.0151954  0.0202137  0.0910219  
 0.0760352  0.0219158  0.0258522 0.00971216  0.0144672  0.0974771  
 0.0761629  0.0192127  0.0270336  0.0121686  0.0161369  0.0951333  
 0.0776531    0.02083   0.026729  0.0156878  0.0200216  0.0995268  
 0.0742781  0.0220357  0.0274473  0.0112414   0.015607   0.101943  
 0.0785771  0.0205732  0.0273208  0.0116003  0.0160845   0.097357  
 0.0744883  0.0219122  0.0270347  0.0115978  0.0160376   0.101439  
 0.0789462  0.0204974  0.0266283  0.0119064  0.0163317   0.096694  
 0.0752135  0.0222668  0.0273892  0.0095962  0.0140087  0.0993321  
 0.0754921  0.0220537  0.0269679 0.00985307  0.0141939  0.0986627  
  0.077261  0.0206846  0.0276853  0.0152559  0.0193502  0.0999095  
  0.074204  0.0218612  0.0277236  0.0109615  0.0152919   0.101835  
 0.0783787  0.0202038  0.0279722  0.0114402   0.015954  0.0971449  
 0.0742208   0.021956  0.0276099  0.0110992  0.0154643   0.101923  
 0.0784779  0.0203746  0.0276583  0.0115834  0.0159554  0.0973081  
 0.0751002  0.0220795   0.027738 0.00941015  0.0138536  0.0992261  
 0.0751503  0.0221662   0.027574 0.00954801  0.0139072  0.0993363  
 0.0770579  0.0200948  0.0285346  0.0149424  0.0192223  0.0994036  
 0.0740728  0.0207992  0.0286239 0.00954143  0.0151219   0.100751  
 0.0778188  0.0191683  0.0295173  0.0103107  0.0159074  0.0959645  
 0.0741326  0.0215253  0.0280426  0.0106641  0.0150949   0.101356  
 0.0783354  0.0196863  0.0285021   0.011461  0.0158793   0.096867  
 0.0750873  0.0211724  0.0282192 0.00850223  0.0134241  0.0976129  
 0.0751497  0.0216426   0.027969 0.00935024  0.0136696  0.0987221  
 0.0784653  0.0185086  0.0288491  0.0161541  0.0211155   0.099698  
 0.0744161  0.0197795   0.029127  0.0105247   0.015896   0.101685  
 0.0781113  0.0167251    0.03192  0.0123466  0.0187082  0.0987847  
 0.0750922   0.018558  0.0304556 0.00893943  0.0146095  0.0984733  
   0.10683 -0.000591103  0.0287267  -0.017706 -0.00221814  0.0783129  
  0.120367  -0.010597  0.0287478 -0.0165346 0.00178055   0.070349  
 0.0995807 0.00204579  0.0309912 -0.00140297 0.00857469  0.0799916  
  0.110815 -0.00671267    0.03132 -0.0117915 0.00255545  0.0742071  
  0.119601 -0.0137917  0.0308802 -0.0015001  0.0119706  0.0687196  
 0.0991138 0.00187101  0.0336961 -0.00637071 0.00366053  0.0873007  
  0.113454 -0.00547475  0.0288463 -0.0171404 -0.000467369  0.0745897  
  0.117775 -0.0109167  0.0324693 -0.00601589 0.00746288  0.0767807  
  0.109097 -0.00540337  0.0309782 -0.00134303  0.0101446  0.0747257  
  0.107597 -0.00389798  0.0334087 -0.00620686 0.00553924  0.0830724  
  0.105182 -0.00126265  0.0292814 -0.0127596 0.00272115  0.0759752  
  0.119318 -0.0123504   0.029269 -0.0118378 0.00670077  0.0672942  
  0.100789 0.00267365  0.0285103 -0.00213467 0.00901327  0.0798163  
  0.112342 -0.00642806  0.0284442 -0.0118796 0.00496126  0.0715467  
  0.120588 -0.0135614  0.0286684 -0.00217349  0.0119589  0.0675646  
  0.100531 0.00240745  0.0293111 -0.00258272 0.00880319    0.08034  
  0.112018 -0.00655681  0.0293003 -0.0122003 0.00462238  0.0718516  
  0.120298 -0.0135235  0.0293177 -0.00258119  0.0116883  0.0684424  
  0.110145 -0.00490471  0.0286045 -0.00209707  0.0103172   0.074151  
  0.109879 -0.00502311   0.029345 -0.0025215  0.0100859   0.074853  
  0.105525 -0.000823255  0.0281047 -0.0123319 0.00322696   0.075811  
  0.119612 -0.0121026  0.0282744 -0.0113751 0.00720885  0.0668896  
  0.101007 0.00323225   0.027613 -0.00202596 0.00906766  0.0801677  
  0.112315 -0.00596177  0.0279545 -0.0116586 0.00506626  0.0716625  
  0.120755  -0.013128  0.0279575 -0.00203318  0.0120299  0.0678399  
  0.100889 0.00296873  0.0280389 -0.00220154 0.00916244   0.079994  
  0.112332 -0.00619635  0.0281889 -0.0117525 0.00513315  0.0715735  
  0.120655 -0.0133313  0.0283124 -0.00222435  0.0120575  0.0676543  
   0.11036 -0.00440458  0.0277613 -0.0019684  0.0103856  0.0744762  
   0.11024 -0.00464285   0.028178 -0.00216099  0.0104461  0.0742716  
  0.105839 -0.0001394  0.0269075 -0.0122766 0.00294026  0.0762067  
  0.119762 -0.0114077  0.0273801 -0.0112598 0.00714497  0.0674985  
    0.1025 0.00418482  0.0247522 -0.000621437 0.00889091  0.0803663  
  0.113808 -0.00489536  0.0250273 -0.0106867 0.00311614   0.071082  
  0.121387 -0.0120736   0.026476 -0.00102291  0.0123748  0.0698101  
  0.101266 0.00361915  0.0267289 -0.00230694 0.00888103  0.0799213  
  0.112561  -0.005501  0.0271162 -0.0116789 0.00495141  0.0720506  
  0.120783 -0.0125685  0.0274183 -0.00223343  0.0119326  0.0680873  
  0.111355 -0.00335143   0.025562 -0.000808815  0.0105894  0.0757212  
  0.110494 -0.00393089  0.0270461 -0.0022322  0.0102227  0.0743999  
  0.103442 0.00113822  0.0269798 -0.0158257 -0.00217795  0.0753114  
  0.117994 -0.00910264  0.0263286 -0.0137473 0.00305767  0.0669459  
  0.102451 0.00412305   0.022225 -0.00639679 0.00283384  0.0730769  
  0.110413 -0.00372436  0.0265484 -0.0149016 0.000104767  0.0710952  
   0.12155 -0.00920924  0.0224822 -0.00390945 0.00824646  0.0644258  
  0.111808 -0.00204051  0.0220223 -0.00494047 0.00539558  0.0687872  
 0.0685491  0.0161689  0.0279869  0.0137724  0.0217558   0.125179  
 0.0677711  0.0117302  0.0278833 0.00971468  0.0180608   0.134733  
  0.069269  0.0171524  0.0278232 0.00999084  0.0161287   0.120451  
  0.068072   0.014226  0.0278537  0.0115445   0.020206   0.129802  
  0.068649  0.0106637  0.0279907 0.00743133  0.0132363   0.134065  
 0.0693333  0.0172019  0.0275284  0.0104255  0.0149912   0.120657  
 0.0681681  0.0141551  0.0279222  0.0119623  0.0198883   0.129872  
  0.068941  0.0108131  0.0274606 0.00764533  0.0126057   0.134094  
 0.0690172  0.0140548  0.0279121 0.00900513  0.0148655   0.126929  
 0.0692056  0.0141899  0.0274517 0.00931543  0.0139249   0.127041  
 0.0686683  0.0163264   0.027715  0.0131923  0.0220175   0.124895  
 0.0676864  0.0117949  0.0278582 0.00935235  0.0183945   0.134491  
 0.0695172  0.0173154  0.0276583 0.00958068  0.0156367   0.120342  
 0.0682862  0.0142352  0.0277594  0.0113093  0.0200121   0.129538  
 0.0687503  0.0107293  0.0278392 0.00731437  0.0129396   0.133838  
 0.0694324  0.0172956  0.0276503 0.00987933  0.0158678    0.12031  
 0.0681857  0.0142633  0.0277882  0.0114759  0.0202092     0.1296  
 0.0687109  0.0107358  0.0278487 0.00744637  0.0130534   0.133894  
 0.0691951  0.0141622  0.0277506 0.00875179  0.0144581   0.126749  
 0.0691327  0.0141595  0.0277506 0.00896438  0.0146211   0.126771  
 0.0687866  0.0162165  0.0278449  0.0127905  0.0215207   0.124806  
 0.0677866  0.0117079  0.0279022 0.00908972  0.0181088   0.134381  
 0.0694495  0.0172188   0.027887 0.00912107  0.0151605   0.120246  
 0.0682869  0.0140975   0.027963   0.010957  0.0196911   0.129436  
 0.0687269   0.010658  0.0279648  0.0069809  0.0126302   0.133775  
 0.0694899  0.0172748  0.0277753 0.00937121  0.0153764   0.120331  
 0.0682952  0.0141651  0.0278731  0.0111406  0.0198217   0.129497  
 0.0687544  0.0107017  0.0278875 0.00716153  0.0127699   0.133812  
  0.069147  0.0140765  0.0279305 0.00834824  0.0140581   0.126669  
 0.0691828  0.0141282   0.027833 0.00856722  0.0142387   0.126729  
 0.0687103  0.0160049  0.0282025  0.0124048  0.0213869   0.124795  
 0.0677281  0.0115719  0.0281568 0.00883633  0.0180421   0.134451  
 0.0691533  0.0167016  0.0286758 0.00841655  0.0149125   0.120223  
 0.0681454  0.0136623  0.0286775  0.0106605  0.0199598   0.129961  
    0.0685  0.0103871  0.0285563 0.00669348  0.0127963   0.133881  
 0.0693479   0.017097  0.0280988 0.00886915  0.0150826   0.120271  
 0.0682249  0.0139955  0.0281794  0.0108184  0.0197141   0.129529  
 0.0686452  0.0106048  0.0281315 0.00688296  0.0126865    0.13391  
 0.0688616  0.0137062  0.0286388 0.00786238  0.0140163   0.126722  
 0.0690524  0.0139947   0.028123 0.00817399  0.0140489   0.126763  
  0.068636  0.0163428  0.0282508   0.013156  0.0216971    0.12638  
 0.0677271    0.01188  0.0281995 0.00958474    0.01848   0.135816  
  0.069149  0.0167811  0.0289471 0.00927701  0.0158921   0.122006  
 0.0681674  0.0143431  0.0282371  0.0115743  0.0200847   0.131049  
 0.0687487  0.0103879  0.0286717 0.00743034  0.0135852   0.135192  
 0.0690336  0.0136965  0.0288417 0.00867518  0.0149786   0.128278  
  0.103448 0.00113651  0.0269697 -0.0157813 -0.00215269  0.0753023  
  0.117993 -0.00909965   0.026325 -0.0137353 0.00306298  0.0669483  
  0.102505 0.00418477  0.0247503 -0.000587531 0.00892543  0.0803771  
  0.113807 -0.00489136  0.0250239 -0.0106501 0.00314178  0.0710948  
  0.121383 -0.0120707  0.0264762 -0.0010167  0.0123778  0.0698156  
  0.102464 0.00412542  0.0222055 -0.00636438 0.00285273  0.0730631  
  0.110413 -0.00372205  0.0265407 -0.0148754 0.000119101   0.071094  
  0.121547 -0.00920647  0.0224798 -0.00390538 0.00824782  0.0644264  
  0.111356 -0.00335226  0.0255627 -0.000792928  0.0106019  0.0757265  
  0.111813 -0.00203799  0.0220147 -0.00492257 0.00540768  0.0687844  
  0.105845 -0.000137068  0.0269055 -0.0122184 0.00298734  0.0762132  
  0.119759  -0.011406  0.0273798 -0.0112463 0.00715166  0.0675052  
  0.101009 0.00323213  0.0276124 -0.00199711 0.00908784  0.0801692  
  0.112312 -0.00595858  0.0279543  -0.011626 0.00508737  0.0716705  
  0.120752 -0.0131251  0.0279573 -0.00202778   0.012032  0.0678438  
  0.101268 0.00361903  0.0267286 -0.00227952 0.00890195  0.0799219  
  0.112558 -0.00549766  0.0271153 -0.0116468 0.00497308  0.0720588  
  0.120779 -0.0125656  0.0274181 -0.00222822  0.0119345   0.068091  
   0.11036 -0.00440451   0.027761 -0.00195277  0.0103949  0.0744786  
  0.110494 -0.00393096  0.0270459 -0.00221711  0.0102319   0.074402  
  0.105529 -0.000821441  0.0281046 -0.0122732 0.00327242   0.075818  
   0.11961 -0.0121011  0.0282744 -0.0113616  0.0072156   0.066896  
   0.10079 0.00267349  0.0285105 -0.00210639 0.00903311  0.0798179  
  0.112338 -0.00642503  0.0284441  -0.011847 0.00498239  0.0715548  
  0.120585 -0.0135585  0.0286685 -0.00216842   0.011961  0.0675681  
  0.100891 0.00296832  0.0280391 -0.00217369   0.009183  0.0799954  
  0.112328 -0.00619329  0.0281889   -0.01172 0.00515461  0.0715818  
  0.120652 -0.0133283  0.0283123 -0.00221907  0.0120596   0.067658  
  0.110145 -0.00490473  0.0286045 -0.00208179  0.0103266  0.0741531  
   0.11024 -0.00464294   0.028178 -0.00214579  0.0104553  0.0742738  
  0.105184 -0.00126162  0.0292833 -0.0127014 0.00276894  0.0759818  
  0.119315 -0.0123491  0.0292694 -0.0118243 0.00670789  0.0673009  
 0.0995762 0.00204501  0.0309943 -0.00137144 0.00860688  0.0799924  
  0.110806 -0.00670998  0.0313252 -0.0117571 0.00257923  0.0742191  
  0.119597 -0.0137889  0.0308801 -0.00149432  0.0119736  0.0687226  
  0.100533 0.00240674  0.0293117 -0.00255512 0.00882449  0.0803415  
  0.112013 -0.0065542  0.0293013 -0.0121678 0.00464494  0.0718599  
  0.120294 -0.0135207  0.0293179 -0.00257585  0.0116907  0.0684462  
  0.109096 -0.00540366  0.0309784 -0.00132439  0.0101594  0.0747263  
  0.109879 -0.00502331  0.0293454 -0.00250636  0.0100954  0.0748554  
  0.106834 -0.000589191  0.0287368 -0.0176622 -0.0021874  0.0783388  
  0.120361 -0.0105937  0.0287513 -0.0165225 0.00178555  0.0703626  
 0.0991048 0.00187395  0.0337151 -0.00634584 0.00367694  0.0873281  
  0.113446 -0.00546992  0.0288539 -0.0171127 -0.000451443  0.0746109  
   0.11777 -0.0109136  0.0324719 -0.00601038 0.00746627  0.0767881  
  0.107592 -0.00389617  0.0334161 -0.00619162 0.00554875  0.0830858  
 0.0768779  0.0165321  0.0282409 -0.0138253 -0.00921195  0.0994676  
 0.0693144  0.0154274  0.0282314 -0.0153266 -0.0179461   0.116391  
 0.0736291  0.0182722  0.0276814 -0.00699174 -0.00519222   0.104318  
 0.0706099  0.0173279  0.0279933 -0.00866751 -0.00973505   0.112267  
 0.0782606  0.0154728  0.0275957 -0.0186959 -0.0153082  0.0987998  
 0.0737622  0.0150664  0.0279185 -0.0196301 -0.0198769   0.107984  
 0.0733596  0.0176887  0.0284299 -0.00783055 -0.00470549   0.104677  
 0.0705738  0.0169337  0.0283782 -0.0091186 -0.00922805   0.112539  
 0.0780677  0.0150895  0.0281959 -0.0194986 -0.0148367  0.0990207  
  0.073752  0.0148213  0.0282045 -0.0200313 -0.0194525   0.108139  
 0.0739428   0.016638  0.0278009  -0.013081 -0.0124181   0.106394  
 0.0738188  0.0162389   0.028292 -0.0136874 -0.0119274   0.106624  
 0.0777796  0.0170054  0.0273465 -0.0122616 -0.00859831  0.0996101  
  0.069582  0.0155965   0.027859 -0.0148502 -0.0181485   0.116279  
 0.0744004  0.0182534  0.0274903 -0.00607117 -0.0036878   0.104968  
 0.0712644  0.0173012  0.0276384 -0.00799174 -0.00892915   0.112601  
 0.0790549  0.0152523  0.0275469 -0.0180651 -0.0137554  0.0992112  
 0.0744325  0.0148693  0.0276851 -0.0192179 -0.0190663   0.108096  
 0.0741363  0.0182745  0.0275093 -0.00643286 -0.0044679   0.104727  
 0.0710131  0.0173187   0.027759 -0.00826969 -0.00937023   0.112469  
 0.0787992  0.0153758  0.0274757 -0.0182765 -0.0144938   0.099073  
 0.0741683  0.0149769  0.0277426 -0.0193597 -0.0194995   0.108068  
 0.0746467   0.016526  0.0275922  -0.012419 -0.0112613   0.106764  
 0.0744016  0.0165936   0.027621 -0.0126624 -0.0118275   0.106623  
 0.0779427  0.0167226  0.0277996 -0.0119322 -0.00756402  0.0997456  
 0.0699152     0.0154  0.0278637  -0.014572 -0.0176324   0.116242  
 0.0743301  0.0179803  0.0279404 -0.00581261 -0.00332908   0.104782  
 0.0713517  0.0170712  0.0279109 -0.00767739 -0.00853922   0.112452  
   0.07901  0.0149145  0.0280997 -0.0179874 -0.0135489  0.0989507  
 0.0745223  0.0145888  0.0280377 -0.0190665 -0.0188144   0.107887  
 0.0743488  0.0181166  0.0277447 -0.00596385 -0.00349445    0.10492  
 0.0713056  0.0171868  0.0277903 -0.0078462 -0.0086752   0.112558  
 0.0790197  0.0150763  0.0278464 -0.0180549 -0.0135977  0.0991069  
 0.0744773  0.0147252  0.0278734 -0.0191608 -0.0188696   0.108013  
 0.0746787  0.0162463  0.0279902 -0.0122085 -0.0109481   0.106563  
 0.0746568  0.0163833  0.0278105 -0.0123303  -0.011041   0.106692  
 0.0780709   0.016311  0.0282024 -0.0117845 -0.00788994  0.0994218  
 0.0701008  0.0151754  0.0279587 -0.0143285 -0.0175868   0.116064  
 0.0747026  0.0174619  0.0279679 -0.00549562 -0.00377709   0.104412  
 0.0715984   0.016739   0.027845 -0.00738841 -0.00867851   0.112152  
 0.0795289  0.0144252  0.0281943 -0.0180543 -0.0143337  0.0988545  
 0.0748847  0.0142874  0.0280178 -0.0190733 -0.0191511   0.107794  
 0.0744771   0.017777   0.027986 -0.00565779 -0.00357859   0.104599  
 0.0714509  0.0169369  0.0279071 -0.00751318 -0.00859536   0.112328  
   0.07918  0.0147111  0.0281987 -0.0179746 -0.0139308  0.0988433  
 0.0746661  0.0144561  0.0280563 -0.0190232 -0.0189948   0.107815  
 0.0750387   0.015829  0.0280076 -0.0120721 -0.0113667    0.10634  
 0.0748058  0.0160748  0.0280351 -0.0121078 -0.0111387   0.106435  
 0.0782085  0.0157076  0.0284106 -0.0129165 -0.00816561  0.0997092  
 0.0700604  0.0149402  0.0280872 -0.0147669 -0.0175442   0.116171  
 0.0744658  0.0170193  0.0283302 -0.00666876 -0.00384088   0.104591  
 0.0713928  0.0164058  0.0281655 -0.00819597 -0.00871228   0.112276  
 0.0793022  0.0143428  0.0282833 -0.0189219 -0.0140847  0.0991575  
 0.0746878  0.0142527  0.0281233 -0.0196204   -0.01901   0.108017  
 0.0748217  0.0155947  0.0282414 -0.0129072 -0.0112675   0.106561  
 0.0828073  0.0150152    0.02831  0.0291969  0.0335663    0.10052  
  0.102566 0.00269382  0.0280403  0.0439822  0.0440921  0.0844311  
 0.0861615  0.0129019   0.029613  0.0244506  0.0300874   0.095178  
 0.0954243 0.00652302  0.0297488  0.0315209  0.0353213  0.0883593  
 0.0840229  0.0135539  0.0286334  0.0344717  0.0397345   0.100935  
 0.0940781 0.00726434  0.0287377  0.0420764  0.0450046  0.0924914  
 0.0869759  0.0126936  0.0289619   0.026565  0.0305131  0.0958075  
 0.0964219 0.00664204  0.0287519  0.0337077  0.0357639  0.0888291  
 0.0841584   0.013691  0.0282062  0.0353609   0.039457   0.101167  
 0.0944083 0.00756808  0.0280607  0.0430602  0.0447483  0.0925849  
 0.0903937  0.0098543  0.0291744  0.0331394  0.0372403  0.0939898  
 0.0909627 0.00995287  0.0284475  0.0346658  0.0372984  0.0942711  
 0.0820976  0.0152405  0.0286497   0.028175  0.0329112  0.0998933  
  0.101395 0.00236173  0.0288857  0.0421101  0.0427303  0.0837371  
 0.0861035  0.0135729  0.0282517  0.0246576  0.0277958  0.0944628  
 0.0952911 0.00704703  0.0283833  0.0312501  0.0325914  0.0873011  
 0.0834388  0.0138902  0.0283326  0.0343695  0.0383322   0.100428  
 0.0934189  0.0074599  0.0284417  0.0414688  0.0431431  0.0917301  
 0.0859112  0.0132804  0.0289668  0.0246132  0.0283624  0.0946065  
  0.095132 0.00681249  0.0290922  0.0313717  0.0333237  0.0875511  
 0.0835721  0.0137214    0.02858  0.0343755   0.038933   0.100556  
 0.0935695 0.00734171  0.0286977  0.0416691  0.0438994  0.0919756  
 0.0900029  0.0102927  0.0283691  0.0329228  0.0351301  0.0932092  
  0.089994  0.0100864  0.0288482  0.0329959  0.0358371  0.0934048  
 0.0821343  0.0156703  0.0278945  0.0283085  0.0323961    0.09997  
  0.101379 0.00269771  0.0281119   0.041747  0.0418086  0.0835221  
 0.0862319  0.0140352  0.0275343  0.0247371  0.0279633  0.0948071  
 0.0954016 0.00750973  0.0276686  0.0311842   0.032629  0.0876123  
 0.0836253  0.0142745  0.0275554  0.0343962  0.0384783   0.100709  
 0.0935728 0.00784623   0.027683  0.0413618  0.0431485  0.0919905  
 0.0861573  0.0138064   0.027906  0.0246944  0.0279622  0.0946609  
 0.0953413 0.00727851  0.0280271  0.0312122  0.0326932  0.0874409  
  0.083534  0.0140828  0.0279438  0.0344022  0.0383796   0.100577  
 0.0935023 0.00765435  0.0280508  0.0414319  0.0431278  0.0918493  
 0.0901658  0.0107168  0.0275999  0.0329047  0.0352228  0.0935083  
 0.0900832  0.0105056  0.0279843  0.0329218    0.03522  0.0933604  
 0.0821556  0.0159988  0.0272062  0.0285693  0.0333181  0.0999621  
  0.101383 0.00319119  0.0274008  0.0416082  0.0424221  0.0837469  
 0.0861989  0.0143937  0.0263093   0.025285  0.0305889    0.09372  
 0.0953351  0.0081024   0.026416  0.0313968  0.0350888  0.0868006  
 0.0830256  0.0145181  0.0274103  0.0350068  0.0400621   0.100333  
 0.0930029 0.00833461  0.0274255  0.0415864  0.0446506  0.0918258  
 0.0864407  0.0142135  0.0268633  0.0249257  0.0287279  0.0945676  
  0.095586 0.00777464  0.0269959  0.0312569  0.0333258  0.0874833  
 0.0834786  0.0144164  0.0273755  0.0345704  0.0391774   0.100634  
 0.0934384 0.00807279  0.0274627  0.0413902  0.0437835   0.092027  
 0.0898178  0.0111452  0.0269113  0.0333188  0.0373018  0.0928964  
  0.090185  0.0109245  0.0271673  0.0330231  0.0359579  0.0934056  
  0.081377  0.0157256  0.0279395  0.0301535  0.0339999  0.0997967  
  0.100861 0.00361018  0.0275613  0.0431494  0.0432929  0.0834543  
 0.0856048  0.0138328   0.027302  0.0275271  0.0308543  0.0933594  
 0.0948426 0.00786211  0.0271329  0.0337554  0.0353687  0.0863868  
  0.082914  0.0143169  0.0278945  0.0358847  0.0396575   0.100521  
  0.092982 0.00830303   0.027728  0.0426959  0.0443598  0.0918622  
 0.0895064  0.0108994  0.0275526  0.0349482  0.0372174  0.0928298  
  0.081266  0.0158107  0.0279264  0.0296715  0.0335598  0.0996885  
  0.100858 0.00361116  0.0275566  0.0430607   0.043189  0.0834454  
 0.0861352  0.0144597  0.0262906  0.0250766  0.0304064  0.0937231  
 0.0953321 0.00810953  0.0264097  0.0313378  0.0350319  0.0867924  
 0.0829503  0.0146341  0.0273833  0.0344707  0.0395392   0.100249  
 0.0929769 0.00836669  0.0274131  0.0413592  0.0443851  0.0917742  
 0.0855335  0.0138878  0.0272933  0.0273363  0.0306856  0.0933502  
 0.0948371 0.00786711  0.0271282  0.0337059  0.0353188  0.0863725  
 0.0828234  0.0144191  0.0278877  0.0353773  0.0391446   0.100432  
 0.0929495 0.00833282  0.0277233   0.042481  0.0440953  0.0918102  
 0.0897785  0.0112001  0.0268946  0.0330905  0.0370842  0.0928608  
 0.0894591  0.0109484  0.0275456  0.0347368   0.037008  0.0927887  
 0.0820551  0.0161093  0.0271859  0.0280395  0.0328187    0.09989  
  0.101383 0.00319158  0.0273972  0.0415103  0.0423075  0.0837439  
 0.0861567  0.0141051  0.0275329  0.0245218  0.0277699  0.0948247  
 0.0953938 0.00751668  0.0276687  0.0311254    0.03257  0.0876072  
 0.0835399  0.0143926  0.0275503  0.0338503   0.037921   0.100647  
 0.0935447 0.00787798  0.0276807  0.0411284   0.042864  0.0919477  
 0.0863714   0.014282  0.0268549   0.024713  0.0285327  0.0945804  
 0.0955803 0.00778163  0.0269935  0.0311984  0.0332651  0.0874779  
 0.0834009   0.014534  0.0273591  0.0340285  0.0386279   0.100566  
  0.093413 0.00810494  0.0274548  0.0411594  0.0435045  0.0919818  
 0.0901189  0.0107733  0.0275981  0.0326705  0.0349888  0.0934853  
 0.0901429  0.0109806  0.0271585  0.0327914  0.0357261  0.0933789  
 0.0820203  0.0157822  0.0278894   0.027771  0.0318962  0.0999079  
  0.101377 0.00269726  0.0281119  0.0416477  0.0416937  0.0835193  
 0.0860298  0.0136423  0.0282474  0.0244408  0.0276006  0.0944801  
 0.0952842 0.00705347  0.0283827  0.0311908  0.0325323  0.0872957  
 0.0833508  0.0140058  0.0283298  0.0338194  0.0377705   0.100363  
 0.0933886 0.00748958  0.0284423  0.0412335   0.042856  0.0916854  
 0.0860827  0.0138761  0.0279035  0.0244781   0.027769  0.0946783  
 0.0953338 0.00728523  0.0280269  0.0311529   0.032634  0.0874357  
  0.083447  0.0141996  0.0279404  0.0338539  0.0378246   0.100515  
  0.093473 0.00768504  0.0280501  0.0411974   0.042844  0.0918057  
 0.0899559  0.0103478  0.0283671   0.032687  0.0348942   0.093185  
 0.0900361  0.0105613  0.0279827  0.0326866  0.0349871  0.0933368  
 0.0819725  0.0153452   0.028658  0.0276287  0.0323977  0.0998248  
   0.10139 0.00236031  0.0288894  0.0420098  0.0426141  0.0837346  
 0.0860769  0.0129647  0.0296256  0.0242199  0.0298922  0.0951912  
 0.0954117 0.00652929  0.0297549  0.0314584  0.0352626  0.0883555  
 0.0839242  0.0136568  0.0286564   0.033905  0.0391932   0.100874  
  0.094044 0.00728842  0.0287509  0.0418355  0.0447326  0.0924515  
 0.0858324  0.0133473   0.028969  0.0243931  0.0281611  0.0946211  
 0.0951229 0.00681871  0.0290938  0.0313118  0.0332623  0.0875461  
 0.0834762   0.013832  0.0285895    0.03382  0.0383723   0.100489  
 0.0935358 0.00736927  0.0287044  0.0414313  0.0436153  0.0919311  
 0.0903385  0.0099033  0.0291888  0.0328929  0.0370132  0.0939671  
 0.0899422  0.0101393  0.0288532   0.032757  0.0355999  0.0933794  
 0.0826915  0.0150908  0.0283403   0.028668  0.0331017   0.100468  
  0.102565  0.0026915  0.0280448  0.0438901  0.0439896  0.0844339  
  0.086898  0.0127454  0.0289792  0.0263486  0.0303329  0.0958313  
  0.096413 0.00664544  0.0287576  0.0336524  0.0357139  0.0888282  
 0.0840732  0.0137837  0.0282233  0.0348227  0.0389304   0.101108  
  0.094381   0.007592  0.0280673   0.042835  0.0444819  0.0925477  
 0.0909147  0.0099971  0.0284601  0.0344357  0.0370818  0.0942551  
 0.0781354  0.0156478  0.0283739 -0.0137387 -0.00909315  0.0998979  
 0.0744725  0.0172066  0.0279548 -0.00618389 -0.00479667   0.105254  
 0.0795041  0.0142884  0.0281747 -0.0188939  -0.015249  0.0989863  
 0.0746019  0.0139688  0.0280142 -0.0210253 -0.0213129   0.108673  
 0.0742416  0.0168157  0.0282876 -0.00727491 -0.00485761   0.105429  
 0.0792703  0.0142254  0.0282598 -0.0197205 -0.0150018  0.0992792  
   0.07441  0.0139608  0.0281039 -0.0215175 -0.0211707    0.10889  
 0.0747945  0.0155727  0.0279999 -0.0132146  -0.012835   0.107228  
 0.0745819  0.0153739  0.0282132 -0.0139825 -0.0127327   0.107443  
 0.0780164   0.016199  0.0281892   -0.01265 -0.00885296   0.099618  
  0.074107   0.017694  0.0279489 -0.00646985 -0.00440762   0.105595  
 0.0789872  0.0147548  0.0281017  -0.018821 -0.0145068  0.0990747  
 0.0742514  0.0142438  0.0280404 -0.0210089 -0.0210082    0.10875  
 0.0742626  0.0175023   0.027977 -0.00632382 -0.00463897   0.105429  
 0.0791629  0.0145598  0.0281877 -0.0188108 -0.0148769  0.0989721  
 0.0743937  0.0141203  0.0280541 -0.0209721 -0.0211767   0.108687  
 0.0744424  0.0159626  0.0279948 -0.0133324  -0.012458   0.107431  
 0.0745713  0.0158008  0.0280306 -0.0132387 -0.0126349   0.107312  
  0.077874     0.0166  0.0278065 -0.0127931 -0.00852762  0.0999331  
 0.0741654  0.0179656  0.0275068 -0.00673579 -0.00477045    0.10578  
 0.0790243  0.0150897  0.0275564 -0.0188961 -0.0147113  0.0993323  
 0.0741465  0.0145198  0.0277085 -0.0211463 -0.0212448   0.108956  
 0.0741212  0.0178298   0.027756 -0.00662464 -0.0045611   0.105733  
 0.0789934  0.0149154  0.0278516 -0.0188873 -0.0145482  0.0992282  
 0.0741996   0.014378  0.0278849 -0.0210962 -0.0210569   0.108873  
 0.0743947  0.0162394  0.0276135 -0.0135392 -0.0127652    0.10763  
 0.0744141   0.016098  0.0278219 -0.0134524 -0.0125442   0.107555  
 0.0776859  0.0168849  0.0273822 -0.0131148 -0.0095494  0.0998209  
 0.0733752  0.0180023  0.0277514 -0.00760631 -0.00614222   0.105216  
 0.0782244   0.015311  0.0276355 -0.0195012 -0.0161897  0.0989613  
 0.0735049   0.014721   0.027938 -0.0215095 -0.0219743    0.10888  
 0.0738776  0.0179953  0.0275571 -0.00708109 -0.00550827   0.105576  
 0.0787576   0.015213  0.0275029 -0.0191014 -0.0154277  0.0992093  
 0.0738888  0.0146292  0.0277685 -0.0212685 -0.0216417   0.108944  
 0.0737001  0.0163604  0.0278407 -0.0141542 -0.0138213   0.107317  
 0.0741448  0.0163109  0.0276557 -0.0137655 -0.0132927   0.107511  
 0.0768237  0.0164433  0.0282482 -0.0145972 -0.0100804  0.0997182  
 0.0731597  0.0174609  0.0284223 -0.00835705 -0.00565122   0.105566  
 0.0780601  0.0149477  0.0281981 -0.0202615 -0.0157142  0.0991795  
 0.0735121  0.0145018  0.0281885  -0.021874 -0.0215707   0.109018  
 0.0736101  0.0159927  0.0282786 -0.0147004 -0.0133399   0.107528  
  0.115954 -0.00663906  0.0278083  0.0590725  0.0640446  0.0724037  
  0.129707 -0.0142842  0.0278801  0.0459524  0.0520372  0.0597114  
   0.11019 -0.0026289  0.0270739  0.0377826  0.0393339  0.0769587  
  0.108221 -0.00162992  0.0275787  0.0501963  0.0533035  0.0786854  
  0.130076 -0.0140081  0.0276741  0.0468703  0.0521525  0.0595299  
  0.110001 -0.00228302  0.0272415  0.0395653  0.0393096  0.0767114  
  0.108358 -0.00154427  0.0276769  0.0513618   0.053222  0.0786206  
  0.119915 -0.00890141  0.0275368  0.0424749  0.0454147  0.0688452  
  0.120056 -0.00856712  0.0274587  0.0437787  0.0454548  0.0686199  
  0.115935 -0.00701353  0.0278349  0.0582079  0.0637067  0.0724425  
  0.129997 -0.0148171  0.0280072  0.0464053  0.0516911  0.0594787  
  0.110521 -0.00346618  0.0278682  0.0380483  0.0375834  0.0769818  
  0.108674 -0.00217028  0.0278262  0.0502863  0.0521879  0.0787137  
  0.129907 -0.0146008  0.0279103  0.0461765  0.0518422   0.059654  
  0.110543 -0.00312022  0.0274062  0.0379422  0.0381568  0.0771558  
  0.108563 -0.00193166  0.0276359  0.0501852   0.052644  0.0787996  
  0.120225 -0.00958768  0.0279457  0.0428509  0.0444528  0.0686943  
  0.120188 -0.00930681  0.0276899  0.0426769  0.0447867  0.0688698  
  0.116103 -0.00731862  0.0281187   0.058557   0.063515  0.0722642  
  0.129995 -0.0150152  0.0284166  0.0468142   0.052116  0.0594373  
  0.110408 -0.00387412  0.0285352  0.0382385  0.0376922  0.0767365  
  0.108601 -0.00249538  0.0284593  0.0505735  0.0523875  0.0785454  
  0.130006 -0.0149133  0.0281824  0.0466192  0.0518714  0.0594059  
  0.110471 -0.00366715  0.0281853  0.0381477  0.0377245  0.0768434  
  0.108645 -0.00233212  0.0281218  0.0504424  0.0522575  0.0785929  
  0.120167 -0.0098912  0.0284959  0.0431612  0.0447244  0.0685528  
  0.120205 -0.00973714  0.0281956  0.0430127  0.0445953  0.0685792  
  0.116404 -0.00744216  0.0284298  0.0591951   0.064466  0.0725364  
  0.130845 -0.0149117  0.0284038  0.0481722   0.053884  0.0602551  
  0.110789 -0.00400348  0.0294545  0.0392621  0.0405053  0.0782365  
  0.109379 -0.00257581  0.0286184  0.0515862  0.0543484  0.0793189  
  0.130273 -0.0150093  0.0285065  0.0473338   0.052891  0.0597893  
  0.110393 -0.00397191  0.0290544  0.0385836  0.0386222   0.077214  
  0.108813 -0.0025649  0.0286501  0.0509518  0.0531983  0.0788302  
  0.120798 -0.00989222  0.0288761  0.0443608  0.0469831  0.0696894  
  0.120308 -0.00993196  0.0287744  0.0435975  0.0455674  0.0689645  
  0.117155 -0.00704348  0.0278082   0.060385  0.0649553  0.0727896  
  0.131222 -0.0144555  0.0277266  0.0486655  0.0535952  0.0600082  
  0.111714 -0.00332612  0.0281126  0.0410387  0.0407265  0.0782754  
  0.109756 -0.00220781  0.0279152  0.0524173  0.0540621  0.0792725  
   0.12142 -0.0093027  0.0278814  0.0454413   0.046898  0.0695699  
  0.117155 -0.00705303  0.0278086  0.0604347  0.0650691  0.0728264  
  0.130855 -0.0149162  0.0284028  0.0481945  0.0539313  0.0602536  
  0.110799 -0.00400297  0.0294488  0.0393259  0.0405613  0.0782276  
  0.109372 -0.00257397  0.0286134   0.051675   0.054459  0.0793402  
  0.131232 -0.0144605  0.0277267  0.0486873  0.0536421  0.0600069  
  0.111721 -0.0033264  0.0281091  0.0410957  0.0407765  0.0782637  
  0.109744 -0.00220701  0.0279139  0.0525009    0.05417  0.0792936  
  0.120808 -0.00989666  0.0288733  0.0444084  0.0470318  0.0696816  
  0.121428 -0.00930792  0.0278803  0.0454859  0.0469444  0.0695612  
  0.116407 -0.00745119  0.0284282  0.0592465  0.0645824  0.0725736  
  0.130005 -0.0150198  0.0284163  0.0468362  0.0521643  0.0594365  
  0.110415 -0.00387451  0.0285354  0.0382993  0.0377506  0.0767298  
  0.108591 -0.00249445  0.0284586  0.0506617  0.0525038  0.0785698  
  0.130283 -0.0150138  0.0285058   0.047356  0.0529392  0.0597883  
  0.110401 -0.00397207  0.0290526  0.0386452  0.0386813  0.0772072  
  0.108805 -0.00256358  0.0286474  0.0510404  0.0533137  0.0788538  
  0.120175 -0.00989602  0.0284958  0.0432074  0.0447749  0.0685464  
  0.120316 -0.00993665  0.0287732  0.0436442   0.045618  0.0689579  
  0.116105 -0.00732809  0.0281183  0.0586085  0.0636318  0.0723013  
  0.130006 -0.0148218  0.0280071   0.046427  0.0517392  0.0594776  
  0.110528 -0.00346689  0.0278681  0.0381085  0.0376412  0.0769748  
  0.108663 -0.00216997  0.0278262  0.0503739  0.0523038  0.0787373  
  0.130016 -0.0149179  0.0281822   0.046641  0.0519194  0.0594049  
  0.110477 -0.00366769  0.0281852  0.0382084  0.0377822  0.0768366  
  0.108635 -0.0023315  0.0281215  0.0505303  0.0523729  0.0786169  
  0.120233 -0.00959271  0.0279456  0.0428967  0.0445029  0.0686876  
  0.120213 -0.00974206  0.0281955  0.0430587  0.0446453  0.0685726  
  0.115936 -0.0070236  0.0278354  0.0582596  0.0638235   0.072479  
  0.129716 -0.0142894  0.0278805  0.0459743  0.0520846  0.0597099  
  0.110194 -0.00263024  0.0270784  0.0378419  0.0393882  0.0769537  
   0.10821 -0.00163104  0.0275823  0.0502842  0.0534147    0.07871  
  0.129916 -0.0146057  0.0279105  0.0461982  0.0518901  0.0596527  
  0.110548 -0.00312113   0.027408  0.0380017  0.0382146  0.0771492  
  0.108552 -0.00193191  0.0276378  0.0502727  0.0527589  0.0788231  
  0.119922 -0.00890708  0.0275387  0.0425203  0.0454628  0.0688388  
  0.120195 -0.00931208  0.0276908  0.0427224  0.0448365   0.068863  
  0.115955 -0.00664999  0.0278095  0.0591237  0.0641603  0.0724411  
  0.130085 -0.0140136  0.0276748   0.046892     0.0522  0.0595288  
  0.110008 -0.00228517   0.027245  0.0396192  0.0393607  0.0767082  
  0.108348 -0.00154595  0.0276795  0.0514454  0.0533323  0.0786466  
  0.120064 -0.00857345  0.0274602  0.0438223  0.0455021  0.0686141  
 0.0635006  0.0137072  0.0280894 -0.0425585 -0.0410529   0.126898  
 0.0561156  0.0161394  0.0280551 -0.0284645 -0.0295227   0.142635  
 0.0675651   0.014135  0.0281313 -0.0098037 -0.0142298   0.124079  
  0.066975  0.0150094  0.0280474 -0.0279385 -0.0297197    0.12163  
 0.0562255  0.0160296  0.0280698 -0.0284518 -0.0293583   0.142635  
 0.0676782   0.013911  0.0282305 -0.00993614 -0.0139198   0.124213  
 0.0670589  0.0148435  0.0281599 -0.0280818 -0.0293996   0.121714  
 0.0626244  0.0150455  0.0280936 -0.0186026 -0.0222117   0.133211  
 0.0627409  0.0148823  0.0281448 -0.0186512 -0.0219776   0.133277  
 0.0635912  0.0137159  0.0279493 -0.0424011 -0.0412622   0.126877  
 0.0563671  0.0159815  0.0279291 -0.0283396 -0.0294778   0.142645  
 0.0680271  0.0140481  0.0278076 -0.00941147 -0.0139938   0.124162  
 0.0674393  0.0148504  0.0278206 -0.0276793 -0.0294127   0.121644  
 0.0562366  0.0160674  0.0279858 -0.0283884 -0.0295307   0.142653  
 0.0678157  0.0140936  0.0279456 -0.00957648 -0.0141727   0.124139  
 0.0672286  0.0149362  0.0279069 -0.0277776 -0.0296144   0.121648  
 0.0629724  0.0149235  0.0278742 -0.0183534 -0.0220878   0.133249  
 0.0628042   0.014989  0.0279702 -0.0184569 -0.0221939   0.133246  
 0.0638778  0.0134974  0.0279493 -0.0423427  -0.041019   0.126771  
 0.0565759  0.0157527   0.027983 -0.0282182 -0.0293173   0.142534  
 0.0682052  0.0138399  0.0279306 -0.00911846 -0.0136685    0.12404  
 0.0676325   0.014613  0.0279875 -0.0275152 -0.0291779   0.121491  
 0.0564783  0.0158658  0.0279539 -0.0282885 -0.0293781    0.14259  
 0.0681246  0.0139436  0.0278708 -0.00927496 -0.0137896    0.12411  
 0.0675407  0.0147294  0.0279081 -0.0276118 -0.0292441   0.121578  
 0.0631723  0.0147066   0.027958 -0.0181469 -0.0218494   0.133134  
 0.0630801  0.0148143  0.0279154 -0.0182599 -0.0219397   0.133198  
 0.0640784  0.0133125  0.0279985 -0.0422285 -0.0409969   0.126663  
  0.056718  0.0156198  0.0279711  -0.028038 -0.0292117   0.142461  
 0.0683917   0.013642  0.0278627 -0.00890735 -0.0135986   0.123864  
 0.0678566  0.0144245   0.027945 -0.0274047 -0.0292015    0.12138  
 0.0566485  0.0156815  0.0279831 -0.0281254  -0.029275     0.1425  
 0.0682884  0.0137545  0.0279142 -0.00899147 -0.0136345   0.123979  
 0.0677387  0.0145243  0.0279791 -0.0274335 -0.0292083   0.121432  
 0.0633352  0.0145432  0.0279215 -0.0179493 -0.0217477   0.133016  
 0.0632503  0.0146295  0.0279504 -0.0180372  -0.021807   0.133087  
 0.0640264   0.013344  0.0280134 -0.0423603 -0.0408728   0.126736  
 0.0566259  0.0156796  0.0280074 -0.0281384 -0.0291835   0.142519  
 0.0682815  0.0134831   0.028039 -0.00928583  -0.013604   0.123957  
 0.0676925  0.0144236   0.028046 -0.0277093 -0.0291149   0.121522  
 0.0632374  0.0145025  0.0280192 -0.0181764 -0.0217346   0.133096  
 0.0746548  0.0191507  0.0283441  0.0203929  0.0262958   0.108745  
 0.0712771  0.0183965  0.0286765  0.0114767  0.0178104   0.112694  
 0.0760823  0.0190957   0.028963  0.0167363  0.0234637   0.103371  
 0.0712137  0.0184508  0.0288268  0.0125321  0.0185412   0.114146  
 0.0762181  0.0189388  0.0287881  0.0180202  0.0232966   0.104099  
 0.0727191  0.0197807  0.0285784  0.0106064  0.0164402    0.10642  
 0.0725785  0.0193337  0.0290835   0.011513   0.017151   0.107805  
 0.0745428   0.019205  0.0283866    0.01973   0.026094   0.107684  
 0.0714122   0.019032  0.0279047   0.012381  0.0178956   0.112687  
 0.0759243  0.0200241  0.0279816  0.0176002  0.0224167   0.103335  
  0.071357  0.0188365  0.0281566  0.0120673  0.0178719   0.112626  
 0.0758359  0.0196686   0.028484  0.0172989  0.0226169    0.10315  
 0.0727654  0.0205983  0.0278228  0.0117546  0.0166001    0.10694  
 0.0726949  0.0203318  0.0281079  0.0114046  0.0165127   0.106687  
 0.0745886  0.0196169  0.0277868  0.0201508  0.0259978   0.107911  
  0.071555  0.0191941  0.0275256  0.0127913  0.0183624   0.112837  
 0.0760709  0.0203392  0.0274119  0.0178285  0.0227231   0.103591  
 0.0714779  0.0191163   0.027741  0.0126035  0.0181102   0.112818  
 0.0759821  0.0201732  0.0277346   0.017704  0.0226118   0.103502  
 0.0728859  0.0207669  0.0274663  0.0120806  0.0169994   0.107087  
 0.0728096  0.0206843  0.0276737  0.0119296  0.0168162   0.107062  
 0.0745474  0.0198081  0.0273076  0.0206341  0.0269016   0.107823  
 0.0711694  0.0190149  0.0276199  0.0135026  0.0192599   0.112701  
 0.0759215  0.0201973  0.0267619  0.0189049  0.0246306   0.102544  
   0.07144  0.0191767  0.0274816  0.0131597   0.018806   0.112726  
  0.076168  0.0203426  0.0270019  0.0181747  0.0234464   0.103213  
 0.0727582  0.0204296    0.02722  0.0129971   0.018304   0.106346  
 0.0729133  0.0206923  0.0272665  0.0124851  0.0174887   0.106753  
 0.0738256  0.0192951  0.0281749  0.0220338  0.0272534   0.107887  
 0.0710675  0.0188637   0.027794  0.0140253  0.0182615   0.113045  
 0.0753885  0.0193076  0.0279915   0.020354  0.0247704   0.102616  
 0.0723573  0.0199041  0.0278684   0.013879  0.0173774   0.106687  
 0.0855747  0.0131719  0.0280926 -0.0122031 -0.00376612  0.0914825  
 0.0899203 0.00956277  0.0304446 -0.00157964 0.00544142  0.0871879  
 0.0792351  0.0167871  0.0291549 -0.00421517 -0.000217326  0.0959814  
 0.0898714 0.00898531  0.0321885 -0.00639689 0.00215828  0.0916763  
 0.0809396   0.015906   0.028219 -0.0066782 -0.000175432  0.0950796  
 0.0833408  0.0145072  0.0297533 0.00164231 0.00700316  0.0913008  
 0.0830215  0.0129318  0.0321196 -0.00201475 0.00441661  0.0950859  
 0.0837823  0.0142093  0.0287074 -0.00967178 -0.0018174  0.0916169  
 0.0907469  0.0104248  0.0282643 -0.00244762  0.0063689  0.0869869  
 0.0794864   0.017742  0.0278881 -0.00451616 0.00174901   0.095856  
 0.0905339  0.0100375  0.0290734 -0.00274599 0.00613115  0.0871227  
 0.0793536  0.0173936   0.028416 -0.00442976 0.00144831  0.0954944  
 0.0838528  0.0154606  0.0280929 0.000890136 0.00767686  0.0919164  
 0.0837309  0.0150244  0.0287228 0.000653217 0.00752881  0.0918271  
 0.0839554  0.0147786  0.0278035 -0.00962959 -0.00145934  0.0919888  
 0.0909152  0.0109439   0.027472 -0.00239808 0.00634154  0.0872781  
 0.0794385     0.0181  0.0275372 -0.00462971 0.00153156  0.0960326  
 0.0908199  0.0106703  0.0278991 -0.00250899 0.00644128  0.0871457  
  0.079456  0.0179258    0.02771 -0.00452754 0.00163922   0.095965  
 0.0840225  0.0159016  0.0273779 0.000867634 0.00761487  0.0921562  
 0.0839249  0.0156697  0.0277614 0.000797717  0.0077368  0.0920703  
 0.0842424  0.0151715  0.0267455 -0.00983544 -0.00224025  0.0918176  
 0.0921945  0.0115684  0.0246197 -0.00193607 0.00523135  0.0863091  
 0.0801626  0.0180962  0.0257632 -0.00549102 -0.00179078  0.0936605  
 0.0912065  0.0111818  0.0266418 -0.00269843 0.00596024  0.0869103  
 0.0797104  0.0181643  0.0268186 -0.00485028 0.000823883  0.0956321  
  0.085184  0.0162462  0.0247549 0.00129316 0.00670607  0.0907806  
  0.084324  0.0159738   0.026653 0.000567808 0.00724978  0.0915932  
 0.0816744  0.0143846  0.0286511 -0.0137677 -0.00569409  0.0914083  
 0.0917121  0.0108811  0.0241971 -0.00642487 0.000429267  0.0817521  
 0.0772032   0.017042  0.0288363 -0.00871178 -0.00235361  0.0952069  
 0.0853104  0.0144302  0.0247432 -0.00326649 0.00225603  0.0859649  
 0.0816946  0.0143946  0.0286133  -0.013494 -0.00548074  0.0912939  
 0.0921955  0.0115946  0.0246026 -0.00175573 0.00539161  0.0863408  
 0.0802595   0.018134  0.0256801 -0.00519625 -0.00152379  0.0935339  
 0.0917229  0.0109009  0.0241386 -0.00627733 0.000521765  0.0816943  
 0.0772294   0.017037  0.0288162 -0.00854707 -0.0022241  0.0950581  
 0.0851979  0.0162691  0.0247402 0.00144244 0.00685917  0.0907951  
 0.0853492  0.0144344  0.0246816 -0.00313966  0.0023495  0.0858722  
 0.0842531  0.0152063  0.0267324 -0.00949225 -0.00190924  0.0917824  
 0.0908973    0.01097  0.0274698 -0.00223228  0.0064689   0.087298  
 0.0794555  0.0181373  0.0275369 -0.00437659    0.00178  0.0959616  
 0.0911908  0.0112068  0.0266385 -0.00253455 0.00609245  0.0869248  
 0.0797402  0.0181999  0.0268062 -0.00459418 0.00109553  0.0955608  
 0.0840205  0.0159234  0.0273756 0.000999032 0.00772855  0.0921568  
  0.084324  0.0159937  0.0266506 0.000698815 0.00736784  0.0915889  
 0.0839554  0.0148135  0.0278015 -0.00928398 -0.00114012  0.0919588  
 0.0907276  0.0104505   0.028264 -0.00228109 0.00649545  0.0870066  
 0.0795061  0.0177788  0.0278852 -0.00426311  0.0019944  0.0957924  
 0.0908012  0.0106961  0.0278983 -0.00234415 0.00656992  0.0871656  
 0.0794746  0.0179631  0.0277076 -0.00427392 0.00189473  0.0958982  
  0.083849  0.0154823  0.0280928 0.00102134 0.00778877  0.0919166  
  0.083922  0.0156912  0.0277606 0.000927477 0.00785055  0.0920711  
 0.0837753  0.0142395  0.0287145 -0.00932869 -0.00149009  0.0915837  
 0.0898869 0.00958587  0.0304533 -0.00140086 0.00558993  0.0871897  
   0.07921  0.0168134  0.0292017 -0.00394123 2.47846e-05  0.0959223  
 0.0905136  0.0100618   0.029075 -0.00258251 0.00626293  0.0871432  
 0.0793679  0.0174262  0.0284202 -0.00418318 0.00170904  0.0954206  
 0.0833294  0.0145284  0.0297539 0.00177999 0.00713908  0.0912757  
 0.0837273  0.0150443  0.0287235 0.000780143 0.00764312  0.0918288  
 0.0855715   0.013169  0.0281383 -0.0119087 -0.0035198  0.0914816  
 0.0898338 0.00899319  0.0322494 -0.00623953 0.00226532  0.0917553  
 0.0809837   0.015894  0.0282497 -0.00647628 2.22178e-06  0.0950077  
 0.0829971  0.0129279  0.0321837 -0.00188679 0.00451692  0.0951348  
 0.0736996  0.0194005  0.0281739  0.0213886  0.0264544   0.107609  
 0.0712023  0.0191216  0.0276074  0.0134003  0.0191074   0.112453  
 0.0758975  0.0202933  0.0267323  0.0186423  0.0243148   0.102369  
 0.0710861  0.0189563  0.0277855  0.0139288  0.0180758   0.112804  
 0.0753509  0.0193716  0.0279911  0.0201201  0.0244816   0.102433  
  0.072753  0.0204695   0.027213  0.0128577  0.0181325   0.106258  
  0.072348  0.0199326   0.027863   0.013749  0.0171921   0.106603  
 0.0744343  0.0199528  0.0272888  0.0199526  0.0260899   0.107547  
   0.07158  0.0193089  0.0275225  0.0126795  0.0181978   0.112609  
 0.0760237   0.020446  0.0274103  0.0175595  0.0224033   0.103445  
 0.0714702  0.0192882  0.0274725  0.0130534  0.0186443   0.112487  
 0.0761316  0.0204453  0.0269894  0.0179068  0.0231217   0.103055  
 0.0728713  0.0208132  0.0274665  0.0119426   0.016829   0.107014  
 0.0729026   0.020736  0.0272642  0.0123484  0.0173144   0.106675  
 0.0744604  0.0197717  0.0277758  0.0194562  0.0251869   0.107656  
 0.0714361  0.0191493  0.0278978  0.0122708  0.0177324   0.112461  
 0.0758801  0.0201337  0.0279705  0.0173295  0.0220975   0.103191  
 0.0715021  0.0192328  0.0277355  0.0124935  0.0179495   0.112592  
 0.0759357  0.0202814   0.027729  0.0174332  0.0222934   0.103357  
 0.0727522   0.020647  0.0278175  0.0116167    0.01643    0.10687  
 0.0727955  0.0207321  0.0276709  0.0117918  0.0166465    0.10699  
 0.0744046  0.0193567  0.0283771   0.019019  0.0252551   0.107411  
 0.0712941  0.0184982  0.0286771  0.0113361  0.0176119   0.112426  
 0.0760259   0.019188  0.0289696  0.0164386   0.023131   0.103195  
 0.0713807  0.0189513  0.0281482   0.011954  0.0177006   0.112389  
 0.0757859  0.0197737   0.028479  0.0170242   0.022283   0.102993  
 0.0727035   0.019824  0.0285721  0.0104571  0.0162494   0.106323  
 0.0726808  0.0203797  0.0281007  0.0112663  0.0163353    0.10661  
 0.0745091  0.0192529  0.0283844  0.0196586  0.0254793    0.10851  
 0.0712242  0.0185315  0.0288583  0.0123844  0.0183725   0.113909  
 0.0761682  0.0190074  0.0288116  0.0177316  0.0229706   0.103943  
 0.0725571  0.0193575  0.0291012  0.0113554  0.0169772   0.107717  
  0.104935 -0.00143768  0.0282026  0.0619103  0.0673288  0.0883848  
   0.12882  -0.016193  0.0281419  0.0597495  0.0795875  0.0679053  
  0.105001 -0.00113884  0.0278552  0.0622966  0.0670092  0.0883764  
  0.128883 -0.0159112   0.027872  0.0601295  0.0792292  0.0677683  
  0.116055 -0.0118762  0.0281018  0.0703009  0.0830871  0.0870826  
  0.116024  -0.011597  0.0279053  0.0705916  0.0827692  0.0869914  
  0.104248 -0.00153814  0.0283147  0.0610117  0.0661749  0.0878575  
  0.128054  -0.016345  0.0282243  0.0586779  0.0782143  0.0672891  
    0.1045 -0.00152998  0.0283384  0.0613646   0.066746   0.088085  
  0.128348 -0.0163053   0.028241   0.059107   0.078895  0.0675846  
  0.115433 -0.0120218  0.0281856  0.0694759  0.0820691  0.0865226  
  0.115685 -0.0119888  0.0281909  0.0698078  0.0825941   0.086795  
   0.10419 -0.00131003  0.0278755  0.0607189  0.0659565  0.0879289  
  0.127931 -0.0162419  0.0279516  0.0583169  0.0778256  0.0672174  
  0.104224 -0.0014232   0.028078  0.0608789  0.0659892  0.0878591  
  0.127992 -0.0162923  0.0280743  0.0585039  0.0779402  0.0672061  
  0.115259 -0.0118772  0.0279351  0.0691863  0.0818099  0.0864791  
  0.115346 -0.0119486    0.02805  0.0693379  0.0818599  0.0864554  
   0.10377 -0.00094698  0.0278944  0.0606342  0.0664967  0.0880462  
  0.127605 -0.0159194  0.0279317  0.0582156  0.0782156  0.0673173  
  0.104025 -0.00114686  0.0278452  0.0606245   0.066236  0.0880313  
  0.127802 -0.0161099  0.0279181  0.0582195  0.0780276  0.0673064  
  0.114905 -0.0115557  0.0279483   0.069147   0.082169  0.0866103  
  0.115107 -0.0117393  0.0279202   0.069122  0.0820113  0.0865797  
  0.103994 -0.000833165  0.0278832  0.0613641  0.0664174  0.0880834  
  0.127861 -0.0157312  0.0278946  0.0589981  0.0782846  0.0673267  
  0.115117 -0.0113972  0.0279336  0.0697615  0.0821444  0.0866374  
 0.0646122  0.0122906  0.0280087 -0.0473353 -0.0446904    0.12689  
 0.0758188 0.00833225  0.0280016 -0.0496085 -0.0454214   0.111338  
 0.0623758  0.0104187  0.0279943 -0.0758803 -0.0592124   0.132943  
 0.0756578 0.00846925  0.0279977 -0.0497919 -0.0452564    0.11145  
 0.0622452   0.010552  0.0280047 -0.0759147 -0.0591334   0.132963  
 0.0802361 0.000695162  0.0280045 -0.0752519  -0.061147   0.112349  
 0.0800704 0.000871371  0.0279941 -0.0753317 -0.0610087   0.112372  
 0.0646647  0.0122329  0.0280039  -0.047226 -0.0448175   0.126826  
 0.0755365 0.00841644   0.028058 -0.0494954 -0.0452246   0.111321  
 0.0622094  0.0105264  0.0280131 -0.0758705 -0.0592192   0.132989  
 0.0756674 0.00835918  0.0280508 -0.0495229 -0.0453516   0.111316  
 0.0622981   0.010459  0.0280098 -0.0758708 -0.0592322    0.13297  
 0.0799649 0.000773958  0.0280419  -0.075086 -0.0609854   0.112296  
 0.0800984 0.00071537  0.0280363 -0.0751498 -0.0610914   0.112324  
 0.0644612  0.0124153  0.0279577 -0.0473139 -0.0448301   0.126923  
 0.0753344 0.00865857  0.0278712 -0.0494533 -0.0453158   0.111482  
 0.0619658  0.0107755  0.0279467 -0.0757775 -0.0593342   0.133135  
 0.0754383 0.00853566   0.027966 -0.0494907 -0.0452133   0.111397  
 0.0620926  0.0106488  0.0279802 -0.0758362 -0.0592483    0.13305  
 0.0797002 0.00102026  0.0279297 -0.0749479 -0.0610571   0.112432  
 0.0798354 0.000895856  0.0279862 -0.0750293 -0.0609744   0.112344  
 0.0641778  0.0126381  0.0279541 -0.0473419 -0.0450533   0.127037  
 0.0748979 0.00888559  0.0280048  -0.049483 -0.0456358   0.111575  
 0.0616757  0.0110139  0.0280114 -0.0757265 -0.0594274   0.133191  
 0.0751371 0.00877517  0.0279116 -0.0494367 -0.0455132   0.111546  
 0.0618183  0.0108994  0.0279706 -0.0757338 -0.0594131   0.133187  
 0.0793105 0.00129588  0.0279985 -0.0748743 -0.0612845    0.11255  
 0.0795143 0.00115724  0.0279491 -0.0748877 -0.0612058   0.112517  
 0.0641003  0.0126451  0.0280756 -0.0474811 -0.0448511   0.127046  
 0.0749894 0.00882593  0.0280739 -0.0497108 -0.0453779   0.111586  
 0.0617828  0.0109382  0.0280348 -0.0758328 -0.0592523   0.133114  
 0.0794285 0.00125952  0.0280342 -0.0750854 -0.0610852   0.112487  
 0.0743507 0.00971278  0.0280057 -0.0463017 -0.0433366    0.11179  
  0.061741  0.0115808   0.028015 -0.0716386 -0.0571195   0.132684  
 0.0744395 0.00964446  0.0280816 -0.0465289 -0.0430685   0.111811  
 0.0618465  0.0115012  0.0280422 -0.0717425 -0.0569339   0.132618  
 0.0788264 0.00208847  0.0279996 -0.0724779 -0.0598197   0.112881  
 0.0789425 0.00204862  0.0280381  -0.072687 -0.0596145   0.112824  
 0.0747978 0.00948957  0.0278617 -0.0462519 -0.0430018   0.111705  
 0.0620406  0.0113481  0.0279393 -0.0716678 -0.0570179   0.132633  
  0.074597 0.00960465  0.0279059 -0.0462444 -0.0432071   0.111764  
 0.0618897  0.0114691  0.0279676 -0.0716343 -0.0571023   0.132681  
 0.0792195 0.00181696  0.0279247 -0.0725398 -0.0595869   0.112767  
 0.0790327 0.00195218  0.0279464  -0.072485 -0.0597385    0.11285  
 0.0749938 0.00924595   0.028057 -0.0462764 -0.0429006    0.11154  
 0.0622808  0.0111006  0.0280121 -0.0717389 -0.0568967   0.132486  
 0.0748988 0.00936579   0.027961 -0.0462807 -0.0428933   0.111621  
 0.0621656  0.0112223   0.027976  -0.071716 -0.0569274   0.132549  
 0.0794797 0.00157081  0.0280422 -0.0726667 -0.0595116    0.11263  
 0.0793525 0.00169257   0.027984  -0.072616 -0.0595019    0.11268  
 0.0752783  0.0091515  0.0280003 -0.0463782 -0.0430961    0.11155  
 0.0624516  0.0109888  0.0279911 -0.0717344 -0.0568909   0.132435  
 0.0751247 0.00918535    0.02805  -0.046297 -0.0430267    0.11153  
 0.0623709  0.0110323  0.0280083 -0.0717306 -0.0569107   0.132464  
 0.0797509 0.00148915  0.0280037 -0.0728223 -0.0596719   0.112677  
 0.0796126 0.00151152  0.0280366 -0.0727249 -0.0596171   0.112654  
 0.0751165 0.00927949  0.0280015 -0.0465768 -0.0429315   0.111673  
 0.0623188  0.0111148  0.0280059  -0.071786 -0.0568079   0.132465  
 0.0795857 0.00166043  0.0279949 -0.0729108 -0.0595318   0.112708  
  0.103797 -0.000925343  0.0278937  0.0605155  0.0663779  0.0879085  
  0.127603 -0.0159065  0.0279314  0.0581853  0.0781503  0.0672994  
  0.104022 -0.000811441  0.0278822  0.0612471  0.0662988  0.0879451  
  0.127859 -0.0157182  0.0278941  0.0589682  0.0782197  0.0673085  
  0.114938  -0.011553   0.027948  0.0691008  0.0821136  0.0865156  
  0.115149 -0.0113941  0.0279332  0.0697163  0.0820896  0.0865426  
  0.104217 -0.00128924  0.0278752   0.060601  0.0658358  0.0877911  
  0.127928 -0.0162292  0.0279516  0.0582871  0.0777599  0.0671994  
  0.104052 -0.00112572  0.0278446  0.0605062  0.0661161  0.0878938  
    0.1278 -0.0160972  0.0279179  0.0581895  0.0779619  0.0672885  
  0.115292 -0.0118745   0.027935  0.0691403  0.0817538  0.0863845  
   0.11514 -0.0117367  0.0279199  0.0690759  0.0819553  0.0864852  
  0.104274 -0.0015176  0.0283161  0.0608939  0.0660545  0.0877189  
  0.128051 -0.0163325  0.0282247  0.0586482  0.0781487  0.0672708  
  0.104251 -0.00140254  0.0280785  0.0607611  0.0658688  0.0877209  
  0.127989 -0.0162797  0.0280745  0.0584741  0.0778747   0.067188  
  0.115465 -0.0120189  0.0281861  0.0694303  0.0820133  0.0864278  
  0.115378 -0.0119458  0.0280502  0.0692921   0.081804  0.0863606  
  0.104962 -0.00141741  0.0282041   0.061794  0.0672125  0.0882474  
  0.128817 -0.0161806  0.0281426  0.0597198  0.0795227  0.0678871  
  0.104527 -0.0015096  0.0283401  0.0612472  0.0666272  0.0879468  
  0.128344 -0.0162929  0.0282417  0.0590772  0.0788295  0.0675662  
  0.116087  -0.011873  0.0281024  0.0702562  0.0830331  0.0869883  
  0.115717 -0.0119857  0.0281917  0.0697625   0.082539  0.0867003  
   0.10503 -0.0011181  0.0278546  0.0621817  0.0668927  0.0882385  
   0.12888 -0.0158986  0.0278718  0.0601002  0.0791649  0.0677502  
  0.116057 -0.0115936   0.027905  0.0705477  0.0827155   0.086897  
 0.0667004  0.0135457   0.028291 -0.00222098 -0.00587731   0.128689  
 0.0668863  0.0133274    0.02832 -0.00240026 -0.00556077   0.128806  
 0.0676134  0.0113226  0.0283382 0.00105724 -0.000460643   0.131816  
 0.0678606  0.0110454  0.0284179 0.000884562 -5.48729e-05    0.13185  
 0.0670984  0.0135817  0.0278385 -0.00182402 -0.00586182   0.128807  
 0.0669123  0.0135605  0.0280375 -0.00202416 -0.00596196   0.128801  
 0.0679379  0.0114034  0.0278773 0.00137072 -0.000539145    0.13184  
 0.0677954  0.0113642  0.0280711 0.00119485 -0.00058274   0.131865  
 0.0672791  0.0134289  0.0278743 -0.0014377 -0.00548479   0.128737  
 0.0671997    0.01351  0.0278542  -0.001635 -0.00565136   0.128793  
 0.0680781  0.0113043  0.0278637 0.00172285 -0.000209012   0.131801  
  0.068022  0.0113517  0.0278726 0.00154097 -0.000365033   0.131841  
 0.0673692  0.0133766  0.0277138 -0.00110532 -0.00528219   0.128608  
 0.0673192  0.0133792  0.0278479 -0.00128372 -0.00536548    0.12874  
 0.0681198  0.0113106  0.0277367 0.00201797 3.8447e-05   0.131865  
 0.0681039   0.011245  0.0278724 0.00184729 -7.88372e-05   0.131824  
  0.067371  0.0129865  0.0279404 -0.00155898 -0.00543253   0.128405  
  0.068269  0.0109426   0.027766 0.00170384 -0.000180112   0.131393  
  0.115623 -0.00625191  0.0261672  0.0272578  0.0312642  0.0724842  
  0.114729 -0.00560431  0.0263491  0.0306203  0.0324143  0.0716205  
  0.120239 -0.0104262  0.0263294   0.018591   0.025232  0.0704495  
  0.119537 -0.00856054   0.024984   0.021973  0.0273046  0.0682923  
  0.115158 -0.00734392  0.0279813  0.0280751   0.029485  0.0726391  
  0.115437 -0.00693192  0.0272264   0.028006  0.0297076  0.0728755  
  0.119618 -0.0114529  0.0280234   0.019638  0.0244415  0.0698253  
  0.119764  -0.010976  0.0273957  0.0197192  0.0245313   0.070172  
  0.115177 -0.00779317  0.0285042  0.0282434  0.0296071   0.072449  
  0.115165 -0.00756843  0.0282372  0.0281463  0.0295183  0.0725138  
  0.119542 -0.0118561  0.0285936  0.0197694  0.0245248  0.0696999  
  0.119579 -0.0116476   0.028293  0.0197546  0.0244216  0.0697226  
  0.114382 -0.00799736  0.0307756  0.0287379   0.032459  0.0747386  
  0.114856 -0.00790044  0.0293493  0.0285591  0.0301471  0.0729745  
  0.118323 -0.0119666  0.0311528  0.0196394  0.0259367   0.071924  
  0.119273 -0.0118744  0.0292959  0.0200932  0.0249134  0.0703409  
   0.11627 -0.00701031   0.028838  0.0325778  0.0346144  0.0753941  
  0.119229 -0.0100844  0.0300314  0.0241178  0.0299248  0.0751433  
  0.114387 -0.00799919  0.0307755  0.0287452  0.0324655  0.0747341  
  0.116275 -0.0070119  0.0288372  0.0325849  0.0346181  0.0753888  
  0.118319  -0.011963   0.031153  0.0196464  0.0259421  0.0719271  
  0.119227 -0.0100806  0.0300304  0.0241253  0.0299281  0.0751442  
  0.115181 -0.00779507  0.0285042  0.0282491  0.0296113  0.0724431  
   0.11486 -0.00790243  0.0293497  0.0285651  0.0301518  0.0729692  
  0.119538 -0.0118526  0.0285935  0.0197756  0.0245285  0.0697014  
  0.119269 -0.0118709  0.0292963  0.0200994  0.0249173  0.0703426  
  0.115162 -0.0073457  0.0279814  0.0280807  0.0294891  0.0726333  
   0.11517 -0.00757028  0.0282373  0.0281519  0.0295228  0.0725081  
  0.119614 -0.0114493  0.0280234  0.0196441  0.0244452  0.0698267  
  0.119576  -0.011644   0.028293  0.0197607  0.0244255  0.0697242  
  0.115627 -0.00625396  0.0261675  0.0272624  0.0312693  0.0724788  
  0.115441 -0.00693369  0.0272263  0.0280112  0.0297121  0.0728698  
  0.120236 -0.0104227  0.0263293  0.0185965  0.0252366  0.0704508  
  0.119761 -0.0109723  0.0273955  0.0197251  0.0245352  0.0701735  
  0.114734 -0.00560625  0.0263496  0.0306244  0.0324174  0.0716155  
  0.119533 -0.00855743  0.0249849  0.0219781  0.0273077  0.0682942  
 0.0444823  0.0207007   0.028005 -0.0310196 -0.0284293   0.157126  
 0.0675798  0.0138214  0.0279515  -0.031174 -0.0323271   0.122449  
 0.0552531  0.0162644  0.0279824 -0.0403003 -0.0372629    0.14273  
 0.0544006  0.0165365  0.0279503 -0.0182806 -0.0209592   0.147778  
 0.0674215  0.0138453  0.0280346 -0.0314347 -0.0322372   0.122578  
 0.0551515  0.0163512  0.0280075 -0.0403809 -0.0372142   0.142776  
 0.0543464  0.0165408  0.0279998 -0.0183763 -0.0209789   0.147809  
 0.0612907  0.0151788  0.0279468 -0.0253628 -0.0271043   0.135716  
  0.061186  0.0151883  0.0280163 -0.0255431 -0.0270731   0.135792  
 0.0444943  0.0206803  0.0279909  -0.031093 -0.0284949   0.157147  
 0.0673651  0.0139894  0.0279925 -0.0312727 -0.0323156   0.122542  
 0.0551089  0.0163889  0.0279948 -0.0404411 -0.0373318     0.1428  
 0.0542862  0.0166632  0.0279632 -0.0185151 -0.0211365   0.147858  
 0.0674687  0.0139071  0.0279842 -0.0311998 -0.0323414   0.122491  
 0.0551839  0.0163184  0.0279945 -0.0403675  -0.037309   0.142765  
 0.0543444  0.0165982  0.0279631 -0.0184013 -0.0210523    0.14783  
 0.0611279  0.0153316   0.027973 -0.0255343 -0.0271894   0.135815  
 0.0612081  0.0152558  0.0279684 -0.0254386 -0.0271577   0.135771  
 0.0443537   0.020859   0.027971 -0.0312371 -0.0286148   0.157225  
 0.0671622  0.0142265  0.0278408 -0.0314102 -0.0325298   0.122691  
  0.054899  0.0166246  0.0279362 -0.0405064 -0.0374692   0.142921  
 0.0540822  0.0168716  0.0279382 -0.0186888 -0.0213227   0.147946  
 0.0672687  0.0141056  0.0279198 -0.0313558 -0.0323739   0.122624  
 0.0550097  0.0165051  0.0279642 -0.0404845 -0.0373791   0.142859  
 0.0541927  0.0167669  0.0279464 -0.0186085 -0.0212204   0.147903  
 0.0609215  0.0155569  0.0278935  -0.025692 -0.0273918   0.135935  
 0.0610317  0.0154429  0.0279325 -0.0256237 -0.0272631    0.13588  
 0.0441637   0.021061  0.0279986 -0.0312995 -0.0286957   0.157268  
 0.0667278  0.0143918  0.0280481 -0.0316257  -0.032789   0.122701  
  0.054649  0.0168042  0.0280362 -0.0405777 -0.0375256   0.142925  
 0.0538725  0.0169954  0.0280835 -0.0188474 -0.0213052   0.147905  
 0.0669614  0.0143157  0.0279204 -0.0314894 -0.0327067   0.122707  
 0.0547703  0.0167216  0.0279791 -0.0405285 -0.0375267   0.142938  
 0.0539674  0.0169384  0.0280088 -0.0187586 -0.0213441    0.14794  
  0.060601  0.0157007  0.0280704 -0.0258793 -0.0275018   0.135918  
  0.060764  0.0156351  0.0279699 -0.0257669 -0.0274854    0.13594  
 0.0441982  0.0210331  0.0280344 -0.0312829 -0.0285693   0.157198  
 0.0668192  0.0142445  0.0281411 -0.0317531 -0.0324897   0.122764  
 0.0547511  0.0167058  0.0280547 -0.0405881 -0.0373604   0.142898  
 0.0540013  0.0168707  0.0280818 -0.0187955  -0.021168   0.147921  
 0.0607125  0.0155578  0.0281128 -0.0259164 -0.0272868   0.135951  
 0.0807936  0.0161766  0.0268436 -0.0112355 -0.00661368  0.0946772  
 0.0737405  0.0200341   0.027305 -0.00226617 8.10904e-05   0.102337  
 0.0801754  0.0155806  0.0279145 -0.0128413 -0.00626517   0.094631  
 0.0732048  0.0192272  0.0283475 -0.00378527 0.00030466   0.102594  
 0.0766547  0.0183167  0.0270586 -0.00628788 -0.00309618  0.0989187  
 0.0761052   0.017532  0.0281803 -0.00774907 -0.0027163  0.0990478  
 0.0812734   0.015947  0.0275095 -0.0103936 -0.00388685  0.0956698  
 0.0741296  0.0202724  0.0274683 -0.00117878 0.00203918   0.103639  
 0.0813223  0.0160985  0.0270189 -0.0105996 -0.00478657  0.0953323  
 0.0741205  0.0202031   0.027283 -0.00157839 0.00126067   0.103162  
 0.0770985  0.0183136  0.0274819 -0.00527599 -0.000722182   0.100067  
 0.0771219  0.0183456  0.0271502 -0.00558577 -0.00154883  0.0996388  
 0.0812219  0.0155602  0.0280685 -0.0103071 -0.0036959  0.0953451  
 0.0741304   0.020015  0.0278118 -0.000930998 0.00236532   0.103452  
 0.0812407  0.0157493  0.0278026 -0.0103564 -0.00385846  0.0955389  
 0.0741142  0.0201417  0.0276664 -0.00105649 0.00217691   0.103596  
 0.0770791  0.0179951  0.0279268 -0.0051027 -0.000444271  0.0998192  
  0.077077  0.0181519  0.0277259 -0.00519549 -0.000628525  0.0999758  
 0.0816761  0.0148025   0.028629  -0.010355 -0.00528549  0.0952798  
 0.0744405  0.0194324  0.0278627 -0.000304364 0.00162948    0.10273  
 0.0812035  0.0152549  0.0284726  -0.010298 -0.00421965  0.0952539  
 0.0741416  0.0197458  0.0279785 -0.000698971 0.00222612   0.103176  
 0.0774724  0.0172654  0.0282639 -0.0048101  -0.001532   0.099377  
 0.0770713  0.0177161  0.0282037 -0.00497412 -0.000777033  0.0996154  
 0.0815723   0.014436  0.0287915 -0.0118745 -0.00499788   0.095869  
  0.074154  0.0183033  0.0287246 -0.00199868 0.00179396   0.102884  
  0.077222  0.0166254  0.0287398 -0.00632399 -0.00138205  0.0998544  
 0.0782858  0.0169323  0.0287078  0.0232302  0.0296663    0.10442  
 0.0816322   0.015478  0.0303051  0.0174572  0.0239982  0.0963052  
 0.0783438  0.0169637  0.0284081  0.0242176   0.029587   0.104801  
 0.0842216  0.0147215  0.0289005  0.0205675  0.0255462  0.0961022  
  0.080595   0.016165  0.0292216  0.0203542  0.0266622  0.0994034  
 0.0810845  0.0157889  0.0289445  0.0219637  0.0269001   0.100028  
 0.0778688  0.0174549  0.0281866  0.0235721   0.028593   0.103967  
 0.0825274   0.016436  0.0280325  0.0183604  0.0220875   0.095619  
 0.0779448   0.017205  0.0285124  0.0234065  0.0290781   0.104018  
 0.0822666  0.0160487  0.0288471  0.0182422  0.0222459  0.0954106  
 0.0804841  0.0169116    0.02811  0.0208968  0.0250497  0.0990776  
 0.0803401   0.016582  0.0287201  0.0207188  0.0254348  0.0990583  
  0.078112  0.0178006  0.0274527  0.0237692  0.0289003   0.104248  
 0.0825822  0.0168536  0.0274991  0.0185035   0.022284  0.0958015  
 0.0779892  0.0176265  0.0278361  0.0236886  0.0287752    0.10416  
 0.0825383  0.0166436  0.0277929  0.0183965  0.0221625  0.0957246  
 0.0806171  0.0172973  0.0274657  0.0210453  0.0252978  0.0993776  
 0.0805372  0.0171008  0.0278122  0.0209656  0.0252332  0.0992591  
 0.0775272  0.0178586  0.0273151  0.0246662  0.0306216   0.103758  
 0.0836866  0.0169428  0.0252477    0.01907  0.0250716  0.0935398  
  0.077981  0.0178862  0.0272552  0.0240621  0.0296869   0.104114  
 0.0829632  0.0169404  0.0266694  0.0187389  0.0227902  0.0954908  
 0.0805353  0.0173701   0.026549  0.0219019  0.0276467  0.0982616  
 0.0807816  0.0173818  0.0269198   0.021318  0.0260235  0.0990528  
 0.0772449  0.0175446  0.0279881  0.0254596  0.0301505   0.104037  
 0.0812828  0.0159113  0.0277901   0.022666  0.0264839  0.0941417  
 0.0800041  0.0166824  0.0276034  0.0236499   0.027703  0.0981161  
 0.0774583  0.0179864  0.0272764  0.0241741   0.030106   0.103556  
 0.0836828  0.0169589  0.0252303  0.0189831  0.0249997  0.0935169  
 0.0771523   0.017646  0.0279841  0.0250047  0.0296521    0.10383  
 0.0812615  0.0159145  0.0277868  0.0226135  0.0264536  0.0941155  
 0.0804787  0.0174459  0.0265252  0.0216408  0.0273709  0.0982004  
 0.0799349  0.0167395  0.0275972  0.0234124  0.0274468  0.0980433  
 0.0780211  0.0179422  0.0274471  0.0232544  0.0283467   0.104084  
 0.0825569  0.0168723  0.0274979  0.0184287  0.0222323  0.0957926  
  0.077904  0.0180236  0.0272331  0.0235547  0.0291402   0.103935  
 0.0829382  0.0169579  0.0266689  0.0186646  0.0227296  0.0954833  
  0.080542  0.0173816  0.0274641  0.0207784  0.0250137  0.0993386  
 0.0807147  0.0174632  0.0269095   0.021053  0.0257351  0.0990066  
  0.077778  0.0175978  0.0281747   0.023055  0.0280356   0.103803  
  0.082502  0.0164549  0.0280318   0.018285  0.0220366  0.0956134  
 0.0778975  0.0177684  0.0278287  0.0231716  0.0282272   0.103997  
 0.0825129  0.0166625  0.0277916  0.0183218  0.0221063  0.0957176  
 0.0804115   0.016997  0.0281022  0.0206279  0.0247646  0.0990398  
  0.080463  0.0171854  0.0278081   0.020697  0.0249493  0.0992209  
 0.0781797  0.0170503  0.0287304   0.022675  0.0291126   0.104239  
 0.0815894  0.0154958  0.0303157  0.0173719  0.0239264  0.0962973  
 0.0778432  0.0173397  0.0285156  0.0228783  0.0285133   0.103842  
  0.082243   0.016067  0.0288436  0.0181689  0.0221863  0.0954012  
 0.0805095  0.0162395   0.029232  0.0200667  0.0263705  0.0993502  
 0.0802617  0.0166636  0.0287191   0.020446  0.0251387  0.0990138  
 0.0782482   0.017062  0.0284384  0.0236872  0.0290529   0.104637  
 0.0842024  0.0147265   0.028909  0.0204993  0.0255104  0.0960881  
 0.0810059  0.0158448  0.0289661  0.0216866  0.0266224  0.0999866  
 0.0816886  0.0147267  0.0285991 -0.0109422 -0.00584376   0.095352  
 0.0742961  0.0192329  0.0278556 -0.000730079 0.00107386   0.103337  
 0.0815637  0.0143892  0.0287554 -0.0124044 -0.00554605  0.0959286  
 0.0740054   0.018175  0.0286727 -0.00235873 0.00122569   0.103484  
 0.0773667  0.0171548  0.0282403 -0.00529948 -0.00211627  0.0997353  
 0.0771035  0.0165582  0.0286964 -0.00675049 -0.00196467   0.100199  
 0.0812177  0.0154661  0.0280756 -0.0108783 -0.00429207  0.0954115  
 0.0739835  0.0197913   0.027823 -0.00132421 0.00176623   0.104012  
 0.0812112  0.0151665  0.0284616 -0.0108725 -0.00481651  0.0953259  
 0.0740042  0.0195334   0.027973 -0.0010954 0.00162671   0.103754  
 0.0769636  0.0178609  0.0279356 -0.00557059 -0.00107483   0.100154  
 0.0769679  0.0175902   0.028193 -0.00544305 -0.00140649  0.0999601  
 0.0812705  0.0158515  0.0275111 -0.0109636 -0.00448206  0.0957364  
 0.0739832  0.0200486  0.0274749 -0.00158029 0.00143122   0.104198  
 0.0812371  0.0156543  0.0278073 -0.0109287 -0.00444922  0.0956063  
 0.0739681  0.0199182  0.0276753 -0.00145546 0.00158021   0.104157  
 0.0769843  0.0181788   0.027485 -0.00574668 -0.00135685   0.100401  
 0.0769623  0.0180172  0.0277322 -0.0056665 -0.0012548   0.100312  
 0.0807536  0.0160867   0.026903 -0.0117955 -0.00715121  0.0947973  
  0.073543   0.019832  0.0273864 -0.00265373 -0.000440983   0.102997  
 0.0813002  0.0160053  0.0270452 -0.0111665 -0.00537976  0.0954129  
 0.0739462  0.0199863  0.0273233 -0.00197779 0.00066343   0.103753  
 0.0764956  0.0181931  0.0271321 -0.00674662 -0.00365383  0.0993294  
 0.0769827  0.0182144  0.0271848 -0.00605589 -0.00217827   0.099995  
 0.0801783  0.0155141  0.0279304 -0.0133326 -0.00676688  0.0947582  
 0.0730609  0.0190754  0.0283558 -0.00406557 -0.000177241   0.103262  
 0.0759953  0.0174474  0.0281936 -0.00812216 -0.00323768  0.0994691  
  0.036923  0.0246329  0.0279948 0.00423063 0.00328369   0.172054  
 0.0592987  0.0102215  0.0279843 0.00233641 0.00238908   0.152084  
 0.0602456  0.0114211  0.0279611 -0.00319795 -0.00627219   0.146656  
  0.040544  0.0232146  0.0280109 -0.0138684 -0.0130507   0.165937  
 0.0492411  0.0170504  0.0280302 0.00307611 0.00241311   0.161725  
 0.0602391  0.0114037  0.0279881 -0.00321848 -0.00632483   0.146695  
 0.0405075  0.0233042      0.028 -0.0138625 -0.0130892   0.165945  
 0.0492426  0.0171303  0.0279883   0.003153 0.00234422   0.161747  
 0.0517242  0.0170445  0.0279886 -0.00792559 -0.00972393   0.155843  
 0.0516997  0.0170819   0.027993 -0.00793614 -0.00977116   0.155864  
  0.036916   0.024518  0.0280249 0.00405672 0.00327569   0.171999  
 0.0592341  0.0102015  0.0280105 0.00206177 0.00229137   0.151979  
 0.0601481   0.011528  0.0279596 -0.00344736 -0.00651704    0.14667  
 0.0404665  0.0232953  0.0279957 -0.0140776 -0.0131855   0.165939  
 0.0491783  0.0171027  0.0279921 0.00284273 0.00220062   0.161632  
 0.0601939  0.0114734  0.0279696 -0.00333979 -0.00640443   0.146678  
 0.0405077  0.0232426  0.0280079 -0.0139864 -0.0131213   0.165934  
 0.0492103  0.0170611  0.0280184 0.00293275 0.00229636    0.16167  
 0.0516343  0.0171368  0.0279775 -0.00815863 -0.00991663   0.155845  
 0.0516795  0.0170826    0.02799 -0.00805747 -0.0098272   0.155847  
 0.0368232  0.0246568   0.027986 0.00392615 0.00317633   0.171999  
 0.0591319  0.0103389  0.0279612 0.00193063 0.00211717   0.151953  
 0.0599626  0.0117169  0.0279436 -0.0036192 -0.00668381   0.146734  
 0.0403067  0.0235101   0.027972 -0.0141575 -0.0132726   0.166014  
 0.0490211  0.0172965  0.0279709 0.00275529 0.00212767   0.161685  
 0.0600662  0.0116235  0.0279436 -0.00353512 -0.00659779   0.146701  
 0.0403927  0.0234018  0.0279794 -0.0141216 -0.0132305   0.165976  
 0.0491083  0.0172003  0.0279737 0.00279997 0.00215705   0.161657  
 0.0514558  0.0173387  0.0279576 -0.0082873 -0.0100444   0.155914  
 0.0515536  0.0172378  0.0279614 -0.00822583 -0.0099804   0.155879  
 0.0367017  0.0248314  0.0280022 0.00386034 0.00315815   0.172016  
 0.0589712  0.0104703  0.0280263 0.00182984 0.00210953    0.15199  
 0.0597892  0.0117975  0.0281093 -0.0038167 -0.00662533   0.146694  
 0.0401956  0.0236521  0.0280275  -0.014217 -0.0132645   0.165958  
 0.0489385  0.0173942  0.0280525 0.00265921  0.0021607   0.161651  
 0.0598619  0.0117621  0.0280271 -0.00370084 -0.00668032   0.146732  
 0.0402387  0.0235899  0.0280008 -0.0141833 -0.0132753   0.166002  
 0.0489623  0.0173544  0.0280141 0.00271506 0.00214227   0.161684  
 0.0513106  0.0174486  0.0280679 -0.00841649  -0.010014   0.155869  
 0.0513696  0.0174009  0.0280135 -0.00834256 -0.0100448   0.155907  
 0.0367714  0.0248469   0.027992 0.00395247 0.00313489   0.171966  
  0.059095   0.010435  0.0280176 0.00188688 0.00213895   0.151997  
 0.0599408   0.011688  0.0280715 -0.00372684 -0.00656014   0.146742  
 0.0402897  0.0235797  0.0280119   -0.01413 -0.0132272   0.165937  
 0.0490589  0.0173431  0.0280055 0.00278929 0.00214652   0.161659  
 0.0514355  0.0173567  0.0280422 -0.00832778 -0.00995831   0.155878  
  0.151382  -0.025746  0.0276393  -0.002994  0.0122667  0.0335681  
  0.148182 -0.0247162  0.0283199  0.0173458  0.0287385  0.0414576  
  0.153045 -0.0205671  0.0280707 0.00300713  0.0180175  0.0211064  
  0.147156 -0.0204151  0.0282367  0.0315702  0.0527325  0.0378256  
  0.148703 -0.0241969  0.0276385  0.0174604  0.0285142  0.0409939  
  0.153425 -0.0203205  0.0277883 0.00267904  0.0176387  0.0208045  
  0.147525 -0.0200904  0.0277728  0.0318718  0.0523992  0.0375149  
  0.151036 -0.0204553  0.0281597  0.0173022  0.0372874   0.029534  
   0.15142 -0.0201697  0.0277745  0.0173118  0.0369288  0.0292123  
  0.150841 -0.0264604  0.0281789 -0.00331128  0.0121566    0.03372  
  0.147696 -0.0249987  0.0283299  0.0160916  0.0274136  0.0406003  
  0.152696 -0.0207711  0.0281381 0.00191041   0.017145    0.02075  
  0.146396 -0.0205838   0.028268  0.0302174  0.0510747  0.0371588  
  0.147846  -0.024913  0.0283785  0.0165786  0.0279682  0.0410031  
  0.152829 -0.0207006  0.0281205 0.00238814   0.017557  0.0209407  
  0.146663 -0.0205325  0.0283093  0.0307639  0.0518318  0.0374689  
  0.150449 -0.0206435  0.0282073  0.0160393  0.0359541  0.0290114  
   0.15066 -0.0205809  0.0282212  0.0165655  0.0365691  0.0292669  
  0.150804 -0.0266339  0.0282219 -0.00397106  0.0115569  0.0332787  
  0.147713 -0.0249481  0.0282163  0.0156386  0.0268412  0.0405784  
  0.152723 -0.0207882  0.0281703  0.0012771  0.0163913  0.0207252  
  0.146378 -0.0205441  0.0280723  0.0296907  0.0504342   0.037092  
  0.147715 -0.0249682  0.0282386  0.0158678  0.0271298  0.0405249  
  0.152707 -0.0207768   0.028134 0.00159196  0.0167733  0.0206969  
  0.146389 -0.0205613  0.0281469  0.0299577   0.050718  0.0370758  
  0.150453 -0.0206368  0.0281239  0.0154483  0.0352424  0.0289599  
  0.150452 -0.0206374  0.0281435   0.015745   0.035581    0.02894  
     0.151 -0.0265931  0.0283181 -0.00463184   0.010696  0.0336056  
  0.147927 -0.0245097  0.0280863  0.0147557   0.026198  0.0410725  
  0.153257 -0.0206278  0.0281137 0.000276491  0.0152374  0.0210396  
  0.146396 -0.0202333  0.0279791   0.029156  0.0502653  0.0372553  
  0.147801  -0.024793  0.0281704  0.0152798  0.0265486  0.0408569  
  0.152924 -0.0207375  0.0281707 0.000843091  0.0158572  0.0208892  
  0.146399  -0.020431  0.0280191  0.0294271  0.0503495  0.0372138  
   0.15072 -0.0204036  0.0280492  0.0146864  0.0345921  0.0291926  
  0.150561 -0.0205566  0.0280969  0.0151003  0.0349398  0.0291001  
  0.151757 -0.0259062  0.0276418 -0.00511382  0.0102997  0.0334725  
   0.14837 -0.0240376   0.027574  0.0153027  0.0264906  0.0406511  
  0.153622 -0.0203656  0.0277865 0.000575216  0.0156052   0.020763  
  0.146769 -0.0199498  0.0277519   0.029978  0.0505681  0.0370575  
  0.151106  -0.020128   0.027764   0.015279  0.0349358  0.0289458  
 0.0200981  0.0390636  0.0280253 0.00545943 0.00152032   0.186158  
 0.0312306  0.0307998  0.0280013 -0.0490793 -0.0369369   0.168977  
 0.0200859  0.0391662  0.0279997 0.00548843 0.00147823   0.186151  
 0.0311877  0.0308786  0.0280054 -0.0490726 -0.0369389   0.168972  
  0.024893  0.0361934   0.028013 -0.0219754 -0.0178017   0.178968  
 0.0248665  0.0362799  0.0280025 -0.0219579 -0.0178255    0.17896  
 0.0200668  0.0390706  0.0280097 0.00521806  0.0014428    0.18609  
 0.0311759  0.0308843  0.0279992 -0.0492308 -0.0370183   0.169053  
 0.0200846  0.0390493  0.0280215 0.00532169 0.00148017   0.186114  
 0.0312072  0.0308331  0.0280026 -0.0491653 -0.0369796   0.169016  
 0.0248519  0.0362377  0.0280048 -0.0221754 -0.0178783   0.178975  
 0.0248752  0.0362026  0.0280121 -0.0220893 -0.0178412   0.178967  
 0.0199826  0.0392391  0.0279851 0.00512235 0.00141186   0.186148  
 0.0310417  0.0310855  0.0279766  -0.049218 -0.0371046   0.169163  
 0.0200279  0.0391543  0.0279941 0.00516789 0.00142336   0.186117  
 0.0311137  0.0309828  0.0279863 -0.0492335 -0.0370579   0.169105  
 0.0247482  0.0364182  0.0279816 -0.0222168 -0.0179343   0.179057  
 0.0248039  0.0363266  0.0279907 -0.0222019 -0.0179071   0.179014  
  0.019945  0.0393691  0.0280028 0.00508245 0.00140297   0.186075  
 0.0309334  0.0312498  0.0280111 -0.0492074   -0.03709   0.169102  
 0.0199553  0.0393102  0.0279947 0.00509965 0.00140987   0.186127  
 0.0309789  0.0311746  0.0279931 -0.0492029 -0.0371104   0.169152  
 0.0246772  0.0365619  0.0280063 -0.0222332 -0.0179293   0.178984  
 0.0247047  0.0364965  0.0279941 -0.0222211 -0.0179366   0.179038  
 0.0199954  0.0393453    0.02799 0.00520701 0.00139271   0.186059  
 0.0310021  0.0311706  0.0280126 -0.0491905 -0.0370239    0.16904  
 0.0247338  0.0365105  0.0280006  -0.022162 -0.0179055   0.178946  
 0.0402382  0.0227612  0.0279813   0.016065  0.0129673   0.170133  
 0.0450045  0.0200964  0.0280393 -0.00143503 -0.00311359   0.163656  
 0.0222002  0.0378826  0.0280016  0.0142044 0.00883886   0.184984  
 0.0350479   0.028445  0.0280243 -0.0362056 -0.0289929   0.166855  
 0.0451088  0.0200341  0.0280122 -0.0013234 -0.00309888   0.163653  
 0.0222519  0.0378739   0.027985  0.0143441 0.00881262   0.184976  
 0.0351305  0.0283616  0.0280199  -0.036164 -0.0289275   0.166811  
 0.0283277  0.0337206  0.0280124 -0.0139707  -0.011464   0.176936  
 0.0283939  0.0336722   0.028001 -0.0138849 -0.0114476   0.176908  
 0.0401742  0.0227164  0.0279963  0.0159456  0.0130366   0.170161  
 0.0451132  0.0199696  0.0279695 -0.00135066 -0.00312336   0.163705  
 0.0222399  0.0377527  0.0279826   0.014244 0.00885169   0.185044  
 0.0351633  0.0282936  0.0279722 -0.0361754 -0.0290118   0.166917  
 0.0450445   0.020041  0.0280063 -0.00138997 -0.00312141   0.163696  
 0.0222111   0.037824  0.0279925  0.0142198 0.00885164   0.185029  
 0.0350955  0.0283764  0.0279982 -0.0361824 -0.0290158   0.166904  
 0.0284032  0.0335825  0.0279795 -0.0139377 -0.0114683   0.177004  
 0.0283561  0.0336583  0.0279965 -0.0139513 -0.0114694   0.176987  
 0.0402969  0.0225431  0.0279873   0.016004  0.0130305   0.170131  
 0.0452782  0.0197569  0.0279948 -0.00124942 -0.00303958   0.163642  
  0.022328  0.0375815  0.0280144  0.0143416 0.00886895   0.184989  
 0.0353105  0.0280909  0.0279931 -0.0361387 -0.0289129    0.16682  
 0.0452028  0.0198634   0.027976 -0.00130133 -0.00308617   0.163673  
 0.0222873   0.037667  0.0279948  0.0142921 0.00885406   0.185013  
 0.0352425  0.0281907  0.0279799 -0.0361645   -0.02896   0.166867  
  0.028518  0.0333979  0.0280037 -0.0138782 -0.0114102   0.176929  
  0.028465  0.0334892  0.0279883 -0.0139124 -0.0114415   0.176965  
 0.0403854  0.0224127  0.0280434  0.0161182  0.0131173   0.170165  
 0.0453537  0.0196939  0.0280159 -0.00101952 -0.00287503   0.163688  
 0.0223604  0.0375905   0.028035  0.0145862 0.00895181   0.185097  
  0.035377  0.0280021  0.0279975 -0.0359567 -0.0288028    0.16676  
 0.0453179  0.0197103  0.0280121 -0.00115298 -0.00296078    0.16366  
 0.0223466  0.0375647  0.0280297  0.0144445 0.00890863    0.18503  
 0.0353468  0.0280379  0.0279986 -0.0360582   -0.02886   0.166792  
 0.0285667  0.0333554  0.0280161 -0.0136675 -0.0113142   0.176945  
 0.0285448  0.0333626  0.0280139 -0.0137882 -0.0113639   0.176931  
 0.0403823  0.0225825  0.0279916  0.0163319  0.0131105   0.170274  
 0.0453256  0.0197829  0.0279934 -0.00100245 -0.00293744   0.163698  
  0.022346  0.0377113   0.027998  0.0146296 0.00890117   0.185096  
  0.035337  0.0280714  0.0280034 -0.0359621 -0.0288175   0.166761  
  0.028541  0.0334465  0.0280003 -0.0136476  -0.011349   0.176941  
  0.151759 -0.0259059   0.027642 -0.00511706  0.0102966  0.0334687  
   0.14793 -0.0245117  0.0280863  0.0147482  0.0261913    0.04107  
  0.153258 -0.0206268  0.0281136 0.000274828  0.0152345  0.0210364  
  0.146402 -0.0202375  0.0279791  0.0291489  0.0502553  0.0372524  
  0.148372 -0.0240396  0.0275741   0.015295  0.0264839  0.0406488  
  0.153622 -0.0203647  0.0277866 0.000573479  0.0156022    0.02076  
  0.146774 -0.0199539  0.0277518  0.0299706  0.0505582  0.0370547  
  0.150721 -0.0204039  0.0280492   0.014683  0.0345885  0.0291907  
  0.151107 -0.0201284   0.027764  0.0152754  0.0349323   0.028944  
  0.151002 -0.0265924   0.028318 -0.00463525  0.0106929  0.0336017  
  0.147715 -0.0249499  0.0282164   0.015631  0.0268346   0.040576  
  0.152724 -0.0207871  0.0281703  0.0012752  0.0163882  0.0207221  
  0.146383 -0.0205482  0.0280724  0.0296836  0.0504244  0.0370891  
  0.147803 -0.0247949  0.0281704  0.0152723   0.026542  0.0408544  
  0.152925 -0.0207364  0.0281706 0.000841263  0.0158542  0.0208861  
  0.146404 -0.0204351  0.0280192  0.0294199  0.0503396  0.0372108  
  0.150454 -0.0206371  0.0281239  0.0154447  0.0352388   0.028958  
  0.150562 -0.0205569  0.0280969  0.0150968  0.0349362  0.0290982  
  0.150806 -0.0266332  0.0282219 -0.00397454  0.0115538   0.033275  
  0.147698 -0.0250005  0.0283299   0.016084  0.0274071  0.0405979  
  0.152697 -0.0207701   0.028138 0.00190845  0.0171419  0.0207469  
  0.146401 -0.0205879  0.0282679  0.0302102  0.0510648  0.0371558  
  0.147717   -0.02497  0.0282386  0.0158601  0.0271232  0.0405225  
  0.152708 -0.0207757   0.028134 0.00159004  0.0167702  0.0206939  
  0.146394 -0.0205653  0.0281469  0.0299506  0.0507083  0.0370729  
   0.15045 -0.0206438  0.0282073  0.0160357  0.0359505  0.0290094  
  0.150453 -0.0206377  0.0281435  0.0157414  0.0355774  0.0289381  
  0.150842 -0.0264597  0.0281788 -0.00331493  0.0121533   0.033716  
  0.148183  -0.024718  0.0283198  0.0173376  0.0287315  0.0414549  
  0.153046 -0.0205661  0.0280706 0.00300474  0.0180141  0.0211031  
  0.147161 -0.0204191  0.0282367  0.0315625  0.0527222  0.0378225  
  0.147848 -0.0249148  0.0283784  0.0165707  0.0279614  0.0410004  
   0.15283 -0.0206995  0.0281204 0.00238601  0.0175538  0.0209374  
  0.146667 -0.0205365  0.0283093  0.0307566  0.0518218  0.0374658  
  0.151037 -0.0204555  0.0281597   0.017298  0.0372834  0.0295319  
   0.15066 -0.0205812  0.0282211  0.0165616  0.0365652  0.0292648  
  0.151383 -0.0257456  0.0276394 -0.00299795  0.0122632  0.0335643  
  0.148705 -0.0241988  0.0276386   0.017452  0.0285073  0.0409915  
  0.153425 -0.0203196  0.0277883 0.00267666  0.0176353  0.0208014  
  0.147529 -0.0200944  0.0277728   0.031864  0.0523892  0.0375119  
  0.151421 -0.0201701  0.0277745  0.0173076  0.0369249  0.0292103  
  0.136127 -0.0192883   0.027775 -0.0369746  -0.018454  0.0434333  
  0.144688 -0.0229898  0.0282604 -0.0204049 -0.00395762   0.038901  
  0.144837 -0.0215786   0.028139  -0.024931 -0.0208732  0.0295592  
   0.14498 -0.0225244  0.0277091 -0.0204635 -0.0036606  0.0385669  
  0.144971 -0.0213127  0.0278524 -0.0251032 -0.0205337  0.0293632  
  0.149733 -0.0207856  0.0281288 -0.0113306 -0.00218635  0.0248306  
  0.149992 -0.0205293  0.0278195 -0.0112805 -0.00183064  0.0245893  
  0.135435 -0.0197962  0.0283877  -0.036005 -0.0179249  0.0433444  
  0.143992 -0.0231548  0.0283193 -0.0192513 -0.00253237  0.0383059  
  0.144096 -0.0217176  0.0281998 -0.0237948 -0.0194261  0.0290835  
  0.144236 -0.0231197  0.0283589 -0.0197074 -0.00316986  0.0385857  
  0.144376 -0.0216782  0.0282185 -0.0242593 -0.0201193  0.0293099  
  0.149082 -0.0209401  0.0281853 -0.0102347 -0.000845567  0.0244314  
  0.149325  -0.020892  0.0281964 -0.0106954 -0.00147639  0.0246278  
  0.135112 -0.0196881  0.0281488 -0.0353054 -0.0169664  0.0430921  
  0.143941 -0.0230333  0.0281085 -0.0187769 -0.00198813  0.0383854  
  0.144007 -0.0216744  0.0280178 -0.0232807 -0.0188662  0.0290639  
  0.143972 -0.0230895  0.0281865 -0.0190181 -0.00224126  0.0382867  
  0.144046 -0.0216925   0.028095 -0.0235445 -0.0190956  0.0290319  
  0.149029 -0.0209186  0.0280784 -0.00964721 -0.000174034  0.0244273  
  0.149052 -0.0209262  0.0281148 -0.00994536 -0.000482325  0.0243886  
  0.134938 -0.0193797  0.0279138 -0.0347609 -0.0169383  0.0434178  
  0.143816 -0.0225561  0.0279918 -0.0179471 -0.00187263  0.0388746  
  0.143835 -0.0214205  0.0279512 -0.0226843 -0.0189965  0.0292465  
  0.143904 -0.0228517  0.0280423 -0.0184142 -0.00192328  0.0386639  
  0.143952 -0.0215811    0.02797 -0.0229842 -0.0189173  0.0291883  
  0.149124  -0.020701  0.0280082 -0.00879391 0.000192134   0.024681  
  0.149072  -0.020842  0.0280438 -0.00925533 6.39957e-06  0.0245775  
   0.13493 -0.0188225  0.0277747 -0.0351674 -0.0173211  0.0432821  
  0.144162 -0.0222075  0.0277032 -0.0184837 -0.00208829  0.0385135  
  0.144079 -0.0211959  0.0278641 -0.0233982 -0.0192242  0.0291054  
  0.149437 -0.0204653  0.0278255 -0.00933946 -0.000125448  0.0244597  
  0.134924 -0.0188275  0.0277744 -0.0351727 -0.0173056  0.0433022  
  0.143813 -0.0225568  0.0279918 -0.0179412 -0.00186297  0.0388844  
  0.143837 -0.0214244  0.0279512   -0.02268 -0.0189752  0.0292486  
   0.14416 -0.0222079  0.0277031 -0.0184779 -0.00207838  0.0385229  
  0.144081 -0.0211996  0.0278639 -0.0233943 -0.0192028   0.029107  
  0.149121 -0.0207008  0.0280082 -0.00879221 0.000197012   0.024688  
  0.149434  -0.020465  0.0278254 -0.00933795 -0.000120481  0.0244664  
  0.134932 -0.0193855  0.0279138 -0.0347666 -0.0169233  0.0434381  
  0.143939 -0.0230342  0.0281086 -0.0187715 -0.00197854  0.0383948  
  0.144009 -0.0216786  0.0280179 -0.0232772 -0.0188452  0.0290655  
  0.143901 -0.0228525  0.0280424 -0.0184086 -0.00191368  0.0386735  
  0.143953 -0.0215851    0.02797 -0.0229804 -0.0188961  0.0291902  
  0.149027 -0.0209186  0.0280784 -0.00964598 -0.00016931  0.0244341  
   0.14907 -0.0208419  0.0280438 -0.00925392 1.11713e-05  0.0245844  
  0.135106 -0.0196943  0.0281489 -0.0353115 -0.0169513  0.0431118  
  0.143989 -0.0231558  0.0283195  -0.019246 -0.00252269  0.0383151  
  0.144098  -0.021722     0.0282 -0.0237915 -0.0194052   0.029085  
  0.143969 -0.0230905  0.0281866 -0.0190128 -0.00223164  0.0382959  
  0.144048 -0.0216968  0.0280951 -0.0235412 -0.0190746  0.0290335  
   0.14908 -0.0209401  0.0281854 -0.0102335 -0.000840824  0.0244381  
  0.149049 -0.0209262  0.0281148 -0.00994418 -0.000477591  0.0243953  
  0.135429 -0.0198026  0.0283882 -0.0360111 -0.0179099  0.0433644  
  0.144686 -0.0229908  0.0282607 -0.0204001 -0.00394851  0.0389108  
  0.144839 -0.0215831  0.0281392 -0.0249284 -0.0208531  0.0295613  
  0.144234 -0.0231208  0.0283592 -0.0197022 -0.00316034  0.0385951  
  0.144377 -0.0216826  0.0282188 -0.0242563 -0.0200987  0.0293116  
   0.14973 -0.0207857  0.0281289 -0.0113298 -0.00218202  0.0248376  
  0.149323 -0.0208921  0.0281966 -0.0106943 -0.00147179  0.0246346  
  0.136121  -0.019294  0.0277747 -0.0369818 -0.0184394  0.0434538  
  0.144978  -0.022525  0.0277088 -0.0204589 -0.00365133  0.0385765  
  0.144973 -0.0213168  0.0278522 -0.0251009 -0.0205134  0.0293651  
  0.149989 -0.0205292  0.0278194 -0.0112799 -0.0018262  0.0245961  
 0.0518314  0.0189516  0.0279761  0.0447942  0.0436878   0.157637  
 0.0460044  0.0212129  0.0280097  0.0306885  0.0286609   0.165027  
 0.0379939  0.0285355  0.0279948  0.0629604  0.0479651   0.173395  
 0.0460825  0.0212384  0.0279772  0.0308548  0.0285783   0.165045  
 0.0380688  0.0285732    0.02798  0.0631692  0.0478964   0.173406  
 0.0294038  0.0342083  0.0279977  0.0390143  0.0283983   0.180567  
 0.0294661  0.0342234  0.0279818  0.0391931  0.0283537    0.18057  
 0.0518243  0.0188177   0.027965  0.0445813  0.0438461   0.157587  
 0.0461128  0.0210725  0.0279573  0.0306967   0.028678   0.165011  
 0.0380967  0.0283659  0.0279658  0.0629947  0.0479814   0.173373  
 0.0460471  0.0211505  0.0279811  0.0306843  0.0286897   0.165035  
 0.0380363  0.0284556  0.0279769  0.0629592  0.0479927   0.173404  
 0.0294738  0.0340616  0.0279752  0.0390516  0.0284163   0.180589  
 0.0294301  0.0341408   0.027985  0.0390209  0.0284196   0.180596  
  0.051994  0.0186251  0.0279883  0.0445995  0.0437741   0.157495  
 0.0462629  0.0208583  0.0280327  0.0307452  0.0286667   0.164952  
 0.0382432  0.0281665   0.028036  0.0631465  0.0479608   0.173325  
 0.0461934  0.0209673  0.0279881  0.0307261   0.028655   0.164977  
 0.0381729  0.0282673  0.0279967  0.0630761  0.0479547   0.173335  
 0.0295887  0.0338776  0.0280246  0.0391816  0.0284155   0.180538  
 0.0295343  0.0339701   0.027996   0.039119  0.0284053   0.180555  
 0.0521123  0.0185106  0.0280847  0.0446702  0.0438421   0.157598  
 0.0463198  0.0208999  0.0280715  0.0309629  0.0287983   0.165187  
 0.0383267  0.0282328   0.028052  0.0634127   0.048056   0.173592  
 0.0462962  0.0208444  0.0280642  0.0308239   0.028732   0.165044  
 0.0382894  0.0281644  0.0280537  0.0632571  0.0480109   0.173439  
 0.0296468  0.0339165  0.0280441  0.0394413  0.0285046   0.180726  
  0.029621  0.0338686  0.0280415  0.0392904  0.0284598   0.180615  
  0.052071  0.0188159  0.0279859  0.0449571  0.0437773   0.157836  
 0.0462737  0.0210846  0.0279894  0.0310773   0.028702   0.165219  
 0.0382755  0.0284221  0.0279927  0.0634839  0.0479816   0.173599  
 0.0296149  0.0340712  0.0279957  0.0394994  0.0284439    0.18073  
 0.0469953  0.0207113  0.0279971 -0.0645063 -0.0489801   0.151571  
 0.0469103  0.0208145  0.0280056 -0.0645182 -0.0489429   0.151577  
 0.0468871  0.0208137  0.0280045 -0.0645763 -0.0490273   0.151645  
 0.0469459  0.0207518  0.0280046 -0.0645445 -0.0490121   0.151611  
  0.046697   0.021043   0.027963 -0.0645159 -0.0491289   0.151777  
 0.0467972  0.0209261   0.027983  -0.064557 -0.0490631   0.151704  
 0.0465009  0.0212444  0.0280117 -0.0644803 -0.0491609   0.151771  
 0.0465929  0.0211503  0.0279832 -0.0644836 -0.0491674   0.151796  
 0.0465899  0.0211605  0.0280236 -0.0645282  -0.049042   0.151696  
  0.138148 -0.0183124  0.0279454  0.0429097  0.0644141   0.051514  
  0.138466 -0.0180684  0.0278235  0.0437552  0.0646115  0.0514321  
  0.138313 -0.0186299  0.0280069  0.0432215  0.0642658  0.0513925  
  0.138257 -0.0185079  0.0279591  0.0430413  0.0643389  0.0514941  
  0.138377 -0.0186959  0.0282514  0.0436743  0.0647942  0.0514664  
  0.138345 -0.0186608  0.0281106  0.0434532  0.0644709  0.0513814  
  0.139172 -0.0185286   0.028195  0.0449307  0.0663728  0.0521284  
  0.138667 -0.0186475  0.0282836  0.0441782  0.0655415  0.0517771  
  0.139395 -0.0182225  0.0278232     0.0453  0.0660194  0.0519089  
  0.139178 -0.0185333  0.0281946  0.0449373  0.0663998  0.0521281  
  0.139401 -0.0182273  0.0278233  0.0453064   0.066046  0.0519085  
  0.138382 -0.0187006  0.0282512  0.0436805  0.0648214  0.0514662  
  0.138672 -0.0186522  0.0282833  0.0441846  0.0655687  0.0517769  
  0.138318 -0.0186347  0.0280069  0.0432277  0.0642927   0.051392  
  0.138351 -0.0186656  0.0281105  0.0434593  0.0644979   0.051381  
  0.138154 -0.0183174  0.0279455  0.0429159  0.0644409  0.0515134  
  0.138263 -0.0185128  0.0279592  0.0430475  0.0643658  0.0514935  
  0.138471 -0.0180735  0.0278238  0.0437615  0.0646381  0.0514317  
 0.0475788  0.0211005  0.0280211 -0.0549321 -0.0435128   0.151714  
 0.0476726  0.0210113  0.0280321 -0.0549602 -0.0433888   0.151656  
 0.0477787  0.0209113  0.0279574 -0.0549302 -0.0434843   0.151729  
 0.0476724  0.0210124  0.0279851 -0.0549174 -0.0435219   0.151741  
 0.0479705  0.0206845  0.0279992 -0.0549464 -0.0433716   0.151604  
 0.0478801  0.0207959  0.0279771 -0.0549486 -0.0434133   0.151662  
  0.048083  0.0205769   0.027992 -0.0548429 -0.0433064   0.151531  
 0.0480308  0.0206214  0.0279998 -0.0548976 -0.0433473    0.15157  
 0.0480006  0.0206681  0.0280058 -0.0548718 -0.0432749   0.151545  
 0.0756526  0.0113729  0.0280085 -0.0346163  -0.032608   0.110171  
 0.0754767  0.0114387   0.028047 -0.0349525 -0.0324472   0.110331  
  0.075329  0.0115583  0.0280539 -0.0345486 -0.0323548     0.1102  
 0.0754683  0.0114653  0.0280563 -0.0345454 -0.0325033   0.110163  
 0.0751736  0.0118213  0.0277887 -0.0345923 -0.0325151   0.110387  
 0.0752531  0.0116869  0.0279269 -0.0345878 -0.0323699   0.110301  
 0.0746326  0.0120384  0.0279724 -0.0347881  -0.033039   0.110396  
 0.0749455  0.0119358  0.0278395 -0.0346451 -0.0328102   0.110411  
 0.0746864  0.0118959  0.0281303 -0.0350855 -0.0327036   0.110467  
 0.0995231 0.00302775  0.0284452  0.0516615  0.0557015  0.0910168  
 0.0997081 0.00333706  0.0279425  0.0523223   0.055397  0.0910582  
 0.0988411 0.00307959  0.0283899  0.0509175  0.0542271  0.0903859  
 0.0990491 0.00302273  0.0285141  0.0511918  0.0548813  0.0906187  
 0.0988874 0.00339055   0.027781  0.0507136  0.0541164  0.0905561  
 0.0988704 0.00323576  0.0280699  0.0508303  0.0541157  0.0904477  
  0.098397 0.00381794  0.0276843  0.0507724  0.0550873  0.0905541  
 0.0987356 0.00358662  0.0276686  0.0506776  0.0545565  0.0906304  
 0.0985139 0.00386614  0.0278049  0.0516684  0.0549082  0.0905847  
 0.0984065 0.00385022  0.0276788  0.0505733  0.0548889  0.0904734  
 0.0985211 0.00389748  0.0278023  0.0514751  0.0547096  0.0905033  
 0.0988969 0.00342161  0.0277796  0.0505122  0.0539084  0.0904785  
 0.0987461  0.0036183  0.0276646  0.0504771  0.0543515  0.0905521  
 0.0988486  0.0031093  0.0283914  0.0507151  0.0540178  0.0903067  
 0.0988789 0.00326614    0.02807  0.0506284  0.0539078  0.0903694  
 0.0995302 0.00305458  0.0284518  0.0514574  0.0555015  0.0909406  
 0.0990555 0.00305122  0.0285183  0.0509884  0.0546744  0.0905399  
 0.0997192  0.0033643  0.0279447  0.0521258  0.0551987  0.0909829  
  0.074625  0.0125376  0.0279653 -0.0323719 -0.0310778   0.110001  
 0.0746711  0.0123804  0.0281409 -0.0326821  -0.030728   0.110085  
 0.0751839  0.0123232  0.0277739 -0.0321457 -0.0305134    0.11001  
 0.0749509  0.0124366  0.0278259 -0.0322112 -0.0308275   0.110026  
 0.0753308  0.0120574  0.0280523 -0.0320863 -0.0303409    0.10982  
 0.0752588  0.0121872  0.0279195 -0.0321334  -0.030361   0.109924  
 0.0756611  0.0118547  0.0280095 -0.0321447 -0.0306064    0.10978  
 0.0754711  0.0119585  0.0280568 -0.0320771  -0.030494   0.109777  
 0.0754832  0.0119056  0.0280569 -0.0325099 -0.0304449    0.10995  
 0.0555156  0.0168831  0.0279927  0.0308445  0.0353527   0.154075  
 0.0461925  0.0204524  0.0280769  0.0211952  0.0211515   0.164772  
 0.0406342   0.026727   0.028064  0.0533549  0.0427455   0.170795  
 0.0461553  0.0206301  0.0279942  0.0213175  0.0210623   0.164815  
 0.0405836  0.0269196  0.0279934  0.0534518  0.0426656   0.170818  
 0.0304788  0.0332003  0.0280458  0.0332712  0.0239672   0.179918  
 0.0304478  0.0333504   0.027996  0.0333343  0.0239056   0.179925  
 0.0555593  0.0165751  0.0280978  0.0305027  0.0353912   0.153759  
 0.0461455  0.0204357   0.028025  0.0209877  0.0210088   0.164554  
  0.040564  0.0266681  0.0280365  0.0531114  0.0426448   0.170525  
 0.0461732  0.0204132  0.0280611  0.0210608  0.0210757   0.164635  
 0.0406039  0.0266624  0.0280608  0.0532073  0.0426964   0.170635  
 0.0304268  0.0331694  0.0280229  0.0330196  0.0238748   0.179739  
 0.0304562  0.0331575  0.0280414  0.0331238  0.0239202   0.179811  
  0.055463   0.016696  0.0279789  0.0304828  0.0353247   0.153658  
 0.0460007   0.020646  0.0279578  0.0209581   0.021015   0.164616  
   0.04042  0.0268691  0.0279595  0.0530021  0.0426702   0.170579  
 0.0460791  0.0205424  0.0279846  0.0209772  0.0209962   0.164582  
 0.0404957  0.0267699   0.027993  0.0530622  0.0426403   0.170541  
 0.0303123  0.0333535  0.0279744  0.0329042  0.0238724   0.179792  
 0.0303729  0.0332619  0.0279944   0.032964  0.0238632   0.179759  
 0.0552967  0.0168749  0.0279601  0.0305119  0.0354127   0.153753  
 0.0458999  0.0207743  0.0280134  0.0209463  0.0210013   0.164623  
 0.0403142  0.0270253  0.0279988  0.0529839  0.0426515   0.170604  
 0.0459379  0.0207198  0.0279836  0.0209482  0.0210262   0.164634  
 0.0403578  0.0269537  0.0279753   0.052978  0.0426817    0.17061  
  0.030242  0.0334945  0.0280005  0.0328702  0.0238554   0.179766  
 0.0302682  0.0334305  0.0279861  0.0328771  0.0238757   0.179796  
 0.0553049  0.0169927  0.0279704  0.0307313  0.0352365   0.153818  
 0.0459809  0.0207898  0.0279765  0.0211044  0.0209239    0.16464  
 0.0403874  0.0270641  0.0279774  0.0531823  0.0425706   0.170621  
 0.0303042  0.0335053   0.027982  0.0330415  0.0238102   0.179769  
  0.138182 -0.0229096  0.0271525 -0.00824227 0.00991031  0.0536781  
  0.144059 -0.0255566  0.0280423 -0.00623251  0.0114598  0.0449413  
  0.138261 -0.0247739  0.0286186 0.00369835  0.0171935  0.0569303  
  0.144333 -0.0247395  0.0274138 -0.00659486  0.0112748  0.0444548  
  0.138657 -0.0231407  0.0273703 0.00434624  0.0177619  0.0567532  
  0.143004 -0.0250855  0.0284809 0.00950642  0.0228925  0.0494562  
  0.143491 -0.0240744  0.0274906 0.00979271  0.0229212  0.0490544  
  0.138246 -0.0247295  0.0280855 -0.00862943  0.0100851  0.0534184  
  0.144037 -0.0262317  0.0282511 -0.0073621  0.0110836  0.0439317  
  0.138491 -0.0255248  0.0284017 0.00252497   0.016392  0.0550643  
  0.144072 -0.0259854  0.0281508 -0.00696551  0.0112846  0.0444098  
  0.138445 -0.0252598  0.0284465 0.00285486  0.0166867  0.0557514  
  0.142858 -0.0256052  0.0283739 0.00824511  0.0217348  0.0481055  
  0.142903 -0.0254297  0.0284338 0.00866774  0.0221742  0.0486613  
  0.138251 -0.0251538  0.0283475 -0.0091168 0.00977594  0.0527053  
  0.144069 -0.0263529  0.0283959 -0.00774854  0.0106047  0.0438279  
  0.138518 -0.0255511   0.028412 0.00224742  0.0160843  0.0550117  
  0.144063  -0.026287  0.0282908 -0.00755126  0.0108303    0.04382  
  0.138513 -0.0255379   0.028386 0.00239395  0.0162336  0.0549946  
  0.142878 -0.0255877  0.0283239 0.00789326  0.0212962  0.0480717  
  0.142878  -0.025591  0.0283171 0.00807178  0.0215172  0.0480329  
  0.138218 -0.0251268  0.0287479 -0.00967745 0.00905732  0.0532768  
  0.144375 -0.0259973  0.0285867 -0.00893813 0.00906613  0.0449276  
  0.138408 -0.0248444  0.0286863 0.00104052   0.014978  0.0567361  
  0.144151 -0.0262524  0.0285249 -0.00817328  0.0100301  0.0442727  
  0.138488 -0.0253168  0.0285048 0.00193652  0.0157171  0.0556173  
  0.142957 -0.0250089  0.0283274 0.00683089  0.0204492  0.0491004  
  0.142916 -0.0253874  0.0283249 0.00753282  0.0209598  0.0485187  
  0.138932 -0.0234436  0.0276665 -0.0113757  0.0074674  0.0540876  
   0.14488 -0.0250824  0.0276197 -0.00923491 0.00907016  0.0445509  
  0.138882 -0.0231936  0.0272924 0.000781569  0.0146376  0.0563255  
  0.143376 -0.0240042  0.0274335 0.00703043   0.020434  0.0487043  
 0.0615786  0.0102168  0.0279484 0.00977751  0.0148287   0.149897  
 0.0520991  0.0162379  0.0280285  0.0120333  0.0144912   0.159472  
 0.0634152 0.00852157   0.028088 0.00613049 0.00857303   0.148006  
 0.0522041  0.0162462   0.027968  0.0121989  0.0144019   0.159491  
   0.06358 0.00848888  0.0280023 0.00628161 0.00849835   0.148021  
 0.0549099  0.0141533  0.0280648  0.0027323 0.00374593    0.15556  
 0.0550417  0.0141076  0.0280078 0.00286738 0.00372117   0.155579  
 0.0614703  0.0101873  0.0279807 0.00962191  0.0149548   0.149845  
 0.0521752  0.0161496  0.0279564   0.012074  0.0144772   0.159449  
 0.0635073  0.0084933  0.0279495 0.00625214 0.00845815   0.147968  
   0.05212  0.0162075  0.0279907  0.0120627   0.014499   0.159473  
 0.0634429 0.00852231   0.028015 0.00621881 0.00850555   0.148002  
 0.0550123  0.0140734    0.02796 0.00283536  0.0036936   0.155569  
 0.0549444  0.0141239  0.0280123  0.0027973 0.00371583   0.155581  
 0.0616017  0.0100589  0.0279629 0.00959399  0.0148728   0.149772  
  0.052313  0.0159615  0.0280093  0.0120696  0.0144662   0.159392  
 0.0636409 0.00833942  0.0279794  0.0062894 0.00849568   0.147921  
 0.0522527  0.0160566  0.0279754  0.0120765  0.0144587   0.159421  
 0.0635862 0.00841719  0.0279563 0.00627438 0.00846814   0.147946  
 0.0551671  0.0138888  0.0279877 0.00290491 0.00375975   0.155514  
 0.0550994  0.0139819   0.027966 0.00287178 0.00371938   0.155542  
 0.0616551 0.00992931  0.0280871 0.00958885  0.0149631   0.149851  
  0.052339  0.0159373  0.0281101  0.0122694  0.0146759   0.159641  
 0.0636774 0.00827177  0.0280946 0.00648887 0.00882352   0.148152  
 0.0523289   0.015927  0.0280641  0.0121307  0.0145519   0.159479  
 0.0636553 0.00829354  0.0280402 0.00634509 0.00861856   0.148004  
 0.0552253  0.0138262   0.028047 0.00312629 0.00400103   0.155643  
 0.0551959  0.0138441  0.0280236 0.00298492 0.00386301   0.155564  
 0.0616834   0.010123  0.0280208  0.0100416  0.0150991   0.150264  
 0.0523389  0.0161072  0.0280018  0.0124622  0.0146053   0.159731  
 0.0637397 0.00835751  0.0279861 0.00674081 0.00878318   0.148246  
 0.0552363  0.0139095  0.0279903 0.00324368 0.00394057   0.155698  
  0.138933  -0.023444  0.0276667 -0.0113787 0.00746595  0.0540849  
  0.144377 -0.0259969  0.0285865 -0.00894103 0.00906395  0.0449238  
  0.138409 -0.0248449  0.0286863 0.00103715  0.0149768  0.0567343  
  0.144881 -0.0250824  0.0276199 -0.00923769 0.00906805  0.0445474  
  0.138883 -0.0231944  0.0272926 0.000778037  0.0146364  0.0563239  
  0.142958   -0.02501  0.0283275 0.00682515  0.0204453  0.0490983  
  0.143377 -0.0240054  0.0274337 0.00702445  0.0204302  0.0487024  
  0.138218 -0.0251264  0.0287477 -0.0096809  0.0090556  0.0532745  
   0.14407 -0.0263523  0.0283959 -0.00775174  0.0106024  0.0438248  
  0.138519 -0.0255515  0.0284119 0.00224387  0.0160832  0.0550103  
  0.144152 -0.0262518  0.0285248 -0.00817641  0.0100278  0.0442693  
  0.138489 -0.0253173  0.0285048 0.00193299  0.0157159  0.0556157  
  0.142879 -0.0255886  0.0283239 0.00788732  0.0212925  0.0480697  
  0.142918 -0.0253884  0.0283249 0.00752694   0.020956  0.0485167  
  0.138252 -0.0251533  0.0283475 -0.00912031  0.0097743  0.0527033  
  0.144039 -0.0262311  0.0282511 -0.00736533  0.0110813  0.0439285  
  0.138491 -0.0255251  0.0284016 0.00252136  0.0163909  0.0550627  
  0.144064 -0.0262864  0.0282908 -0.00755446   0.010828  0.0438169  
  0.138514 -0.0255383   0.028386 0.00239037  0.0162326  0.0549931  
  0.142859 -0.0256061  0.0283739 0.00823911  0.0217312  0.0481034  
  0.142879 -0.0255919  0.0283171 0.00806581  0.0215135  0.0480309  
  0.138246  -0.024729  0.0280855 -0.00863307  0.0100835  0.0534161  
   0.14406 -0.0255561  0.0280421 -0.00623616  0.0114574  0.0449377  
  0.138262 -0.0247743  0.0286183 0.00369442  0.0171922  0.0569281  
  0.144073 -0.0259848  0.0281506 -0.00696887  0.0112823  0.0444063  
  0.138446 -0.0252601  0.0284464 0.00285113  0.0166856  0.0557496  
  0.143005 -0.0250864  0.0284807 0.00949994  0.0228884  0.0494537  
  0.142904 -0.0254306  0.0284337 0.00866157  0.0221704  0.0486591  
  0.138183 -0.0229098  0.0271527 -0.00824629 0.00990835  0.0536757  
  0.144334 -0.0247394  0.0274139 -0.00659855  0.0112722  0.0444515  
  0.138658 -0.0231415  0.0273703 0.00434189  0.0177604  0.0567513  
  0.143492 -0.0240755  0.0274907 0.00978599  0.0229171  0.0490523  
 0.0593413  0.0136707  0.0281801  0.0184853  0.0251816   0.150836  
 0.0615534  0.0098236  0.0281264 0.00579185 0.00963672   0.150134  
 0.0593302  0.0139098  0.0280167  0.0187889  0.0251286   0.151003  
 0.0615898 0.00996267  0.0280084 0.00605067 0.00959709   0.150274  
  0.054093  0.0152685  0.0281037  0.0127735   0.014661   0.157329  
 0.0540882  0.0154277  0.0280012  0.0129604  0.0145912   0.157414  
 0.0593316  0.0136779  0.0280253  0.0183235  0.0249676   0.150439  
  0.061529 0.00989355  0.0279901 0.00560492  0.0093435   0.149879  
 0.0593422  0.0136475  0.0281042  0.0183588  0.0250582   0.150576  
 0.0615409 0.00984728  0.0280574  0.0056552  0.0094543   0.149968  
 0.0540596  0.0152919  0.0280087  0.0125747  0.0144483   0.157082  
 0.0540787  0.0152573  0.0280619   0.012636  0.0145362   0.157169  
 0.0592071  0.0138665  0.0279213  0.0184097  0.0250483   0.150516  
 0.0613959   0.010061  0.0279466 0.00561262  0.0093396   0.149936  
 0.0592797  0.0137744  0.0279657  0.0183765  0.0249884   0.150482  
 0.0614738 0.00997838  0.0279604 0.00561352 0.00933081   0.149911  
 0.0539194  0.0154812   0.027951  0.0125699  0.0144531   0.157142  
 0.0539983  0.0153878  0.0279724  0.0125771  0.0144368   0.157113  
 0.0590904  0.0139449  0.0280139  0.0184405  0.0250754   0.150603  
 0.0613081  0.0101087  0.0280572 0.00553126 0.00941613   0.149979  
 0.0591351   0.013922  0.0279596  0.0184298   0.025092   0.150571  
 0.0613332  0.0101007  0.0279988 0.00559491 0.00938181    0.14997  
 0.0538236  0.0155692  0.0280331  0.0125284  0.0144769   0.157168  
 0.0538559  0.0155382  0.0279894  0.0125573  0.0144781   0.157169  
 0.0591855  0.0139932  0.0279538  0.0186361  0.0249239   0.150638  
 0.0614485   0.010098   0.027975  0.0057103 0.00931957   0.150008  
 0.0539308  0.0155732  0.0279751  0.0126953  0.0143905   0.157189  
 0.0841421  0.0139358  0.0303273    0.01155  0.0176404  0.0915819  
 0.0842789  0.0122323  0.0328688  0.0149967  0.0219585  0.0962441  
 0.0850477   0.014834   0.028201  0.0127475  0.0175967  0.0921477  
 0.0849208  0.0143846  0.0288798  0.0128917  0.0176546  0.0921697  
 0.0852837  0.0152953  0.0273833  0.0128533  0.0177081   0.092403  
 0.0851672  0.0150544  0.0277943  0.0128991  0.0175682  0.0923072  
 0.0864761  0.0156481   0.024836  0.0122878  0.0182524  0.0912875  
 0.0856472  0.0153784  0.0265843  0.0131967  0.0179407  0.0918588  
 0.0873045  0.0138618  0.0238728  0.0167348  0.0224652  0.0853732  
 0.0723306  0.0199969  0.0275723 0.00434417 0.00665636   0.106523  
 0.0720398  0.0191971  0.0280839 0.00293188 0.00565592    0.10606  
 0.0721908  0.0204321  0.0276601 0.00340792 0.00649908   0.106988  
 0.0722141   0.020206  0.0277244 0.00367812 0.00656264   0.106696  
 0.0721479  0.0205382  0.0275579 0.00307762 0.00608684   0.107051  
  0.072154  0.0204754  0.0276539 0.00322084 0.00629054   0.107088  
 0.0717736  0.0201513  0.0277725 0.00208271 0.00458695   0.106118  
 0.0720757  0.0203856  0.0275984 0.00260977 0.00554385   0.106678  
 0.0714063  0.0191983  0.0289394 0.00102328 0.00568421   0.106423  
 0.0718566  0.0202518  0.0277467 0.00230474 0.00487278   0.105808  
 0.0714654  0.0192695  0.0289567 0.00121425 0.00598437   0.106114  
 0.0722086  0.0206541  0.0275557 0.00330744 0.00640879    0.10678  
  0.072146  0.0204961  0.0275872 0.00283564 0.00586467   0.106393  
 0.0722512  0.0205507  0.0276525 0.00363263  0.0068173   0.106718  
 0.0722142  0.0205924  0.0276493 0.00344797  0.0066089   0.106817  
 0.0723941  0.0201036  0.0275647 0.00459444 0.00698679    0.10623  
 0.0722739  0.0203201  0.0277181 0.00390533 0.00688455   0.106415  
 0.0720905  0.0192817  0.0280888 0.00316518 0.00594458   0.105762  
 0.0864627  0.0156573  0.0248397  0.0122706  0.0182273  0.0912965  
  0.087301  0.0138661  0.0238688   0.016711  0.0224391  0.0853685  
 0.0852723  0.0153056  0.0273823  0.0128338  0.0176887  0.0924076  
  0.085635  0.0153881  0.0265842  0.0131771   0.017922  0.0918614  
 0.0850353  0.0148445  0.0282008  0.0127279  0.0175775  0.0921515  
 0.0851553  0.0150646  0.0277939  0.0128796  0.0175491  0.0923114  
  0.084132  0.0139469  0.0303211  0.0115323  0.0176158    0.09158  
 0.0849096  0.0143947  0.0288787  0.0128715  0.0176356  0.0921741  
 0.0842612  0.0122401  0.0328744  0.0149707  0.0219325    0.09625  
  0.121786 -0.0123546   0.027885 -0.0426422 -0.0273239  0.0561422  
  0.121991 -0.0121972  0.0278697 -0.0433685 -0.0273218  0.0560095  
  0.134657 -0.0202521  0.0279372 -0.0361896 -0.0332154  0.0422044  
  0.134848 -0.0200627  0.0279147  -0.036876 -0.0333037  0.0421216  
  0.122325 -0.0128389  0.0279249 -0.0431332  -0.026726  0.0558789  
  0.122125 -0.0126314  0.0278613 -0.0428774 -0.0270061  0.0560592  
  0.135001 -0.0205389  0.0279709 -0.0365928 -0.0328419  0.0420193  
   0.13487  -0.020425  0.0279318 -0.0363746 -0.0330218  0.0421457  
  0.122416 -0.0130722  0.0283074 -0.0435392 -0.0270484   0.055736  
  0.122371 -0.0129538  0.0281015 -0.0433481 -0.0268302  0.0557671  
  0.135143 -0.0206301  0.0281842 -0.0370103 -0.0332437  0.0420149  
  0.135067 -0.0205814   0.028068 -0.0368101 -0.0329768  0.0419761  
  0.123187  -0.013031  0.0282043  -0.044616 -0.0283378  0.0561973  
  0.122702 -0.0130909  0.0283357  -0.043965 -0.0276695  0.0559343  
  0.135841  -0.020516  0.0281131 -0.0379995 -0.0344888  0.0424766  
  0.135417 -0.0206054  0.0281965 -0.0374099 -0.0338593  0.0422332  
  0.123211 -0.0126537  0.0278317 -0.0448752 -0.0280366  0.0561076  
  0.135844 -0.0202409   0.027889 -0.0382305 -0.0341673  0.0423511  
 0.0624713  0.0154895   0.028108  0.0424668  0.0474378   0.144054  
 0.0623926  0.0157249  0.0279812  0.0426921  0.0472929   0.144149  
 0.0541097   0.019555  0.0280615  0.0683208  0.0581208   0.158482  
 0.0540342  0.0197684  0.0279856  0.0684319  0.0580112   0.158499  
 0.0623465  0.0153997  0.0280872  0.0422555  0.0472434   0.143676  
 0.0624083  0.0154007  0.0281209  0.0423192  0.0473539   0.143828  
 0.0539692  0.0194799  0.0280576  0.0680499  0.0579582   0.158164  
 0.0540411  0.0194789  0.0280748  0.0681576  0.0580495   0.158303  
 0.0621993  0.0156255  0.0279005  0.0422696  0.0472971   0.143765  
 0.0622793   0.015516   0.027985  0.0422748  0.0472297   0.143713  
 0.0537922  0.0196957  0.0279455   0.067918  0.0579772   0.158218  
  0.053884  0.0195891  0.0279964  0.0679912  0.0579383   0.158173  
  0.061975  0.0157894  0.0279968  0.0423595  0.0473749   0.143869  
 0.0620869  0.0157127  0.0279354   0.042293  0.0473741   0.143836  
 0.0536206  0.0198902  0.0279932  0.0679173  0.0580131   0.158282  
 0.0537005  0.0197963  0.0279621  0.0678946  0.0580222   0.158272  
 0.0620561  0.0158595  0.0279775  0.0425899  0.0472105   0.143927  
 0.0537147  0.0199389  0.0279811  0.0681528  0.0579128   0.158303  
 0.0620792  0.0155408  0.0279976  0.0512537  0.0533474   0.144851  
 0.0621688  0.0156079  0.0279809  0.0514908  0.0531979   0.144901  
 0.0533746  0.0196601  0.0279916  0.0747117  0.0618329   0.159199  
 0.0534734  0.0197063  0.0279825  0.0749536  0.0617426   0.159211  
 0.0623048  0.0153552  0.0279132  0.0511869    0.05327   0.144749  
 0.0621913  0.0154506  0.0279435  0.0511952  0.0533443    0.14482  
 0.0535447  0.0194551   0.027952  0.0747295  0.0617954   0.159135  
 0.0534534  0.0195602  0.0279652  0.0746963    0.06184    0.15919  
 0.0624673  0.0151282  0.0280897  0.0512228  0.0532407   0.144672  
 0.0623908  0.0152445  0.0279934  0.0512156  0.0532137   0.144698  
 0.0537291  0.0192394  0.0280553  0.0748926  0.0617837   0.159088  
 0.0536397  0.0193482  0.0279991   0.074818  0.0617605   0.159091  
 0.0626219  0.0152312  0.0280825  0.0514665  0.0534423   0.145026  
 0.0625424   0.015135  0.0281113  0.0513049  0.0533582    0.14482  
 0.0538823  0.0193163  0.0280524  0.0751831  0.0619501   0.159404  
 0.0538071  0.0192392  0.0280683  0.0750121  0.0618772    0.15923  
  0.062536  0.0154624  0.0279709   0.051656  0.0532881   0.145085  
 0.0538056  0.0195274   0.027985  0.0752738  0.0618423   0.159404  
   0.12324 -0.0130701  0.0282024 -0.0446541 -0.0284302  0.0561328  
  0.123264 -0.0126939  0.0278318 -0.0449112 -0.0281292   0.056043  
  0.135887 -0.0205527  0.0281125 -0.0380047 -0.0345327  0.0424216  
   0.13589 -0.0202782  0.0278892  -0.038235 -0.0342113  0.0422958  
   0.12247 -0.0131125  0.0283063 -0.0435785 -0.0271441  0.0556729  
  0.122757 -0.0131306  0.0283339  -0.044004 -0.0277642   0.055871  
  0.135191 -0.0206674  0.0281835 -0.0370162 -0.0332888  0.0419602  
  0.135464 -0.0206424  0.0281957 -0.0374156  -0.033904  0.0421785  
  0.122378 -0.0128803  0.0279253 -0.0431723 -0.0268213  0.0558148  
  0.122425 -0.0129946  0.0281013 -0.0433873 -0.0269255  0.0557034  
  0.135048  -0.020577  0.0279711 -0.0365987 -0.0328867  0.0419639  
  0.135114 -0.0206192  0.0280678 -0.0368161 -0.0330217   0.041921  
  0.121841 -0.0123975  0.0278864 -0.0426819  -0.027416  0.0560779  
  0.122178 -0.0126734  0.0278624 -0.0429168 -0.0271002  0.0559948  
  0.134705 -0.0202911  0.0279375 -0.0361963 -0.0332591  0.0421488  
  0.134918 -0.0204636  0.0279322  -0.036381 -0.0330662    0.04209  
  0.122046 -0.0122402  0.0278706 -0.0434064 -0.0274148  0.0559458  
  0.134896 -0.0201016   0.027915 -0.0368819 -0.0333479  0.0420663  
  0.121211  -0.011076  0.0273087 -0.0280507 -0.00566759  0.0607192  
  0.127344 -0.0150132  0.0275857 -0.0306787  -0.010631  0.0532801  
  0.130339 -0.0178334  0.0275371 -0.0172327 0.00236769  0.0576504  
  0.127343 -0.0146191  0.0275464 -0.0317604 -0.0107929  0.0529611  
  0.130196 -0.0169203  0.0272268 -0.0181847  0.0022527  0.0572193  
  0.136575 -0.0202721  0.0278053 -0.0182601 0.000609425  0.0490865  
  0.136706 -0.0196594  0.0274782 -0.0190001 0.000424034  0.0486788  
  0.121856 -0.0122022   0.027571 -0.0270904 -0.00450759  0.0609996  
  0.127714 -0.0157627  0.0279935 -0.0313978 -0.0097501  0.0528751  
  0.130557 -0.0187628  0.0281397 -0.0181853 0.00312246  0.0567868  
  0.127644 -0.0154604  0.0277529  -0.031092  -0.010037  0.0531555  
  0.130572 -0.0184044  0.0278208 -0.0178782 0.00295522  0.0572504  
  0.136752 -0.0209816  0.0281243  -0.019181 0.00087628  0.0483911  
  0.136734 -0.0207082   0.027949 -0.0188327 0.000832565  0.0487662  
  0.121854 -0.0127607  0.0282169 -0.0275296 -0.00430242  0.0604969  
  0.127732 -0.0160569  0.0284358 -0.0318079 -0.0101184  0.0526736  
  0.130576 -0.0190379  0.0284852  -0.018502 0.00280785  0.0565871  
  0.127728 -0.0159059  0.0281891 -0.0316058 -0.00994243  0.0527259  
  0.130575 -0.0188953  0.0282839 -0.0183359 0.00290224  0.0566521  
   0.13678 -0.0211848  0.0284177 -0.0195795 0.000445323  0.0482452  
  0.136774 -0.0210784  0.0282413 -0.0193793 0.000648191  0.0482648  
  0.121866 -0.0129944  0.0288886 -0.0281405 -0.00521645   0.060845  
   0.12836 -0.0160117  0.0286654 -0.0330421 -0.0120822  0.0536019  
  0.130824 -0.0188163  0.0290965 -0.0197814 0.000609454  0.0581219  
  0.127895 -0.0160821   0.028639 -0.0322748 -0.0108955  0.0530199  
  0.130567 -0.0189991  0.0288291 -0.0189215 0.00207793  0.0571173  
  0.137266 -0.0209872  0.0286324 -0.0208062 -0.00134007  0.0492687  
  0.136908 -0.0211469  0.0285874 -0.0200283 -0.000241279  0.0486453  
  0.122784 -0.0120916  0.0280148 -0.0301933 -0.00681595  0.0616343  
  0.128684 -0.0153565  0.0278726 -0.0337697 -0.0119411  0.0534416  
  0.131399 -0.0176969  0.0278395 -0.0208354 0.000473918   0.057946  
  0.137682 -0.0201951  0.0277441 -0.0213317 -0.00125758  0.0490029  
 0.0631686  0.0147458   0.027949  0.0199487  0.0303061    0.14061  
 0.0581691  0.0171381  0.0280015  0.0303473  0.0367001   0.148732  
 0.0621855   0.012483  0.0280096  0.0146392  0.0226843   0.145692  
 0.0582441  0.0172117  0.0279632  0.0305444  0.0365218   0.148787  
 0.0622859  0.0125359  0.0279458   0.014853  0.0225071   0.145727  
 0.0550827  0.0168658  0.0280125  0.0215453  0.0257321   0.154999  
 0.0551717  0.0169057  0.0279634  0.0217351   0.025604   0.155034  
 0.0631739  0.0146561  0.0279099  0.0196735  0.0305674   0.140483  
  0.058338    0.01703  0.0279005  0.0302611  0.0366844   0.148624  
  0.062317  0.0124283  0.0279023  0.0145886  0.0226271    0.14558  
 0.0582451  0.0170986  0.0279388  0.0302979  0.0367337   0.148691  
 0.0622392   0.012478  0.0279432  0.0146236   0.022689   0.145645  
 0.0552061  0.0167676  0.0279304  0.0215219  0.0257157   0.154938  
 0.0551326  0.0168311  0.0279645  0.0215341  0.0257506   0.154982  
 0.0633367   0.014507  0.0279453  0.0195231  0.0303743   0.140355  
 0.0584737  0.0168249  0.0280477  0.0301696  0.0365802   0.148534  
 0.0624279  0.0122468  0.0280179  0.0144624  0.0225188   0.145495  
 0.0584136    0.01693  0.0279676  0.0302254  0.0366021   0.148581  
  0.062383  0.0123387  0.0279547  0.0145345  0.0225515   0.145547  
 0.0553407  0.0165697  0.0280284  0.0214796  0.0256605   0.154865  
 0.0552815  0.0166704  0.0279724   0.021508  0.0256676   0.154903  
  0.063377  0.0143681  0.0281462  0.0194018  0.0303934   0.140461  
 0.0584994  0.0168637  0.0281627  0.0303118  0.0367236   0.148966  
 0.0624225  0.0122133  0.0282242  0.0145926  0.0227621   0.145949  
 0.0584933  0.0168058  0.0281165  0.0301956  0.0366476   0.148686  
 0.0624282   0.012203  0.0281198  0.0144737  0.0226101   0.145638  
  0.055369   0.016577  0.0281396  0.0216563  0.0258457   0.155206  
 0.0553589  0.0165426  0.0280916  0.0215257  0.0257397   0.154983  
  0.063315  0.0147036  0.0280496  0.0198827   0.030431   0.141086  
  0.058441  0.0171224   0.028014  0.0305856  0.0366247   0.149115  
 0.0624194  0.0124686  0.0280365  0.0149522  0.0227121   0.146157  
 0.0553422  0.0167927  0.0280082  0.0218926  0.0257647   0.155322  
  0.122794 -0.0121006  0.0280147 -0.0302094 -0.00682539  0.0616181  
  0.128377 -0.0160191  0.0286643 -0.0330461 -0.0120902  0.0535768  
  0.130827 -0.0188173  0.0290955 -0.0197889 0.000604727  0.0581145  
    0.1287 -0.0153649  0.0278726 -0.0337722 -0.0119494  0.0534161  
  0.131402 -0.0176989  0.0278394 -0.0208414 0.000469498  0.0579385  
  0.137268 -0.0209873  0.0286318 -0.0208127 -0.00134695  0.0492602  
  0.137685 -0.0201958  0.0277442 -0.0213373 -0.00126441  0.0489945  
  0.121876 -0.0130016  0.0288878 -0.0281601 -0.00522767  0.0608313  
  0.127748 -0.0160644  0.0284356 -0.0318127 -0.0101278    0.05265  
  0.130579 -0.0190388  0.0284851 -0.0185099 0.00280229  0.0565812  
  0.127912 -0.0160896  0.0286384 -0.0322795 -0.0109047  0.0529959  
   0.13057     -0.019  0.0288286 -0.0189293 0.00207243  0.0571111  
  0.136783 -0.0211848  0.0284175 -0.0195864 0.000437697  0.0482378  
  0.136911 -0.0211469   0.028587 -0.0200352 -0.000248762  0.0486376  
  0.121864 -0.0127684  0.0282169 -0.0275493 -0.00431358  0.0604835  
   0.12773 -0.0157705  0.0279936 -0.0314026 -0.00975922  0.0528511  
   0.13056 -0.0187639  0.0281397 -0.0181933 0.00311709  0.0567807  
  0.127744 -0.0159136   0.028189 -0.0316106 -0.00995163   0.052702  
  0.130578 -0.0188963  0.0282839 -0.0183438  0.0028968  0.0566462  
  0.136755 -0.0209818  0.0281243  -0.019188 0.000868798  0.0483835  
  0.136777 -0.0210786  0.0282412 -0.0193862 0.000640665  0.0482573  
  0.121866 -0.0122102  0.0275715 -0.0271103 -0.0045185  0.0609856  
  0.127361 -0.0150213   0.027586 -0.0306844 -0.0106392  0.0532553  
  0.130342 -0.0178346  0.0275373 -0.0172413 0.00236272  0.0576438  
  0.127661 -0.0154685  0.0277532  -0.031097 -0.0100458  0.0531312  
  0.130575 -0.0184055  0.0278209 -0.0178862 0.00294989   0.057244  
  0.136578 -0.0202725  0.0278053 -0.0182678 0.000602104  0.0490784  
  0.136737 -0.0207085  0.0279491 -0.0188398 0.000825118  0.0487583  
  0.121222  -0.011084  0.0273092 -0.0280701 -0.00567773  0.0607062  
   0.12736 -0.0146276  0.0275468 -0.0317655 -0.0108019  0.0529373  
  0.130199 -0.0169221  0.0272272 -0.0181925 0.00224752  0.0572132  
  0.136708 -0.0196602  0.0274785 -0.0190074 0.000416467  0.0486713  
  0.067891 0.00632357  0.0278746 0.00404868 0.00382285   0.142121  
 0.0678664 0.00869896  0.0277949 0.00281554 0.000942139    0.13732  
 0.0638342 0.00851617  0.0279929 0.00310178 0.00288868   0.146912  
 0.0680069  0.0083376  0.0278867 0.00272644 0.000878303   0.136997  
 0.0639261 0.00845851   0.027953 0.00325372 0.00286169    0.14689  
 0.0644372  0.0101546  0.0279015 -9.61231e-06 -0.00269786    0.14195  
 0.0644937  0.0100108  0.0279414 -5.61902e-05 -0.00276404   0.141882  
 0.0676866 0.00644495  0.0279776 0.00373327 0.00358644   0.142197  
 0.0678032 0.00867606  0.0279058 0.00256786 0.000647334   0.137247  
 0.0637726 0.00856822  0.0279599 0.00288707  0.0025571    0.14679  
 0.0678288 0.00862365   0.027924 0.00266142 0.000785467   0.137303  
 0.0637974 0.00852409   0.027995 0.00296309   0.002691   0.146852  
 0.0643527  0.0102205  0.0279368 -0.000255745 -0.00297648   0.141946  
 0.0643892  0.0101749   0.027944 -0.000152175 -0.00285106   0.141977  
 0.0676214 0.00654053  0.0279369 0.00358297  0.0033662   0.142148  
 0.0676605  0.0087872  0.0279186 0.00229316 0.000404265   0.137288  
 0.0636305 0.00870811  0.0279556 0.00275927 0.00244202   0.146831  
 0.0677458 0.00873177  0.0279072 0.00242721 0.000526969   0.137283  
 0.0637145 0.00863948  0.0279484 0.00282437 0.00249439   0.146813  
 0.0641878  0.0103732  0.0279303 -0.000474712 -0.00318187   0.141999  
 0.0642829  0.0102992  0.0279251 -0.000366658 -0.00307596   0.141977  
 0.0674759 0.00657958  0.0280686 0.00342286 0.00335564   0.142201  
 0.0674391 0.00871973  0.0282923 0.00202659 0.000600986   0.137265  
  0.063523 0.00872336  0.0281441 0.00258995  0.0026072   0.146838  
 0.0675496  0.0087671  0.0280736 0.00216763 0.000411164   0.137323  
 0.0635612 0.00872418  0.0280449 0.00269737 0.00248914   0.146858  
 0.0639916  0.0103941  0.0281813 -0.000714164 -0.00306562   0.141962  
 0.0640814   0.010385    0.02805 -0.000577337 -0.00317222   0.142011  
   0.06768 0.00640489  0.0281423  0.0033291  0.0036087   0.142181  
 0.0676831 0.00858027  0.0282085 0.00193349 0.000734038   0.137261  
 0.0637233 0.00863665  0.0280587 0.00269207 0.00261265   0.146859  
 0.0641846    0.01025  0.0281395 -0.000687396 -0.0029594   0.142012  
  0.106154 -0.000982916  0.0270396 -0.0270202  -0.010887  0.0727557  
  0.105716 -0.000837626  0.0275503 -0.0285495 -0.0109278  0.0725752  
  0.112734 -0.00572606  0.0275025 -0.0340246 -0.0180549  0.0660976  
  0.112635 -0.00555515  0.0277097 -0.0351245 -0.0180379  0.0659259  
  0.106643 -0.00176167   0.027796 -0.0272474 -0.00891279   0.072788  
  0.106602 -0.00143515  0.0273583 -0.0271204 -0.00959998  0.0729249  
  0.113258 -0.00636395  0.0278497 -0.0343878  -0.016789  0.0659405  
  0.113131 -0.00609014  0.0276162 -0.0341954 -0.0172665  0.0661053  
  0.106577 -0.00217432  0.0284233 -0.0275059 -0.00905948  0.0724707  
  0.106612 -0.00196761  0.0280969 -0.0273827 -0.0090598  0.0726178  
  0.113258 -0.00669892  0.0283869 -0.0347205 -0.0170179  0.0656949  
  0.113259 -0.0065306  0.0281044 -0.0345637 -0.0168894   0.065789  
  0.107103 -0.00238323  0.0289896 -0.0284898 -0.0113422  0.0734887  
  0.106638 -0.00230281  0.0288101 -0.0278447 -0.00990334   0.072763  
  0.113911 -0.00678659  0.0285747 -0.0357321 -0.0187811  0.0664123  
  0.113435 -0.00677414  0.0285772 -0.0350973 -0.0177416  0.0659352  
  0.107452 -0.00186709  0.0281844 -0.0298086 -0.0111605  0.0734857  
   0.11407 -0.00631075  0.0279925 -0.0365143 -0.0185266  0.0663927  
 0.0701813   0.015861  0.0283814  0.0218081  0.0322788   0.124193  
 0.0630012   0.015679  0.0282492  0.0224215  0.0313993   0.140711  
  0.070126  0.0162284  0.0281002   0.022398  0.0321932    0.12453  
 0.0629435  0.0159578  0.0280685  0.0228008  0.0313327   0.140953  
 0.0670496  0.0159661   0.028225  0.0312766  0.0400275   0.133491  
 0.0669742  0.0162311  0.0280475  0.0316692  0.0399105   0.133703  
 0.0700979  0.0159916  0.0280846  0.0218608  0.0319316   0.123497  
 0.0629975  0.0156988  0.0280405  0.0223621   0.031217   0.140175  
 0.0701231  0.0158928  0.0282513  0.0217708  0.0320836   0.123667  
 0.0630009  0.0156506  0.0281533   0.022338  0.0312933   0.140341  
 0.0669433  0.0159761  0.0280928   0.031201  0.0397751   0.132984  
 0.0669867  0.0159335  0.0281819  0.0311913  0.0399003   0.133148  
 0.0700938  0.0162249  0.0277134  0.0221213  0.0322059    0.12368  
 0.0629008  0.0158967  0.0278483  0.0225387  0.0313891   0.140289  
 0.0701039   0.016107  0.0279062  0.0220027  0.0320121   0.123617  
 0.0629578   0.015799  0.0279414  0.0224607  0.0312685   0.140247  
 0.0668612  0.0162061  0.0278107  0.0313356   0.039931   0.133123  
  0.066909  0.0160936  0.0279479  0.0312814  0.0398032   0.133064  
 0.0697192  0.0162786   0.027893  0.0224929  0.0326044   0.123832  
 0.0626914  0.0159575  0.0279822  0.0227045  0.0314882   0.140422  
 0.0699302  0.0162904  0.0277542  0.0222699  0.0324681   0.123765  
 0.0627951   0.015954  0.0278898  0.0226163  0.0314858   0.140367  
  0.066566  0.0163138  0.0279519  0.0315613  0.0401554   0.133233  
  0.066726  0.0162792   0.027851  0.0314222  0.0400908   0.133197  
 0.0697386  0.0163122  0.0279881  0.0228023  0.0322701   0.123933  
 0.0627567  0.0160423   0.027947  0.0229303   0.031246   0.140494  
 0.0666245  0.0163669  0.0279717  0.0318266  0.0398959   0.133332  
 0.0681172  0.0162922  0.0279175  0.0247357  0.0346765   0.128112  
 0.0681498  0.0163321  0.0279777  0.0250323  0.0343763   0.128226  
 0.0658786  0.0163917  0.0279612  0.0361332  0.0431305   0.135553  
 0.0659428  0.0164439  0.0279776  0.0364027  0.0428989   0.135639  
 0.0684507  0.0162211  0.0277581  0.0244251  0.0343596   0.128002  
 0.0683055  0.0162838  0.0277978  0.0245495  0.0345722   0.128076  
 0.0661672  0.0162625  0.0278317  0.0359398  0.0429268   0.135446  
 0.0660343  0.0163419  0.0278699  0.0360081  0.0430735   0.135518  
 0.0684906   0.015987  0.0280891  0.0242178  0.0341427   0.127835  
 0.0684782  0.0161066   0.027923  0.0243361  0.0341988   0.127941  
 0.0662647  0.0160298  0.0281001  0.0358494  0.0428043   0.135318  
 0.0662226  0.0161488  0.0279605  0.0359076  0.0428161   0.135386  
 0.0685824  0.0159233  0.0283026  0.0242173  0.0344328   0.128422  
  0.068523  0.0159207  0.0282141  0.0241674  0.0342764    0.12801  
 0.0663942  0.0160482  0.0281892  0.0359732  0.0430585   0.135789  
 0.0663204  0.0159996  0.0281697  0.0358653  0.0429357   0.135479  
 0.0685115  0.0162164  0.0280874  0.0247087  0.0343349   0.128709  
 0.0663176  0.0163051  0.0280223  0.0363221  0.0429255    0.13596  
  0.107104 -0.00238303   0.028987 -0.0285203 -0.0113631  0.0734806  
  0.107451 -0.00186707  0.0281832 -0.0298343 -0.0111804  0.0734752  
  0.113928 -0.00680299  0.0285723 -0.0357775 -0.0188346   0.066388  
  0.114085 -0.0063277  0.0279917 -0.0365561 -0.0185796  0.0663674  
  0.106577 -0.00217561  0.0284233 -0.0275365 -0.00908398  0.0724633  
  0.106639 -0.00230371  0.0288091 -0.0278752 -0.00992715  0.0727556  
  0.113275 -0.00671648  0.0283865 -0.0347664  -0.017075  0.0656721  
  0.113452 -0.00679128  0.0285758 -0.0351431 -0.0177978  0.0659121  
  0.106644 -0.00176324  0.0277962 -0.0272778 -0.00893691  0.0727804  
  0.106612 -0.00196903   0.028097 -0.0274132 -0.0090838  0.0726103  
  0.113274 -0.00638208    0.02785 -0.0344336 -0.0168457  0.0659171  
  0.113276 -0.00654845  0.0281043 -0.0346095 -0.0169461  0.0657659  
  0.106154 -0.000984639  0.0270413 -0.0270516 -0.0109075  0.0727489  
  0.106602 -0.00143689  0.0273593  -0.027151 -0.00962341  0.0729173  
  0.112751 -0.00574513  0.0275042 -0.0340713 -0.0181083  0.0660746  
  0.113148 -0.00610867  0.0276174 -0.0342414 -0.0173223  0.0660817  
  0.105718 -0.000840123  0.0275514 -0.0285786 -0.0109497  0.0725692  
  0.112653 -0.00557454  0.0277108 -0.0351686  -0.018092  0.0659036  
 0.0690553 0.00566718  0.0280739 0.00419162 0.00663473   0.142197  
 0.0693269 0.00553408  0.0278803 0.00453676  0.0068559   0.142125  
 0.0689611 0.00777433  0.0279296 0.00405527 0.00529126   0.138069  
 0.0692341 0.00761101  0.0276477 0.00412202  0.0051898   0.137634  
 0.0690508 0.00571391  0.0279462 0.00417352 0.00629482   0.142003  
 0.0690529 0.00567186  0.0280079 0.00420967 0.00642682   0.142077  
 0.0689593 0.00778414  0.0278947 0.00391853 0.00496813   0.137838  
 0.0689662 0.00773427  0.0279383 0.00399395 0.00509735    0.13789  
  0.068992 0.00575936  0.0279567 0.00409184  0.0062248   0.142016  
 0.0690379 0.00573525  0.0279431 0.00413487 0.00624739   0.142011  
 0.0688706 0.00782744  0.0279362 0.00369095  0.0047623   0.137846  
 0.0689316 0.00780066  0.0279153 0.00380292 0.00485876   0.137852  
 0.0689177 0.00569773  0.0281916 0.00399143 0.00653329   0.142133  
 0.0689528 0.00573596  0.0280557 0.00405367 0.00631307   0.142078  
   0.06868 0.00775305  0.0282838 0.00351694 0.00498113   0.137951  
 0.0687911 0.00778577  0.0280898 0.00358886 0.00481442   0.137909  
 0.0692149 0.00555806   0.028113 0.00405111 0.00671439   0.142152  
 0.0689892 0.00745663   0.028409 0.00348509 0.00540364   0.137971  
 0.0638761  0.0132356  0.0283034  0.0156887  0.0245716   0.141357  
 0.0638702  0.0135302  0.0280941  0.0161273   0.024554   0.141684  
 0.0639074  0.0133201  0.0280128  0.0156377  0.0243298   0.140835  
  0.063894   0.013258  0.0281467  0.0156081  0.0244089   0.140981  
 0.0638245  0.0134877  0.0278663  0.0158243  0.0245011   0.140929  
 0.0638764  0.0134029   0.027938  0.0157393  0.0243897   0.140894  
 0.0636685  0.0135166    0.02799  0.0159313  0.0245959   0.141081  
 0.0637389  0.0135355  0.0279037  0.0158916  0.0245883   0.141005  
 0.0637618  0.0135951  0.0279175  0.0161737  0.0243545   0.141122  
  0.120679  -0.012648  0.0298489 -0.0202045 -0.00112621  0.0655184  
 0.0991841 0.00298693  0.0296505  -0.019871 -0.00687292  0.0806756  
   0.12134 -0.0114016  0.0285447 -0.0226015 -0.00198975   0.066139  
 0.0999387 0.00345519  0.0286464 -0.0224794 -0.00718437  0.0808558  
  0.109338 -0.00436969  0.0297364 -0.0204663 -0.00474499  0.0733202  
   0.10993 -0.00362583  0.0287313 -0.0229643 -0.00532818  0.0738805  
   0.12085 -0.0126254  0.0284896 -0.0193158 0.00137717  0.0636717  
 0.0991947   0.003426  0.0283325 -0.0193698 -0.0042844  0.0793339  
  0.120654 -0.0126642  0.0291127 -0.0196801 0.000724597  0.0642107  
 0.0990169 0.00321009   0.029025 -0.0195685 -0.00493402  0.0795666  
  0.109378 -0.00414248  0.0284231 -0.0197735 -0.00218756  0.0717929  
  0.109197 -0.00427801   0.029085  -0.020071 -0.0028646  0.0721863  
    0.1208 -0.0122284  0.0280515 -0.0190283 0.00159016  0.0639379  
  0.099191 0.00391307  0.0277377 -0.0191712 -0.00423423   0.079681  
  0.120833 -0.0124215  0.0282451 -0.0191596 0.00144366  0.0637761  
 0.0991934 0.00366049  0.0280356 -0.0192554 -0.00429871  0.0794998  
  0.109361 -0.00369869  0.0278797 -0.0195276 -0.00205003  0.0721056  
  0.109374 -0.00392199   0.028137   -0.01964 -0.00216852  0.0719301  
  0.120878  -0.011148  0.0267095  -0.018165 2.53314e-05  0.0644645  
 0.0992352 0.00474859  0.0261537 -0.0190984 -0.00696722  0.0790867  
  0.120959  -0.011795  0.0274337 -0.0188452 0.00132062  0.0642944  
 0.0993756 0.00424374  0.0269971 -0.0191881 -0.00489891  0.0796758  
  0.109383 -0.00275978  0.0264074 -0.0190669 -0.00420805  0.0720304  
  0.109534 -0.00331681  0.0271857   -0.01944 -0.00254461  0.0722536  
  0.120133 -0.0101691  0.0266638 -0.0202347 -0.000760846  0.0636714  
 0.0979051 0.00485077  0.0272959 -0.0216633 -0.00759481  0.0789546  
  0.108501 -0.00227389   0.026861 -0.0214146 -0.00496535    0.07139  
  0.120878 -0.0111477  0.0267086 -0.0181484 3.45532e-05  0.0644716  
 0.0992213 0.00476026  0.0261492 -0.0190546 -0.0069392  0.0791029  
  0.120132 -0.0101675  0.0266626   -0.02022 -0.000752783  0.0636769  
 0.0978879 0.00485936  0.0272948 -0.0216225 -0.00756508  0.0789668  
  0.109378 -0.00275525  0.0264046 -0.0190383 -0.00418858   0.072042  
  0.108495 -0.00226915  0.0268584   -0.02139 -0.00494814  0.0713974  
  0.120799  -0.012228  0.0280515  -0.019013 0.00159933  0.0639438  
 0.0991754 0.00392382  0.0277376 -0.0191283 -0.00419886   0.079697  
  0.120958 -0.0117945  0.0274334 -0.0188297 0.00132993  0.0643009  
 0.0993609 0.00425514   0.026995 -0.0191454 -0.00486377   0.079692  
  0.109355 -0.00369401  0.0278795 -0.0195005 -0.00202875  0.0721166  
  0.109528 -0.00331182  0.0271846 -0.0194129 -0.00252331  0.0722651  
  0.120849 -0.0126252  0.0284896 -0.0193004 0.00138655  0.0636774  
 0.0991792 0.00343668  0.0283321 -0.0193264 -0.00424842  0.0793497  
  0.120832 -0.0124212  0.0282451 -0.0191443 0.00145301   0.063782  
 0.0991777  0.0036713  0.0280353 -0.0192121 -0.00426332   0.079516  
  0.109372 -0.00413805   0.028423 -0.0197462 -0.00216591  0.0718038  
  0.109368 -0.00391741  0.0281369 -0.0196128 -0.00214705  0.0719412  
  0.120677 -0.0126479  0.0298512 -0.0201891 -0.00111718  0.0655269  
 0.0991669 0.00299396  0.0296566 -0.0198263 -0.00684188  0.0806924  
  0.120652 -0.0126641  0.0291133 -0.0196649 0.000734179  0.0642169  
 0.0990001 0.00322005  0.0290263 -0.0195249 -0.00489805  0.0795824  
  0.109329 -0.00436667  0.0297405 -0.0204384 -0.00472531  0.0733329  
   0.10919 -0.00427396  0.0290861 -0.0200438 -0.00284276  0.0721975  
  0.121338 -0.0113991  0.0285455 -0.0225896 -0.00198258   0.066149  
 0.0999248 0.00346489  0.0286486 -0.0224451 -0.00715637  0.0808796  
  0.109924 -0.00362123   0.028734 -0.0229429 -0.00531162  0.0738982  
 0.0653361  0.0133917  0.0279756  0.0145571  0.0242602    0.13779  
 0.0701729  0.0170789  0.0278279  0.0208801  0.0300355   0.120823  
 0.0654364    0.01348  0.0278917  0.0148149  0.0239669    0.13783  
 0.0701716  0.0170622  0.0279773  0.0212474  0.0296399   0.120957  
 0.0678123  0.0155074  0.0279138  0.0183287  0.0275248   0.129079  
 0.0678632  0.0155636  0.0279236  0.0186371  0.0271734   0.129172  
 0.0654994  0.0133813  0.0278455  0.0144276  0.0241621    0.13759  
  0.070566  0.0170727  0.0276586  0.0204215  0.0295446   0.120709  
  0.065411  0.0134253  0.0278816  0.0145157   0.024262   0.137675  
 0.0704041  0.0171261  0.0276821  0.0206208  0.0298608   0.120761  
 0.0680902  0.0155043  0.0277554  0.0180331  0.0272516   0.128911  
 0.0679655  0.0155512  0.0277891  0.0181786  0.0274475   0.128985  
 0.0655669  0.0132285  0.0280019   0.014183  0.0239415   0.137495  
 0.0705325    0.01685  0.0280545  0.0201142   0.029212   0.120526  
 0.0655449  0.0133035  0.0279242  0.0143147  0.0240247   0.137557  
 0.0705546  0.0169589  0.0278705  0.0202779  0.0293233   0.120653  
 0.0681118   0.015321  0.0280237  0.0177538  0.0269726   0.128774  
 0.0681094  0.0154111  0.0278959  0.0179039  0.0270704   0.128868  
 0.0654883  0.0130987  0.0283849  0.0141652  0.0241699   0.138059  
 0.0705767  0.0165869  0.0284862  0.0198837  0.0295357   0.121162  
 0.0655375  0.0131581  0.0281602  0.0141305  0.0240094   0.137647  
 0.0705378  0.0167162    0.02826   0.019964  0.0293337   0.120654  
 0.0680911  0.0151415  0.0284257  0.0176281  0.0272168   0.129376  
 0.0680984  0.0152241  0.0282027  0.0176546  0.0270565   0.128919  
 0.0654981  0.0134411  0.0281422  0.0147026  0.0242226   0.138532  
 0.0705168  0.0169583    0.02821  0.0205903  0.0295125   0.121701  
 0.0680525  0.0154851  0.0281886  0.0182427  0.0272537    0.12989  
  0.131149 -0.0188724   0.028677 -0.00866499 0.00810611  0.0646765  
  0.132222 -0.0234761  0.0299015 0.00158245  0.0153871  0.0631828  
  0.134469 -0.0230552  0.0296135 -0.00814123 0.00927589  0.0587164  
  0.131326  -0.019091  0.0283787 -0.000547816  0.0132174  0.0665515  
  0.135139  -0.021223  0.0280479 -0.0100687 0.00796665  0.0590196  
  0.134698 -0.0238033  0.0293091 0.000658094  0.0151941  0.0604204  
  0.134589 -0.0208293    0.02761 -0.000521577  0.0138981  0.0613923  
  0.131342 -0.0215377  0.0290297 -0.00516439  0.0118287  0.0613628  
  0.132927 -0.0237786  0.0285535 0.00158881  0.0156314  0.0610213  
  0.134925 -0.0234827  0.0284983 -0.00720334  0.0109628  0.0565365  
  0.132706 -0.0234266  0.0287773 0.00142032  0.0154498  0.0618172  
  0.134774 -0.0233525  0.0288953 -0.00755364  0.0105116  0.0571792  
  0.135142 -0.0243344  0.0284712  0.0013328  0.0159555  0.0583078  
  0.135003 -0.0240427  0.0286484 0.00111283  0.0156801  0.0589989  
  0.131572 -0.0215443  0.0283929 -0.00474141  0.0123141  0.0607099  
  0.132947   -0.02366  0.0283852   0.001724  0.0157018  0.0610884  
  0.134887 -0.0232596  0.0282756 -0.00691701  0.0112435   0.056665  
  0.132927 -0.0236892  0.0284399 0.00163559  0.0156968  0.0609672  
  0.134913 -0.0233724  0.0283697 -0.00705831  0.0111144  0.0565612  
  0.135131 -0.0242619  0.0283982 0.00155588  0.0161514  0.0583624  
  0.135135 -0.0242873  0.0284171  0.0014418   0.016062  0.0582772  
  0.131588 -0.0209697   0.027942 -0.0045312  0.0124763   0.061429  
  0.132824  -0.023014  0.0286037 0.00211729  0.0156881  0.0633194  
  0.134961  -0.022205  0.0276107 -0.00567203  0.0111746  0.0582084  
  0.132806 -0.0231508  0.0282667 0.00173865  0.0158064  0.0617943  
  0.134928  -0.022874  0.0280079 -0.00669346  0.0113563  0.0572912  
  0.134919 -0.0235271  0.0286111 0.00236018  0.0165091  0.0604272  
  0.135047 -0.0238881  0.0283686 0.00172267  0.0163504  0.0590762  
  0.131136 -0.0178824  0.0259583 -0.00450048  0.0111361  0.0614506  
  0.131697 -0.0186216  0.0261374 0.00236801  0.0156423  0.0639681  
  0.134595 -0.0204433  0.0266792 -0.00652382  0.0106014  0.0575743  
  0.134564 -0.0205957  0.0269559 0.00290674  0.0169675  0.0608679  
 0.0675436 0.00801086  0.0278333 0.00673024  0.0127491   0.142154  
 0.0690345 0.00599959  0.0281014 0.00522263 0.00945007   0.141511  
 0.0643403 0.00943165   0.028023 0.00803109  0.0141141   0.146265  
 0.0693335  0.0059472  0.0278646 0.00534996 0.00938903   0.141522  
 0.0644993 0.00945411  0.0279033 0.00824675  0.0139161   0.146295  
 0.0663873 0.00741172  0.0280965 0.00532832 0.00932294   0.144373  
 0.0666138 0.00736869  0.0279579 0.00546475 0.00924297   0.144389  
 0.0673491 0.00801134  0.0279483 0.00660078  0.0129631   0.142023  
 0.0690863 0.00604514  0.0279352 0.00525322 0.00916388   0.141341  
 0.0644053 0.00941072  0.0279248 0.00806986  0.0140066   0.146146  
 0.0690592 0.00603591   0.027992 0.00527215  0.0092573   0.141406  
 0.0643525 0.00944487  0.0279654 0.00809116  0.0140708   0.146201  
 0.0664592 0.00742515  0.0279405 0.00540815 0.00911652   0.144268  
 0.0664115 0.00743426  0.0280054   0.005402 0.00918951    0.14432  
  0.067441 0.00793371  0.0279391 0.00648464  0.0128035   0.141934  
 0.0691144  0.0059921  0.0279689 0.00518282 0.00910053   0.141315  
 0.0644978 0.00927362  0.0279907 0.00796103  0.0139178   0.146092  
 0.0691169 0.00601974  0.0279405 0.00522337 0.00911787   0.141327  
  0.064464 0.00934243  0.0279518 0.00802166  0.0139496    0.14612  
 0.0665401 0.00732322  0.0279715  0.0053936 0.00910587   0.144232  
 0.0665138 0.00737473  0.0279475 0.00540471 0.00910065   0.144251  
 0.0674292  0.0078223  0.0281092 0.00637562  0.0128488   0.142026  
 0.0690548 0.00585668  0.0282622 0.00512365 0.00944205   0.141512  
 0.0644671 0.00914798  0.0282739 0.00805918  0.0142515   0.146444  
  0.069092 0.00595072  0.0280667 0.00517452 0.00921702   0.141416  
 0.0644855 0.00922173  0.0281001 0.00796729  0.0140197   0.146204  
 0.0665295 0.00721683  0.0281811 0.00547062 0.00945561   0.144466  
 0.0665363  0.0072771  0.0280543 0.00541419 0.00922724   0.144325  
 0.0675228   0.007913    0.02817  0.0070375  0.0133201   0.142878  
 0.0693172  0.0058674  0.0281361 0.00563982 0.00982803   0.141954  
 0.0645392 0.00937816  0.0280794 0.00851804  0.0142984    0.14682  
 0.0666881 0.00727353  0.0280348 0.00586637 0.00959855   0.144717  
  0.131135 -0.0178812  0.0259579 -0.00449689  0.0111371  0.0614528  
  0.132824 -0.0230135  0.0286037 0.00211791   0.015688  0.0633204  
  0.134961 -0.0222053  0.0276109 -0.00566887   0.011176  0.0582106  
  0.131696 -0.0186208  0.0261372 0.00236867  0.0156422  0.0639689  
  0.134594 -0.0204427   0.026679 -0.00652039  0.0106029  0.0575762  
  0.134919 -0.0235269  0.0286113 0.00236245  0.0165099  0.0604286  
  0.134563 -0.0205951  0.0269559 0.00290932  0.0169686  0.0608692  
  0.131587 -0.0209693  0.0279421 -0.00452808  0.0124772  0.0614308  
  0.132946 -0.0236594  0.0283852 0.00172459  0.0157017  0.0610892  
  0.134886 -0.0232597  0.0282756 -0.00691409  0.0112447  0.0566667  
  0.132805 -0.0231502  0.0282667 0.00173928  0.0158063  0.0617951  
  0.134928 -0.0228741   0.028008 -0.00669049  0.0113576   0.057293  
   0.13513 -0.0242617  0.0283983 0.00155799  0.0161522  0.0583633  
  0.135046 -0.0238879  0.0283687 0.00172484  0.0163512  0.0590773  
  0.131571 -0.0215439  0.0283929 -0.00473836   0.012315  0.0607113  
  0.132926 -0.0237781  0.0285535 0.00158931  0.0156315  0.0610219  
  0.134925 -0.0234829  0.0284984 -0.0072005  0.0109642  0.0565379  
  0.132926 -0.0236886  0.0284399 0.00163613  0.0156968  0.0609679  
  0.134913 -0.0233726  0.0283697 -0.00705545  0.0111157  0.0565627  
  0.135142 -0.0243342  0.0284712 0.00133482  0.0159563  0.0583085  
  0.135135 -0.0242871  0.0284171 0.00144386  0.0160628   0.058278  
  0.131341 -0.0215373  0.0290298 -0.00516134  0.0118299  0.0613644  
  0.132221 -0.0234757  0.0299017 0.00158313  0.0153874  0.0631832  
  0.134469 -0.0230552  0.0296138 -0.00813837 0.00927748  0.0587185  
  0.132706 -0.0234261  0.0287773 0.00142082    0.01545  0.0618178  
  0.134773 -0.0233526  0.0288955 -0.00755081  0.0105131  0.0571809  
  0.134698  -0.023803  0.0293091 0.000660118  0.0151952  0.0604213  
  0.135003 -0.0240424  0.0286484 0.00111486  0.0156811  0.0589997  
  0.131148 -0.0188709  0.0286773 -0.00866198 0.00810736  0.0646793  
  0.131326 -0.0190902   0.028379 -0.000547294  0.0132174  0.0665527  
  0.135138 -0.0212223  0.0280479 -0.0100661 0.00796793  0.0590221  
  0.134589 -0.0208286  0.0276099 -0.000519546   0.013899  0.0613933  
  0.104471 0.00185387  0.0262802  0.0299092  0.0336559  0.0804386  
   0.10388 0.00202431  0.0267147  0.0326818    0.03426  0.0797197  
  0.104323 0.00103962  0.0278076  0.0301226  0.0314161  0.0809571  
  0.104566 0.00137634  0.0270626  0.0301269  0.0319154  0.0809714  
   0.10428 0.000579522  0.0284397  0.0302327    0.03145  0.0806874  
  0.104297 0.000810146  0.0281212  0.0301657   0.031477  0.0808029  
  0.104042 0.000207218  0.0302053  0.0306552    0.03433  0.0822918  
  0.104034 0.00039852  0.0292394  0.0304367  0.0321112  0.0810846  
  0.105361 0.000692462  0.0288621   0.033476   0.035388  0.0829422  
  0.104044 0.000208729  0.0302023  0.0306904  0.0343598  0.0822946  
  0.105362 0.000694429  0.0288589  0.0335069  0.0354119  0.0829421  
  0.104279 0.000580988  0.0284398  0.0302651  0.0314781  0.0806904  
  0.104034 0.000399971  0.0292389  0.0304695   0.032141  0.0810877  
  0.104322 0.00104095  0.0278075  0.0301548  0.0314441    0.08096  
  0.104296 0.000811541  0.0281212   0.030198  0.0315055   0.080806  
  0.104468 0.00185502  0.0262829  0.0299407  0.0336843  0.0804428  
  0.104565 0.00137763  0.0270633  0.0301586  0.0319446  0.0809746  
  0.103878  0.0020255  0.0267176  0.0327091  0.0342842  0.0797268  
 0.0687832  0.0157179    0.02815 -0.00592037 -0.00821941   0.119799  
 0.0688531  0.0153902  0.0283673 -0.00623429 -0.00779255   0.120008  
 0.0693232  0.0157184  0.0277328 -0.00537362 -0.00780131   0.120023  
 0.0690984  0.0157167  0.0279021 -0.00561443 -0.00807598   0.119954  
 0.0694561  0.0155239   0.027887 -0.00502207 -0.00740789   0.119909  
 0.0693937  0.0156242  0.0278168 -0.00520586 -0.00756257   0.119993  
 0.0696228  0.0153173   0.027774 -0.00470936 -0.00737728   0.119667  
  0.069527  0.0154315  0.0278651 -0.00485923  -0.007378    0.11984  
 0.0695151  0.0149651  0.0280486 -0.00535868 -0.00748886   0.119649  
 0.0884662  0.0102808   0.029071 -0.0167758 -0.00822911  0.0886464  
 0.0890732  0.0102662  0.0283702 -0.0184915 -0.00762814  0.0885824  
 0.0941084 0.00645215   0.030295 -0.00969189 -3.28271e-05  0.0847445  
  0.094831 0.00633337   0.030113 -0.0135775 -0.00197585  0.0863918  
  0.088108  0.0110169  0.0281801 -0.0163233 -0.00579449  0.0881122  
 0.0880232  0.0107391  0.0287154 -0.0164131 -0.00641944  0.0881092  
 0.0946886 0.00709277   0.028288 -0.00990575 0.00181961  0.0836571  
 0.0944655 0.00679154  0.0290688 -0.0101503 0.00138617  0.0837864  
 0.0881223  0.0114579  0.0276064 -0.0162611 -0.00585943  0.0884609  
  0.088115  0.0112366  0.0278877 -0.0162686 -0.00588333   0.088293  
 0.0947548 0.00758987   0.027624 -0.0097948 0.00181312  0.0839165  
 0.0947172 0.00733473  0.0279624 -0.00988217 0.00184255  0.0837934  
 0.0878791  0.0119408  0.0264497 -0.0168269 -0.00898974   0.087419  
 0.0882735  0.0116763  0.0269484 -0.0163346 -0.00669481  0.0882246  
 0.0955991  0.0082797  0.0251485 -0.00949271 -0.000319697  0.0827815  
 0.0950188  0.0078826  0.0267844 -0.00996707 0.00130734   0.083792  
  0.086596  0.0113004  0.0280784   -0.01901 -0.00881721  0.0877041  
  0.094205  0.0080513  0.0260714 -0.0133673 -0.00304258  0.0811904  
 0.0735595   0.018756  0.0275839  0.0240163  0.0313883   0.111375  
 0.0733883  0.0185528  0.0280481  0.0245972  0.0309943   0.111568  
 0.0709424  0.0181024   0.027687   0.016556  0.0238626   0.116208  
 0.0708915  0.0179749  0.0279105  0.0170477  0.0232688   0.116435  
 0.0740607  0.0187622  0.0275288  0.0232649   0.030335   0.111564  
 0.0739036  0.0188171  0.0274627  0.0235344   0.030863   0.111501  
 0.0713195   0.018193  0.0275807  0.0159603  0.0231868   0.116232  
 0.0711927  0.0182081  0.0275597  0.0162481   0.023576    0.11619  
 0.0739417  0.0184734  0.0281098  0.0230104  0.0300145   0.111327  
 0.0739995  0.0186144  0.0278387  0.0231471   0.030118   0.111493  
 0.0712305   0.018002  0.0279754  0.0155967   0.022789   0.116066  
 0.0712743   0.018097   0.027799  0.0157904  0.0229467   0.116193  
 0.0741594  0.0180765  0.0285481  0.0226455   0.030579   0.111874  
 0.0739922  0.0182698  0.0283586  0.0228168  0.0302443   0.111382  
 0.0711884  0.0175022  0.0286389  0.0150079  0.0229665   0.116391  
 0.0711986  0.0178263  0.0282198  0.0153566  0.0228244    0.11609  
 0.0740947  0.0183035  0.0282918  0.0234496  0.0304473   0.112291  
 0.0711217  0.0177545   0.028511  0.0159001  0.0232008   0.117428  
 0.0742104  0.0179207  0.0285097  0.0240391  0.0321869   0.112379  
 0.0741405   0.018148  0.0282549  0.0248083  0.0320286   0.112752  
 0.0709519  0.0171862  0.0286016  0.0160532  0.0244213   0.118103  
 0.0708891  0.0174619  0.0284343   0.016887  0.0245847   0.119023  
 0.0739745    0.01827  0.0281269  0.0243479  0.0316225   0.111819  
 0.0740348  0.0180815  0.0283563  0.0241739  0.0318611   0.111893  
 0.0709774  0.0176234  0.0279945  0.0165469  0.0242138   0.117711  
 0.0709545  0.0174621  0.0282247  0.0163345  0.0242658   0.117763  
 0.0740811  0.0185634  0.0275445  0.0245887  0.0319272   0.112057  
 0.0740269   0.018414  0.0278524  0.0244789  0.0317128   0.111983  
 0.0710483  0.0178194  0.0276066  0.0168948  0.0245906   0.117878  
 0.0710143  0.0177209   0.027818   0.016733  0.0243577   0.117836  
 0.0735705  0.0185795  0.0276216  0.0253044  0.0329348   0.111895  
 0.0739153  0.0186244  0.0274918  0.0248428  0.0324367    0.11201  
  0.070672  0.0177536  0.0277328  0.0174439  0.0251925   0.117891  
 0.0709162  0.0178428  0.0275981  0.0171576  0.0249519    0.11786  
 0.0734242  0.0184073  0.0280445  0.0258436  0.0325406   0.112081  
 0.0706433  0.0176578  0.0279249  0.0179045  0.0246667   0.118092  
 0.0879139  0.0119597  0.0264174 -0.0166085 -0.00879797   0.087383  
 0.0866135  0.0113146  0.0280596 -0.0188324 -0.00866321  0.0876605  
    0.0956  0.0082962  0.0251357 -0.00938405 -0.000234299  0.0827991  
 0.0942031 0.00806268  0.0260502  -0.013282 -0.00298642  0.0811756  
 0.0881328  0.0114769  0.0276061 -0.0160506 -0.00565854  0.0884502  
 0.0882915  0.0116961  0.0269391 -0.0161238 -0.00648897  0.0882131  
 0.0947447 0.00760601  0.0276236 -0.00969417 0.00189186  0.0839333  
 0.0950111 0.00789885  0.0267809 -0.00986705 0.00138823  0.0838068  
 0.0881195  0.0110349  0.0281789 -0.0161118 -0.00559314  0.0881028  
  0.088126  0.0112554  0.0278869 -0.0160574 -0.0056821   0.088283  
 0.0946785 0.00710861  0.0282875 -0.00980441 0.00189814  0.0836741  
  0.094707 0.00735085  0.0279618 -0.00978155 0.00192177  0.0838104  
 0.0884631  0.0102909  0.0290945 -0.0165506 -0.00803485  0.0886378  
 0.0880289  0.0107551   0.028722 -0.0162032 -0.00621527   0.088099  
 0.0940893 0.00646424  0.0303059 -0.00958585 4.81038e-05  0.0847569  
 0.0944537 0.00680648  0.0290707 -0.0100504 0.00146745  0.0838031  
 0.0890823  0.0102664  0.0283924 -0.0183086 -0.00746511  0.0885891  
 0.0948173 0.00633928  0.0301363 -0.0134849 -0.00191226  0.0864341  
 0.0675688 0.00613129  0.0281391 0.00496624 0.00764602   0.143907  
 0.0677253 0.00625009  0.0279396 0.00537958 0.00772096   0.144094  
 0.0645972 0.00822664  0.0281175 0.00554902 0.00821201   0.146852  
 0.0646914 0.00828843  0.0280039 0.00585221 0.00823946   0.146979  
  0.067553  0.0062593  0.0279608 0.00486815 0.00726032   0.143684  
 0.0675554 0.00621664   0.028031 0.00489867 0.00738637   0.143765  
 0.0645768 0.00830606  0.0279735 0.00539679 0.00787479   0.146615  
  0.064584 0.00825676  0.0280449 0.00543778 0.00799658   0.146698  
 0.0674596 0.00636064  0.0279456 0.00482047 0.00721829   0.143715  
 0.0675202 0.00631017  0.0279465 0.00484534 0.00723002   0.143696  
 0.0644634 0.00843704  0.0279461 0.00537541 0.00785316   0.146657  
 0.0645329 0.00837153  0.0279525 0.00538909 0.00785542   0.146637  
 0.0673773 0.00635219  0.0281184  0.0046896 0.00744353   0.143815  
 0.0674045 0.00636185  0.0280293 0.00479193 0.00729116   0.143765  
 0.0643785 0.00844613  0.0280949  0.0052646 0.00800438    0.14672  
 0.0644045 0.00845851  0.0280121 0.00535043 0.00791015   0.146698  
 0.0676094 0.00622895  0.0280536  0.0048018 0.00740439   0.143818  
 0.0645654 0.00841091  0.0279866 0.00541258 0.00792015   0.146732  
 0.0688454 0.00642413  0.0282445 0.00478442 0.00871586   0.140932  
 0.0691083 0.00632429  0.0282013 0.00526525 0.00914773   0.141396  
 0.0689163 0.00654361   0.027967 0.00485802  0.0084143   0.140793  
 0.0688926 0.00650308  0.0280609 0.00484794 0.00852681   0.140894  
 0.0688904 0.00659763  0.0279302 0.00492965 0.00848232    0.14082  
 0.0689201 0.00657345  0.0279347 0.00489969 0.00843461   0.140808  
 0.0688296 0.00653762  0.0281142  0.0049017 0.00878056   0.140971  
 0.0688601 0.00658806  0.0279854   0.004952 0.00857204    0.14088  
 0.0691278 0.00653559  0.0278178 0.00501104 0.00867103   0.140991  
 0.0843686  0.0122619  0.0285276 -0.0178835 -0.0111908  0.0934058  
 0.0843333  0.0121519  0.0284572 -0.0190863 -0.0109689  0.0937637  
 0.0838735  0.0128151  0.0281628 -0.0176515 -0.00982034   0.093288  
 0.0839607  0.0125811  0.0284276 -0.0177087 -0.0103592  0.0932617  
 0.0839415  0.0131973  0.0275543 -0.0176649  -0.009958   0.093595  
 0.0838994   0.013004  0.0278705 -0.0176729 -0.00990089  0.0934673  
 0.0833183  0.0135256  0.0271761  -0.018238 -0.0121385  0.0930114  
 0.0838351  0.0133763  0.0272469 -0.0178091 -0.0107812  0.0934303  
 0.0828471  0.0131407  0.0279978 -0.0195068 -0.0117681  0.0930356  
 0.0787897  0.0157437  0.0285672  0.0287923  0.0357676   0.107179  
 0.0788266  0.0158826  0.0282658  0.0296243  0.0356143   0.107511  
 0.0784108  0.0160778  0.0282263  0.0289078  0.0348314   0.106671  
 0.0784969  0.0159052  0.0284594  0.0288244  0.0352282   0.106779  
 0.0785488  0.0164165  0.0275515  0.0290473   0.035061   0.106931  
 0.0784804  0.0162476  0.0278958  0.0289924  0.0348963   0.106828  
 0.0780168  0.0165544  0.0275154  0.0296821   0.036339   0.106669  
 0.0784018  0.0165176  0.0274367  0.0292565  0.0356456   0.106874  
 0.0778963  0.0163682  0.0279423  0.0303853  0.0359401    0.10684  
 0.0780601  0.0166998  0.0274781  0.0289392  0.0355029   0.106113  
 0.0779187  0.0164924  0.0279391  0.0296729   0.035103   0.106287  
 0.0785876  0.0165723  0.0275383  0.0282739  0.0341648   0.106409  
 0.0784483   0.016671  0.0274086  0.0284934  0.0347685    0.10634  
 0.0784398  0.0162309  0.0282214  0.0281278  0.0339262   0.106145  
 0.0785137  0.0164019  0.0278881  0.0282153  0.0340007   0.106306  
  0.078814  0.0158702  0.0285956  0.0279785   0.034887   0.106649  
  0.078519  0.0160482  0.0284709  0.0280327  0.0343261   0.106247  
 0.0788597  0.0159954  0.0282934   0.028845  0.0347461   0.106996  
 0.0833485  0.0136188  0.0271386 -0.0177727 -0.0116674  0.0929125  
 0.0828515  0.0132212  0.0279896 -0.0190822 -0.0113102  0.0929363  
  0.083957  0.0132914  0.0275505 -0.0171872 -0.0094382  0.0935291  
 0.0838611  0.0134699  0.0272269 -0.0173357 -0.0102708  0.0933535  
 0.0838866  0.0129071  0.0281603 -0.0171734 -0.00929966  0.0932208  
 0.0839136  0.0130969  0.0278674 -0.0171945 -0.00938483  0.0934003  
 0.0843757  0.0123392  0.0285493 -0.0173976 -0.0107005  0.0933396  
 0.0839674  0.0126681  0.0284375 -0.0172281 -0.00984319  0.0931909  
 0.0843505  0.0122162  0.0284787 -0.0186378 -0.0104828  0.0937035  
  0.124329 -0.0167154  0.0308064 -0.00899506 0.00742753   0.066718  
  0.125776 -0.0146039  0.0286605    -0.0131 0.00447385  0.0675201  
  0.127784 -0.0177879  0.0297469 -0.0144814 0.00380408  0.0622614  
  0.128453 -0.0161842  0.0282634 -0.0166193 0.00281252  0.0627465  
  0.125624 -0.0168783  0.0285304 -0.00867455 0.00917782  0.0638824  
  0.125359 -0.0168355  0.0291524 -0.00899068  0.0088677  0.0643864  
  0.128082 -0.0179758  0.0284946 -0.0135538 0.00595639  0.0602379  
  0.127904 -0.0179278  0.0290118  -0.013906 0.00540511  0.0608335  
  0.125612 -0.0165321  0.0281493 -0.00838811 0.00936891  0.0639711  
   0.12562 -0.0167135  0.0283324 -0.00854575 0.00936978   0.063864  
  0.128029 -0.0176692  0.0281681  -0.013273 0.00619932    0.06043  
  0.128064 -0.0178191   0.028308 -0.0134023 0.00606531  0.0603015  
  0.126375 -0.0153386  0.0263507 -0.00708131 0.00874079  0.0649265  
  0.125699 -0.0160792  0.0276543 -0.00839159 0.00941458  0.0645311  
  0.128106 -0.0166209  0.0271484 -0.0122654 0.00530828   0.061421  
  0.128133 -0.0172577   0.027713 -0.0130693 0.00612344  0.0609179  
  0.124575 -0.0134317  0.0262003 -0.00975677 0.00660665  0.0642819  
  0.127479 -0.0152208  0.0267037 -0.0137431 0.00467109  0.0607857  
 0.0674722  0.0099321   0.027951 0.00820191  0.0160283   0.138408  
 0.0676452 0.00991877  0.0278638 0.00850561  0.0157052   0.138464  
 0.0648566  0.0114645  0.0279977  0.0115769   0.019441   0.142225  
 0.0649861  0.0115158  0.0278995  0.0118234  0.0192095   0.142253  
 0.0675715 0.00992921  0.0278683 0.00816764  0.0158665   0.138201  
   0.06751 0.00995349  0.0279031 0.00825171  0.0159729   0.138269  
 0.0649728  0.0114504  0.0278862  0.0115251  0.0193343   0.142064  
 0.0649028   0.011489   0.027923  0.0115807  0.0194179   0.142134  
 0.0676135 0.00981398   0.027977 0.00793979  0.0156696    0.13814  
 0.0676051 0.00987231  0.0279212  0.0080603  0.0157491   0.138169  
 0.0650498   0.011307  0.0279957  0.0113492  0.0191812   0.141991  
 0.0650231  0.0113779  0.0279385   0.011445  0.0192384   0.142034  
 0.0675072 0.00952587   0.028508 0.00786735  0.0160145    0.13854  
 0.0675694 0.00975009  0.0281341 0.00787891  0.0157384   0.138252  
 0.0649976  0.0111792   0.028334  0.0113915  0.0194678   0.142456  
 0.0650292   0.011245  0.0281321  0.0113274   0.019268   0.142121  
  0.067623 0.00994889  0.0281779 0.00858297  0.0161917   0.139369  
 0.0650468  0.0114688   0.028107  0.0118934   0.019521   0.142869  
  0.126375 -0.0153387  0.0263506 -0.00707182 0.00874536  0.0649307  
  0.124575 -0.0134304  0.0261986 -0.00974785 0.00660973  0.0642833  
  0.128104 -0.0166198  0.0271481 -0.0122564 0.00531283  0.0614262  
  0.127476 -0.0152186  0.0267029  -0.013735 0.00467522  0.0607898  
  0.125611 -0.0165318  0.0281492 -0.00837901 0.00937274  0.0639739  
  0.125699 -0.0160789  0.0276542 -0.00838258 0.00941857  0.0645342  
  0.128027  -0.017668   0.028168 -0.0132646 0.00620393  0.0604344  
   0.12813 -0.0172564  0.0277129 -0.0130609 0.00612813  0.0609227  
  0.125623 -0.0168782  0.0285305 -0.00866552 0.00918183   0.063885  
  0.125619 -0.0167133  0.0283324 -0.00853674 0.00937379  0.0638668  
   0.12808 -0.0179747  0.0284947 -0.0135455 0.00596118  0.0602421  
  0.128061 -0.0178179  0.0283081 -0.0133939 0.00607006  0.0603059  
  0.124327 -0.0167153  0.0308075 -0.00898511 0.00743289  0.0667213  
  0.125358 -0.0168354  0.0291526 -0.00898168 0.00887206  0.0643894  
  0.127781 -0.0177867  0.0297481 -0.0144729 0.00380891  0.0622671  
  0.127901 -0.0179267  0.0290122 -0.0138978 0.00541006  0.0608381  
  0.125774 -0.0146023  0.0286621 -0.0130918 0.00447732  0.0675269  
   0.12845 -0.0161817  0.0282639 -0.0166127 0.00281617  0.0627533  
  0.126633 -0.0189471   0.030428 -0.000126063  0.0135998  0.0655822  
  0.125222 -0.0152932  0.0305867 -0.00345542  0.0101877  0.0716696  
    0.1275 -0.0189682  0.0286274 -0.000468726  0.0136598  0.0640108  
  0.127245  -0.018766   0.029075 -0.000757749  0.0134263  0.0648876  
    0.1276 -0.0186869  0.0281743 -0.000326146  0.0137298   0.064194  
  0.127537 -0.0188018  0.0283834 -0.000470162  0.0137402   0.064037  
  0.127897 -0.0178524  0.0275493 0.000387879  0.0139218  0.0663201  
  0.127539 -0.0181475  0.0278329 -0.000426846   0.013739  0.0646529  
  0.127375 -0.0141381   0.024122 -0.000987061   0.011773  0.0637356  
 0.0687692 0.00820486  0.0280417 0.00642362  0.0112964   0.138444  
 0.0690605 0.00825759  0.0276373 0.00659757  0.0109548   0.138465  
 0.0688388 0.00825451  0.0278917 0.00638167  0.0110063   0.138249  
 0.0688082  0.0082546  0.0279201 0.00645608   0.011108   0.138309  
 0.0688386 0.00819394   0.027972 0.00617779  0.0108184   0.138205  
  0.068855 0.00822904  0.0279179  0.0062891   0.010898   0.138228  
 0.0687015  0.0079915  0.0284098 0.00599911  0.0110701   0.138344  
  0.068789 0.00814823  0.0281032 0.00612474  0.0109085   0.138324  
 0.0689475 0.00799371  0.0284216 0.00662962  0.0116672   0.139233  
  0.127897 -0.0178526  0.0275496 0.000391159  0.0139237  0.0663218  
  0.127376 -0.0141379  0.0241209 -0.00098379  0.0117744   0.063736  
    0.1276  -0.018687  0.0281742 -0.000322979  0.0137312  0.0641949  
  0.127539 -0.0181477  0.0278329 -0.000423697  0.0137404  0.0646537  
    0.1275 -0.0189684  0.0286275 -0.000465696  0.0136613  0.0640114  
  0.127537 -0.0188019  0.0283834 -0.000467078  0.0137416  0.0640377  
  0.126633 -0.0189473   0.030428 -0.00012267   0.013602  0.0655826  
  0.127245 -0.0187661  0.0290751 -0.000754689   0.013428  0.0648883  
  0.125221 -0.0152927  0.0305878 -0.00345204  0.0101899  0.0716722  
-0.000153265 -0.0104466  0.0280043 0.000322346 0.000840581  0.0062762  
-0.000174727 -0.0104538  0.0280202 0.000335225 0.000865366 0.00629284  
-0.000181779 -0.0104436  0.0280077 0.000356422 0.000884003 0.00630181  
-0.000179118 -0.0104257  0.0279892 0.000378776 0.000884193 0.00628639  
-0.000192538  -0.010414  0.0279877 0.000393574 0.000895872 0.00628991  
-0.00019298 -0.0104327   0.028006 0.000372015 0.000898626  0.0063045  
-0.000185616 -0.0104442  0.0280209 0.000351924 0.000880886 0.00629501  
-0.000164037 -0.0104375  0.0280059 0.000339158 0.000854751 0.00627966  
-0.000278027 -0.0104178  0.0279847 0.000181909 0.00066595 0.00637413  
-0.000276905 -0.0104303  0.0279989 0.00018546 0.000666101 0.00638835  
-0.000267354 -0.0104439  0.0280182 0.000196414 0.000676311 0.00638446  
-0.000253959 -0.0104406  0.0280103 0.000207464 0.000685403 0.00637631  
-0.000284759 -0.0104224   0.028013 0.000190643 0.000663209 0.00639423  
-0.000296904 -0.0104249  0.0280187 0.000180186 0.000653251 0.00639849  
-0.000306557 -0.0104097  0.0279961 0.000171175 0.00064437 0.00640246  
-0.000309665 -0.0103971  0.0279827 0.000168714 0.000646901 0.00639077  
-0.000292566 -0.0104145  0.0279883 0.000304868 0.000832224 0.00641675  
-0.000289032 -0.0104255  0.0279993 0.000300153 0.000839204 0.00643145  
-0.000277222 -0.0104386  0.0280136 0.000297866 0.000838857 0.00642513  
-0.000266034 -0.0104382  0.0280069 0.000301932 0.000833052 0.00641084  
-0.000272192 -0.0104369  0.0280074 0.000309392 0.000838702 0.00641567  
-0.000283216 -0.0104369  0.0280137 0.000305261 0.000844782 0.00642945  
-0.000295149 -0.0104234  0.0279987 0.000307334 0.000844999 0.00643584  
-0.000299347 -0.0104123  0.0279879 0.000311826 0.00083738 0.00642168  
-0.000144724 -0.0104468  0.0280076 0.000212027 0.000744209 0.00624182  
-0.000167964 -0.0104584  0.0280251 0.000185359 0.000716068 0.00625025  
-0.000170498   -0.01045  0.0280088 0.000159822 0.000690725 0.00625163  
-0.000161511 -0.0104308  0.0279863 0.000141649 0.000680949 0.00623608  
-0.000165499 -0.0104266  0.0279856 0.00013624 0.000675932  0.0062351  
-0.000173747 -0.0104462  0.0280082 0.000154309 0.000684624 0.00625028  
-0.000171145 -0.0104552  0.0280256 0.000179504 0.000709799 0.00624861  
-0.000147527 -0.0104437  0.0280085 0.00020625 0.000739096 0.00624101  
-0.00018094 -0.0104313  0.0280125 0.000173439 0.00069574 0.00626321  
-0.000204176 -0.0104395  0.0280264 0.000151457 0.000667007 0.00626883  
-0.000208691 -0.0104267  0.0280029 0.00013047 0.000645463 0.00627239  
-0.000205917 -0.0104072  0.0279819 0.000116534 0.000644295 0.00625776  
-0.000158226 -0.0104748  0.0280034 0.000229306 0.000743261  0.0062942  
-0.0001763 -0.0104825   0.028019 0.000212255 0.000730093  0.0063104  
-0.000180943 -0.0104753   0.028008 0.000192349  0.0007118  0.0063119  
-0.000172783  -0.010462  0.0279894 0.000182374 0.000703942 0.00629198  
-0.000136828 -0.0104839  0.0279978 0.000275903 0.000792967 0.00628573  
-0.00015166 -0.0104944  0.0280157 0.000257016 0.000783332 0.00630524  
-0.000151293  -0.010494  0.0280132  0.0002357 0.000764368  0.0063029  
-0.00013684 -0.0104834  0.0279944 0.000225506 0.000751446 0.00628088  
-0.000145166 -0.0104994  0.0279984 0.000258983 0.000772397 0.00631393  
-0.000159006 -0.0105068  0.0280141 0.000247113 0.000768187  0.0063356  
-0.000160814 -0.0105045  0.0280105 0.00023395 0.000756705 0.00633534  
-0.000149841 -0.0104955  0.0279939 0.00023017 0.00074918 0.00631218  
-0.000153243 -0.0104894  0.0279946 0.000287634 0.000803404 0.00631809  
-0.000162778 -0.0104994  0.0280108 0.000274871 0.000801189 0.00633984  
-0.000158684 -0.0105032  0.0280136 0.000261521 0.000790179 0.00633592  
-0.000143857 -0.0104967  0.0279978 0.000258037 0.000780477 0.00631283  
-0.000144063 -0.0105052  0.0279963 0.000263355 0.000779134 0.00632222  
-0.000155612 -0.0105129  0.0280118 0.000254862 0.00077867 0.00634525  
-0.000154848 -0.0105135  0.0280117 0.000247424 0.00077241 0.00634404  
-0.000142584 -0.0105063   0.027996 0.000247384 0.00076654 0.00632024  
-0.00015054 -0.0105071  0.0279985 0.000256689 0.000772947 0.00633164  
-0.00016354 -0.0105127  0.0280127 0.000252393 0.00077571 0.00635453  
-0.000167642 -0.0105088  0.0280092 0.000252323 0.000775237 0.00635672  
-0.000159029 -0.0105004  0.0279941 0.000256439 0.000772272 0.00633385  
-0.000143985 -0.0105044  0.0279951 0.000242086 0.000761001 0.00631887  
-0.000155566 -0.0105122  0.0280111 0.000243047 0.000767237 0.00634261  
-0.000154947  -0.010513  0.0280127 0.000251881 0.000774833 0.00634321  
-0.000142438 -0.0105057  0.0279972 0.000261133 0.00077622 0.00632043  
-0.000168572  -0.010495  0.0279934 0.000254045 0.000769847 0.00634042  
-0.000176003 -0.0105038  0.0280083 0.000250631 0.000773267 0.00636273  
-0.000170619 -0.0105089   0.028013 0.000251854 0.000774814 0.00636006  
-0.000157441 -0.0105039  0.0279995 0.000256818 0.00077259 0.00633796  
-0.000153271 -0.0104982  0.0279988 0.000263584 0.000783675 0.00632595  
-0.000167425 -0.0105037  0.0280133 0.000264419 0.000791315 0.00634861  
-0.000172785 -0.0104986  0.0280093 0.000273914 0.000798753 0.00635272  
-0.00016501  -0.010489  0.0279939 0.000284107 0.000798941 0.00633103  
-0.000139796 -0.0104964  0.0279968 0.000250785 0.000773383 0.00630583  
-0.000154441 -0.0105038  0.0280133 0.000255581 0.000783719 0.00632908  
-0.000157258 -0.0105012   0.028012 0.00027071 0.000796493 0.00633247  
-0.000146263 -0.0104914  0.0279955 0.000284649 0.000800142  0.0063108  
-0.000200661 -0.0104835   0.028003 0.000264783 0.00077625 0.00637032  
-0.000213002 -0.0104865  0.0280134 0.000259326 0.000778371 0.00638858  
-0.000222225 -0.0104773  0.0280043 0.000258199 0.000776469 0.00639306  
-0.000219618 -0.0104675   0.027991 0.000261466 0.00077268 0.00637413  
-0.000161905 -0.0104944  0.0280008 0.000245676 0.000756962 0.00632756  
-0.000176179 -0.0105002  0.0280149 0.000235129 0.000753014 0.00634764  
-0.000181365 -0.0104945  0.0280079 0.000223388 0.000742524 0.00634932  
-0.000173679 -0.0104846  0.0279919 0.000220125 0.000736315 0.00632758  
-0.000176692 -0.0104839  0.0279932 0.000284095 0.000798889 0.00634067  
-0.000183025 -0.0104936   0.028008 0.000275285 0.000799984 0.00636194  
-0.000176563 -0.0104998  0.0280134 0.000267978 0.000794525 0.00635751  
-0.000162622 -0.0104952  0.0279998 0.000268596 0.000787762 0.00633548  
-0.000230622 -0.0104609  0.0279905 0.000258926 0.000771479 0.00638124  
-0.00023234 -0.0104709  0.0280035 0.000255937 0.000775362 0.00639939  
-0.000222594 -0.0104808  0.0280135 0.00025737 0.000777552 0.00639476  
-0.000210426 -0.0104781  0.0280037 0.000263065 0.000775653 0.00637751  
-0.000199615 -0.0104697  0.0279901 0.000211407 0.000720581 0.00634238  
-0.000204538 -0.0104804  0.0280055 0.000214769 0.000725633  0.0063623  
-0.000197183 -0.0104887  0.0280156 0.000226373 0.000736092 0.00635955  
-0.000182778 -0.0104839  0.0280032 0.00023689 0.000740951 0.00634208  
-0.000155416 -0.0104901  0.0279928 0.00022087 0.000739734 0.00631098  
-0.000165428 -0.0104999  0.0280097 0.000225595 0.000747199 0.00633361  
-0.000162381 -0.0105036   0.028015 0.000239843 0.000759775 0.00633318  
-0.000147627 -0.0104965  0.0279995  0.0002523 0.000765238 0.00631232  
-0.000184134 -0.0104547  0.0279914 0.000333972 0.000847411 0.00632089  
-0.000188467 -0.0104679  0.0280076 0.000318155 0.000847424 0.00633982  
-0.000180769 -0.0104765  0.0280162 0.000302051 0.000834409 0.00633263  
-0.000163346 -0.0104714  0.0280016 0.000296285 0.000819723  0.0063122  
-0.00018454 -0.0104512  0.0279879 0.000171185 0.000689761 0.00629203  
-0.000191209 -0.0104654  0.0280066 0.000181482 0.000696145 0.00631093  
-0.000185942  -0.010474  0.0280201 0.000201415 0.000714677 0.00630883  
-0.000167153 -0.0104666  0.0280051 0.000218809 0.000729804 0.00629446  
-0.00014351 -0.0104781  0.0279995 0.00027666 0.000800314 0.00629349  
-0.000161312 -0.0104852  0.0280161 0.000285013 0.000816083 0.00631475  
-0.000166938 -0.0104791  0.0280106 0.000304249 0.000832426 0.00632092  
-0.000158922 -0.0104661  0.0279932 0.000322526 0.000836208 0.00630153  
-0.000184749 -0.0104767  0.0280023 0.000291539 0.000815047 0.00634633  
-0.000199486   -0.01048  0.0280143 0.00029196 0.000824246 0.00636648  
-0.00020857 -0.0104706  0.0280054 0.000301329 0.000830968 0.00637293  
-0.000205969 -0.0104594  0.0279912 0.000311613 0.000828449 0.00635369  
-0.000277947 -0.0104481   0.028008 0.000270265 0.000772662 0.00643312  
-0.000287366 -0.0104491  0.0280134 0.000262892 0.000773208 0.00644402  
-0.00029884 -0.0104361  0.0279987 0.000259934 0.000769692 0.00644857  
-0.000301334  -0.010426  0.0279878 0.000261398 0.000765314 0.00643517  
-0.000213581 -0.0104335  0.0280067 0.000344118 0.000870049 0.00634046  
-0.000230869 -0.0104357  0.0280176 0.000348654 0.000887113 0.00635703  
-0.000241116 -0.0104225  0.0280015 0.000361134 0.00089667 0.00636603  
-0.000244504 -0.0104076  0.0279872 0.00037402 0.000888846 0.00634999  
-0.000121197 -0.0104534  0.0280002 0.000286506 0.000811125 0.00623107  
-0.000139564 -0.0104698  0.0280207 0.000255748 0.000788893 0.00624182  
-0.000138626 -0.0104687  0.0280161  0.0002274 0.000761469 0.00623879  
-0.000121511 -0.0104518  0.0279937 0.000206176 0.00074022 0.00622325  
-0.000139905 -0.0104773   0.027993 0.000211335 0.000738016 0.00627542  
-0.000153361 -0.0104892  0.0280124 0.00022284 0.00075064 0.00629675  
-0.000152564 -0.0104914  0.0280172 0.000245225 0.000770889 0.00629823  
-0.000136087  -0.010481  0.0279993 0.000265129 0.000783012  0.0062799  
-0.000122491 -0.0104492  0.0279929 0.000197801 0.00073315  0.0062206  
-0.000138901 -0.0104669  0.0280156 0.000219327 0.000753578 0.00623579  
-0.000139585 -0.0104687  0.0280215 0.000247688 0.000781208 0.00623836  
-0.000120296 -0.0104525  0.0280012 0.000278855 0.000805258 0.00622841  
-0.000243171 -0.0104098  0.0279827 0.000140029 0.000643796  0.0063109  
-0.000243548 -0.0104257  0.0280004 0.000148405 0.000643091 0.00632602  
-0.000236289 -0.0104394  0.0280226 0.000164825 0.000659171 0.00632204  
-0.000217454  -0.010434  0.0280115 0.000180579 0.000677889 0.00631455  
-0.000217215 -0.0104438  0.0280097 0.000191253 0.000687708 0.00632836  
-0.000234483 -0.0104487  0.0280207 0.000177126 0.00067313 0.00633791  
-0.000242365 -0.0104359  0.0280011 0.000161504 0.000658274 0.00634168  
-0.000241294 -0.0104215  0.0279843 0.000154252 0.000657207  0.0063258  
-0.000213698 -0.0104615  0.0279913 0.000294963 0.000813537 0.00636465  
-0.000216002 -0.0104721  0.0280048 0.000287218 0.000816804  0.0063838  
-0.000206705 -0.0104814  0.0280137 0.000281301 0.000813059 0.00637803  
-0.00019309 -0.0104785  0.0280025 0.000283003 0.000806336 0.00635841  
-0.000301762 -0.0104259  0.0279878 0.000260045 0.000765995 0.00643584  
-0.000299143  -0.010436  0.0279986 0.000258604 0.000770415 0.00644916  
-0.000287661  -0.010449  0.0280134 0.000261526 0.000773912 0.00644464  
-0.000278261 -0.0104481   0.028008 0.00026889 0.000773347 0.00643387  
-0.00026721 -0.0104049  0.0279871 0.000363654 0.000882431 0.00637318  
-0.000262594 -0.0104187      0.028 0.000354007 0.00089174 0.00638861  
-0.000251532 -0.0104324  0.0280163 0.000345198 0.000885695  0.0063801  
-0.000236432 -0.0104313  0.0280072 0.000343678 0.000872043 0.00636418  
-0.000145349 -0.0104626  0.0279941 0.00032332 0.000836809 0.00627847  
-0.000155744  -0.010477  0.0280129 0.000301017 0.000829195 0.00629622  
-0.000151455 -0.0104818   0.028017 0.000278129 0.000808869 0.00629036  
-0.000132688 -0.0104723  0.0279985 0.000265638 0.000789956 0.00627028  
-0.000129282 -0.0104723  0.0279974 0.000252174 0.000778632   0.006264  
-0.000147532 -0.0104829  0.0280166 0.000265757 0.000797354  0.0062839  
-0.00015091 -0.0104795  0.0280144 0.000289622 0.000818822 0.00628901  
-0.000138749 -0.0104653  0.0279953 0.000312803 0.000828737 0.00627171  
-0.000207971 -0.0104018  0.0279811 0.000110197 0.000640704 0.00625361  
-0.000210257  -0.010422  0.0280025 0.000124386 0.000641026 0.00626754  
-0.000205995 -0.0104352  0.0280271 0.000145143 0.000662626 0.00626382  
-0.00018237 -0.0104267  0.0280135 0.000167588 0.000693109 0.00625949  
-0.000210767 -0.0104724  0.0280049 0.000235856 0.000733376 0.00636461  
-0.00022385 -0.0104762  0.0280153 0.000226494 0.000729593 0.00637982  
-0.000232717 -0.0104661  0.0280033 0.000217131 0.000720997 0.00638332  
-0.000230145 -0.0104554  0.0279891 0.000215078 0.000717046 0.00636534  
-0.000140969 -0.0104391  0.0279928 0.000356367 0.000864293  0.0062487  
-0.000150321 -0.0104582  0.0280135 0.000327552 0.000854306 0.00626162  
-0.000146002 -0.0104644  0.0280204 0.000301419 0.000829945 0.00625436  
-0.000124164 -0.0104523  0.0280009 0.000282644 0.000802632 0.00623899  
-0.000120442 -0.0104533  0.0279999 0.000271649 0.000793087 0.00623498  
-0.00014188 -0.0104662    0.02802 0.000291009 0.000819871 0.00625044  
-0.000145733 -0.0104611  0.0280147 0.000317739 0.000844973 0.00625715  
-0.000134844 -0.0104422  0.0279939 0.000347261 0.000857261 0.00624452  
-0.000243399 -0.0104539  0.0279892 0.000231344 0.000733526 0.00638548  
-0.000244619 -0.0104641  0.0280023 0.000231218 0.000737001 0.00640262  
-0.000234858 -0.0104747  0.0280144 0.000237136 0.000742819 0.00639869  
-0.000222855 -0.0104718  0.0280053 0.000245061 0.000744432 0.00638402  
-0.000298454 -0.0104238  0.0279864 0.00022259 0.000706539 0.00641815  
-0.000296583 -0.0104345  0.0279984 0.000223313 0.000708529 0.00643145  
-0.000285892 -0.0104478  0.0280151 0.00022999 0.000714839 0.00642759  
-0.000275668 -0.0104458  0.0280092 0.000238967 0.000718389 0.00641889  
-0.000250669 -0.0103895  0.0279852 0.00040166 0.000911736 0.00633669  
-0.000245033 -0.0104064  0.0280003 0.000387648 0.000923304 0.00635138  
-0.00023542 -0.0104209  0.0280195 0.000374404 0.00091256 0.00634165  
-0.000216664 -0.0104184  0.0280088 0.000367118 0.00089065 0.00632702  
-0.000270411 -0.0104186  0.0280085 0.000344755 0.000879633 0.00639521  
-0.000283461 -0.0104184  0.0280155 0.000344041 0.000891025 0.00640934  
-0.000295099 -0.0104038  0.0279977 0.000349415 0.000894044  0.0064171  
-0.000301435 -0.0103911  0.0279863 0.000355877 0.000882806 0.00640305  
-0.000285074 -0.0104355  0.0280102 0.000233013 0.000705523 0.00641846  
-0.00029533 -0.0104375  0.0280157 0.000223774 0.000700786 0.00642583  
-0.000305886 -0.0104237  0.0279977 0.000216657 0.000694008 0.00642967  
-0.000308119 -0.0104127  0.0279856 0.000215585 0.000692893 0.00641712  
-0.000281427 -0.0104406  0.0279996 0.000270619 0.000769262 0.00642927  
-0.000276345 -0.0104292  0.0279994 0.000310126 0.000837933 0.00641185  
-0.000185613 -0.0104693  0.0279938 0.000295811 0.000818071 0.00633933  
-0.000201765 -0.0104768  0.0279951 0.000265666 0.000774087 0.00636374  
-0.000275353 -0.0104446  0.0280076 0.000289725 0.00080587 0.00642652  
-0.000238138 -0.0104659  0.0280054 0.000267512 0.000774253 0.00640232  
-0.000225428 -0.0104575  0.0280048 0.00030105 0.000827119 0.00637953  
-0.000193151 -0.0104815  0.0280025 0.00027799  0.0007955 0.00636002  
-0.000279148 -0.0104371  0.0279995 0.000290264 0.000803739 0.00642271  
-0.000240461 -0.0104588  0.0279973  0.0002681 0.00077146 0.00639707  
-0.000227957 -0.0104499  0.0279965 0.000303558 0.000828339 0.00637403  
-0.000194126 -0.0104746  0.0279945 0.000280498 0.000795801  0.0063533  
-0.000231699 -0.0104629  0.0280049 0.000284425 0.000801336 0.00639248  
-0.000234118 -0.0104557  0.0279969 0.000285941 0.000800503 0.00638714  
-0.000282079 -0.0104497  0.0280113 0.000266386 0.000773159  0.0064379  
-0.000277176 -0.0104379  0.0280112 0.000307138 0.00084143 0.00642189  
-0.000192007 -0.0104794  0.0280091 0.000291339 0.000819092 0.00635612  
-0.000206542  -0.010486  0.0280088 0.000261947 0.000777451 0.00637916  
-0.000285534 -0.0104451  0.0280134 0.000283953 0.000809106 0.00643895  
-0.000249099 -0.0104678  0.0280134 0.000261099 0.000775592 0.00641689  
-0.000238478 -0.0104592  0.0280141 0.000299302 0.000834828 0.00639654  
-0.000206535 -0.0104846  0.0280136 0.000275299 0.000800919 0.00637935  
-0.00027989 -0.0104459  0.0280111 0.000286649 0.000807455 0.00643207  
-0.00024318 -0.0104679  0.0280101 0.000264159 0.000775109 0.00640915  
-0.000231635 -0.0104594  0.0280102 0.000299891 0.000830534 0.00638758  
-0.000199637 -0.0104841  0.0280088 0.000276387 0.000798018  0.0063694  
-0.000243664 -0.0104647  0.0280135  0.0002803 0.000805797 0.00640843  
-0.000237301 -0.0104649  0.0280099 0.000282148 0.000803444     0.0064  
-0.000293425 -0.0104429  0.0280062 0.000261119 0.00077126  0.0064456  
-0.000289519 -0.0104305  0.0280064 0.000305707 0.00084572 0.00643199  
-0.000204724 -0.0104756    0.02801 0.000296011 0.000828346 0.00636934  
-0.000218258 -0.0104822   0.028009 0.00025839 0.000777375  0.0063906  
-0.000297233 -0.0104319  0.0279988 0.000283486 0.000807434 0.00644435  
-0.000259554 -0.0104568  0.0280016 0.000259008 0.000772828 0.00642136  
-0.000249091 -0.0104478  0.0280022 0.000305093 0.000838308 0.00640299  
-0.000215634 -0.0104755  0.0280049 0.000279229 0.000803153 0.00638472  
-0.000291711 -0.0104388  0.0280063 0.000283278 0.000808577 0.00644099  
-0.000254814 -0.0104626  0.0280076 0.000259719 0.000774094 0.00641873  
-0.000244309 -0.0104538  0.0280083 0.000301582 0.000837365 0.00639931  
-0.000211753 -0.0104803  0.0280094 0.000276763 0.000802358 0.00638177  
-0.000254194 -0.0104536  0.0280019 0.000282126 0.000806133 0.00641383  
-0.000249434 -0.0104595  0.0280079 0.000280736 0.000806299 0.00641074  
-0.000300809 -0.0104307   0.027993 0.000260425 0.000767485 0.00644255  
-0.000297864 -0.0104175  0.0279929 0.000309948 0.000841103 0.00642961  
-0.000207965 -0.0104649  0.0279984 0.000307037 0.000829815 0.00636438  
-0.000221647 -0.0104722  0.0279976 0.000259691 0.000774554  0.0063844  
-0.000300541 -0.0104214   0.027988 0.00028643 0.000801506 0.00643053  
-0.000259501 -0.0104468  0.0279895 0.00026134 0.000768722  0.0064052  
-0.000249888 -0.0104366  0.0279896 0.000312555 0.000833247 0.00638624  
-0.000213001 -0.0104651  0.0279913 0.000285832 0.000799996 0.00636556  
-0.000299559 -0.0104263  0.0279931 0.000285021 0.000804423 0.00643819  
-0.000260258 -0.0104515  0.0279954 0.000259984 0.000770752 0.00641403  
-0.000250148  -0.010442  0.0279957 0.000309288 0.000835775  0.0063956  
-0.000215025 -0.0104701  0.0279981 0.000282734 0.00080162 0.00637605  
-0.000254548 -0.0104432  0.0279897 0.000286956 0.000801547 0.00639729  
-0.000255066 -0.0104481  0.0279956 0.000284684 0.000803831 0.00640641  
-0.000295665 -0.0104282  0.0279898 0.00026469 0.000765125 0.00643015  
-0.000293368  -0.010415  0.0279901 0.000311446 0.000836943 0.00641503  
-0.000198966 -0.0104592  0.0279887 0.000308261 0.000825532 0.00634319  
-0.000213292 -0.0104677  0.0279894 0.000263496 0.000772156 0.00636571  
-0.000294716 -0.0104239    0.02799 0.000287907 0.000801161 0.00642475  
-0.000253448  -0.010448  0.0279896 0.000264006 0.000768394 0.00639844  
-0.000243317 -0.0104378  0.0279893 0.000310606 0.000831635 0.00637755  
-0.0002064 -0.0104651  0.0279892 0.000285287 0.000798327  0.0063562  
-0.000248245 -0.0104444  0.0279896 0.000287322 0.000800567  0.0063896  
-0.000341956 -0.0104235  0.0280114  0.0002687 0.000765643 0.00648488  
-0.000331431 -0.0104111  0.0280101 0.00031598 0.000851749 0.00646367  
-0.000346047 -0.0104157  0.0280026 0.000269226 0.000761774 0.00648275  
-0.000336421 -0.0104038  0.0280023 0.000315243 0.000849269 0.00646114  
-0.00033534 -0.0104162  0.0280106 0.000290729 0.000807768 0.00647616  
-0.000339818 -0.0104087  0.0280024 0.000290625 0.000804517 0.00647384  
-0.000348972 -0.0104235  0.0280136 0.000260258 0.000764704 0.00648937  
-0.000339938 -0.0104099  0.0280135 0.000310488 0.000856572 0.00647263  
-0.000344826 -0.0104246  0.0280133 0.000264108 0.000765386 0.00648651  
-0.000335059 -0.0104114  0.0280125 0.000313107 0.000853873 0.00646767  
-0.000343136 -0.0104156  0.0280134 0.000283686 0.000809624 0.00648293  
-0.00033861 -0.0104168  0.0280127 0.000286957 0.00080868   0.006479  
-0.000360212 -0.0104089  0.0279953 0.00025675 0.000760817 0.00649271  
-0.000351819 -0.0103951  0.0279953 0.000309617 0.00085457 0.00647761  
-0.000354726 -0.0104163  0.0280046 0.000258297 0.000762417 0.00649038  
-0.000346032 -0.0104027  0.0280046 0.000309553 0.000856288 0.00647458  
-0.000354693  -0.010401  0.0279954 0.000281427 0.000806638   0.006487  
-0.000349062 -0.0104085  0.0280046 0.000282206 0.000808293 0.00648436  
-0.000364736 -0.0103991  0.0279856 0.000256984 0.000756919 0.00648426  
-0.000358373 -0.0103847  0.0279861 0.000310892 0.000844781 0.00646752  
-0.000363129 -0.0104034  0.0279898 0.000256626 0.000758887 0.00648906  
-0.000355621 -0.0103893    0.02799 0.000310547 0.000849521 0.00647331  
-0.000360089  -0.010391   0.027986 0.000282152 0.000799934 0.00647772  
-0.000357991 -0.0103954    0.02799 0.000281808 0.000803227 0.00648299  
-0.000359934 -0.0104021  0.0279897 0.000261057 0.000756635 0.00648166  
-0.000353334 -0.0103885  0.0279905 0.000311555 0.000844916 0.00646301  
-0.000355131 -0.0103944  0.0279902 0.000284582  0.0007998 0.00647423  
-0.000296113 -0.0104281  0.0279898 0.000263296 0.000765805  0.0064309  
-0.000286499 -0.0104169    0.02799 0.000304533 0.000831646  0.0064099  
-0.00020702 -0.0104616  0.0279892 0.000293382 0.000811497 0.00635503  
-0.000224282 -0.0104614  0.0279894 0.000261116 0.000771035 0.00637321  
-0.000296457 -0.0104223  0.0279881 0.000281069 0.000799838 0.00642803  
-0.000267989  -0.010442  0.0279891 0.000258313   0.000768 0.00641075  
-0.000251757  -0.010439  0.0279898 0.000301323 0.000822118 0.00639154  
-0.000221619 -0.0104622   0.027991 0.000277244 0.000791955 0.00637334  
-0.000290597 -0.0104246    0.02799 0.000282498 0.00079944 0.00642214  
-0.000261994 -0.0104433  0.0279896 0.000261081 0.000767707 0.00640432  
-0.000245315 -0.0104403  0.0279896 0.000300348 0.00082081 0.00638326  
-0.000215116 -0.0104625  0.0279894 0.000277596 0.00079073 0.00636453  
-0.000259853 -0.0104409  0.0279895 0.000280814 0.000795903 0.00640175  
-0.000253632 -0.0104422  0.0279897 0.000281674 0.00079509 0.00639439  
-0.000301168 -0.0104306  0.0279929 0.00025909 0.000768187 0.00644317  
-0.000291442 -0.0104196  0.0279935 0.000302858 0.000835647 0.00642495  
-0.00021555 -0.0104666  0.0279981 0.000291456 0.000815234 0.00637518  
-0.000232211 -0.0104657  0.0279969 0.000257272 0.000773396 0.00639112  
-0.0002934 -0.0104328   0.027999 0.000278001 0.000805525 0.00644209  
-0.000267462  -0.010452   0.028001 0.000256167 0.000772169 0.00642632  
-0.000251151 -0.0104498  0.0280021 0.000295097 0.000827197 0.00640841  
-0.000223728 -0.0104724  0.0280042 0.000271855 0.000795432 0.00639203  
-0.000295608 -0.0104272  0.0279933 0.000279598 0.000802641 0.00643581  
-0.000268449 -0.0104467  0.0279948 0.000257042 0.000770061 0.00641928  
-0.000252133 -0.0104441  0.0279958 0.000298559 0.00082465 0.00640089  
-0.000223392 -0.0104671  0.0279976 0.000274643 0.000793712 0.00638355  
-0.000259304 -0.0104512  0.0280016 0.000276581 0.000800497   0.006418  
-0.00026028 -0.0104457  0.0279954 0.000278779 0.000798185  0.0064107  
-0.000293718 -0.0104428  0.0280062 0.000259771 0.000771982 0.00644618  
-0.000283493 -0.0104323  0.0280067 0.000298432 0.000839796 0.00642766  
-0.000212023 -0.0104771  0.0280095 0.000283699 0.000815437 0.00638064  
-0.000228067 -0.0104762  0.0280087 0.000256292 0.000776392  0.0063968  
-0.000281771 -0.0104458  0.0280134 0.000278312 0.000807096 0.00643671  
-0.000256789 -0.0104635  0.0280134 0.00025843 0.000775089 0.00642182  
-0.0002405  -0.010461  0.0280137   0.000291 0.000825091 0.00640239  
-0.000214268 -0.0104819  0.0280135 0.000269674 0.000794687 0.00638688  
-0.000287925 -0.0104395  0.0280064 0.000277718 0.000806604 0.00643874  
-0.00026258  -0.010458  0.0280074 0.000256973  0.0007735 0.00642364  
-0.000246347 -0.0104557  0.0280081 0.00029248 0.000826765 0.00640501  
-0.000219632 -0.0104775   0.028009 0.000270304 0.000795269 0.00638919  
-0.000248659 -0.0104625  0.0280135 0.000275612 0.000800852 0.00641276  
-0.000254467 -0.0104571  0.0280077 0.000275644 0.000800925 0.00641498  
-0.000282385 -0.0104497  0.0280114 0.000265012 0.000773852 0.00643858  
-0.000271111 -0.0104394  0.0280109 0.000299693 0.000835677 0.00641733  
-0.000199685  -0.010481  0.0280088 0.000281832 0.000809363 0.00636792  
-0.000216179 -0.0104805  0.0280093 0.000260108 0.000776762 0.00638578  
-0.000271481 -0.0104451  0.0280074 0.000284003 0.000803899 0.00642406  
-0.000246039 -0.0104617  0.0280059 0.000265017 0.000773909 0.00640806  
-0.000228002 -0.0104594  0.0280047 0.000293866 0.000818777 0.00638553  
-0.000201404 -0.0104791   0.028003 0.000273427 0.000790437 0.00636837  
-0.000276084 -0.0104465   0.028011 0.000280961 0.000805473 0.00642972  
-0.000250955 -0.0104637  0.0280104 0.000261569 0.000774694 0.00641445  
-0.000233886 -0.0104612  0.0280099 0.000292178 0.000821618 0.00639351  
-0.00020757 -0.0104816  0.0280089 0.000271338 0.000792481 0.00637731  
-0.000237036 -0.0104608  0.0280052 0.000280318 0.000797054 0.00639733  
-0.000242439 -0.0104627    0.02801 0.000277762 0.000798891 0.00640457  
-0.000281791 -0.0104406  0.0279997 0.000269221 0.000769941 0.00643006  
-0.000269928 -0.0104305  0.0279989 0.00030291 0.000832335 0.00640678  
-0.000194229 -0.0104715  0.0279945 0.00028607 0.000807529 0.00635176  
-0.000211968 -0.0104712  0.0279957 0.000263825 0.000773302 0.00637131  
-0.000275173 -0.0104376  0.0279993 0.000284633 0.00080183 0.00642013  
-0.000248618 -0.0104545  0.0279978 0.000265539 0.000770991 0.00640307  
-0.000230529 -0.0104521  0.0279967 0.000295888 0.000819074 0.00638012  
-0.000202685 -0.0104722  0.0279951 0.000275344 0.000789858 0.00636194  
-0.00023957 -0.0104536  0.0279972 0.000281593 0.000795778 0.00639214  
-0.000271936 -0.0104184  0.0279862 0.000190248 0.00066742 0.00636852  
-0.000193032 -0.0104686  0.0279875 0.000218432 0.000722858 0.00633367  
-0.000176896  -0.010448  0.0279836 0.000183238 0.00069565 0.00628203  
-0.000235936 -0.0104086  0.0279825 0.000152293 0.000647859 0.00630321  
-0.000237966 -0.0104434  0.0279875 0.000196409 0.000693745  0.0063573  
-0.000262423 -0.0104138  0.0279837 0.000161029 0.000654657 0.00634426  
-0.000192619 -0.0104614  0.0279891 0.000191446 0.000704852 0.00631831  
-0.000212158 -0.0104303  0.0279853 0.000154566 0.000667283 0.00630019  
-0.000231553 -0.0104431  0.0279868 0.000204106 0.000695682 0.00635003  
-0.000255822 -0.0104136  0.0279846 0.000171136 0.000657276 0.00633771  
-0.000185555 -0.0104593  0.0279857 0.000200883 0.000708836 0.00630901  
-0.000204671  -0.010428   0.027983 0.000166791 0.000672335 0.00629123  
-0.000225776 -0.0104379  0.0279866 0.000176216 0.000681212 0.00633083  
-0.000218878 -0.0104368  0.0279852 0.000185955 0.000684555 0.00632279  
-0.000278036 -0.0104239  0.0279915 0.000182492 0.00066601 0.00638225  
-0.000202751  -0.010475  0.0279979 0.000212216 0.000722909 0.00635322  
-0.000188522 -0.0104587  0.0279975 0.000174992 0.00069264 0.00630273  
-0.000243822 -0.0104179  0.0279914 0.000142634 0.000643381 0.00631992  
-0.000239893 -0.0104551  0.0280023 0.00019992 0.000696389 0.00637425  
-0.00026197 -0.0104278  0.0279995 0.000166767 0.00065439 0.00635892  
-0.000198418 -0.0104736   0.028006 0.000198113 0.000710529 0.00633786  
-0.000215805 -0.0104454  0.0280036 0.000164009 0.000670161 0.00631714  
-0.000239552 -0.0104491  0.0279948 0.000197159 0.000694962 0.00636675  
-0.000262712 -0.0104207  0.0279914 0.000162517 0.000654488 0.00635281  
-0.000196176 -0.0104676  0.0279977 0.000193671 0.000707439 0.00632913  
-0.000214524 -0.0104381  0.0279945 0.000157857 0.000668534 0.00631004  
-0.000228556 -0.0104511  0.0280029 0.000182465 0.000684052 0.00634791  
-0.000227751 -0.0104445  0.0279947 0.000178133 0.000682486 0.00634051  
-0.000272624 -0.0104374  0.0280085 0.000191098 0.00066948 0.00638528  
-0.000201625 -0.0104849  0.0280107 0.000220461 0.00073011 0.00636048  
-0.000189382   -0.01047  0.0280133 0.000191538 0.000703943 0.00630876  
-0.000240527 -0.0104328  0.0280114 0.000156958 0.000648633 0.00632245  
-0.000231354 -0.0104661  0.0280169 0.000211211 0.000706878 0.00637085  
-0.000253489 -0.0104415  0.0280202 0.000180258 0.000667281 0.00635497  
-0.00019212  -0.010482  0.0280177 0.00021378 0.000724848 0.00633545  
-0.000209608 -0.0104565  0.0280215 0.000182264 0.000687673 0.00631409  
-0.000236257 -0.0104609  0.0280097 0.000205594 0.000700433 0.00637183  
-0.000258277 -0.0104349  0.0280098 0.000173763 0.000658749 0.00635562  
-0.000196054 -0.0104782  0.0280119 0.00020594 0.000716595 0.00633591  
-0.000213418 -0.0104513  0.0280124 0.000173358 0.000676979 0.00631432  
-0.000221119 -0.0104621  0.0280189 0.00019704 0.00069779 0.00634469  
-0.00022551 -0.0104569  0.0280109 0.000189875 0.000689394 0.00634534  
-0.000260447 -0.0104437  0.0280153 0.000201908 0.000681841  0.0063797  
-0.000189978 -0.0104874  0.0280103 0.000231907 0.000739309 0.00635072  
-0.00017713 -0.0104717   0.028014 0.000210416 0.000723442 0.00630174  
-0.000227293 -0.0104383  0.0280187 0.000172628 0.000669846 0.00631775  
-0.000217324  -0.010462  0.0280066 0.000222016 0.00071396 0.00635798  
-0.000237605 -0.0104372  0.0280108 0.000193304 0.000680685   0.006347  
-0.000175664  -0.010476   0.028004 0.000227477 0.000734518 0.00631929  
-0.00019066   -0.01045  0.0280082 0.000198909 0.000704851 0.00630314  
-0.000224242 -0.0104654  0.0280128 0.000216721 0.000711329 0.00636406  
-0.000245626 -0.0104409  0.0280169 0.000186744 0.000675126 0.00635036  
-0.000184171 -0.0104803   0.028012 0.000220928 0.000730667 0.00632738  
-0.000200665 -0.0104548  0.0280164 0.000190682 0.000697551 0.00630844  
-0.000204865  -0.010457  0.0280072 0.000210371 0.00070931 0.00633246  
-0.000213181 -0.0104609  0.0280143 0.000203827 0.000704638 0.00633831  
-0.000256429  -0.010431  0.0279984 0.000206675 0.000677952 0.00637034  
-0.000182492 -0.0104767  0.0279937 0.000234262 0.000734028 0.00633365  
-0.000165065 -0.0104569  0.0279916 0.000213587 0.000718256  0.0062837  
-0.000218137 -0.0104223   0.027996 0.000178679 0.000666965 0.00630609  
-0.000218425 -0.0104536  0.0279959 0.000220264 0.000706713  0.0063508  
-0.000239263 -0.0104268  0.0279973 0.000191995 0.000671654 0.00633992  
-0.000174491 -0.0104677  0.0279927 0.000223599 0.00072542 0.00630976  
-0.000189886 -0.0104393  0.0279937 0.000195285 0.000693511 0.00629349  
-0.000205081 -0.0104476  0.0279949 0.000207698 0.000700193 0.00632415  
-0.000288073 -0.0104123  0.0280006 0.000191299 0.000656514 0.00638958  
-0.000218068 -0.0104332  0.0279959 0.000188854 0.00067756 0.00632025  
-0.000249894 -0.0104093  0.0280161 0.000153406 0.000645898 0.00631911  
-0.000322054  -0.010398   0.028017 0.000175774 0.00062678 0.00640329  
-0.000248521 -0.0104336  0.0280112 0.000191054 0.00067577 0.00635804  
-0.000251803 -0.0103964  0.0279991 0.000154518 0.000636181 0.00631201  
-0.000326312 -0.0103869  0.0280034  0.0001785 0.000620944 0.00639988  
-0.000250541 -0.0104233   0.027998 0.000190094 0.000667224 0.00635152  
-0.000283205  -0.010404  0.0280164 0.000164154 0.000636638 0.00635626  
-0.000286294  -0.010392  0.0280012 0.000165901 0.000628805 0.00635096  
-0.000290538 -0.0104251   0.028017 0.000185213 0.000659217 0.00639549  
-0.000226068 -0.0104478  0.0280167 0.000184259 0.000681654 0.00633266  
-0.000268393 -0.0104138  0.0280246 0.000138145 0.000622938 0.00632115  
-0.000333298 -0.0104001  0.0280204 0.000165202 0.000613661 0.00640184  
-0.000263418 -0.0104374  0.0280198 0.000178722 0.00066349 0.00636522  
-0.000259669 -0.0104133  0.0280222 0.000145254 0.000635987  0.0063195  
-0.000327411 -0.0104006  0.0280201 0.000169917 0.000621511 0.00640175  
-0.000255942  -0.010437  0.0280168 0.00018484 0.00067074 0.00636097  
-0.000298156 -0.0104074  0.0280226 0.000151396 0.000618756 0.00635678  
-0.000290812 -0.0104074  0.0280212 0.000157267 0.000629147  0.0063558  
-0.000302124 -0.0104175  0.0280074 0.00017591 0.000646817 0.00639918  
-0.000239052 -0.0104426  0.0280108 0.000169564 0.000663599  0.0063385  
-0.000275076 -0.0103975  0.0279964 0.000124802 0.000608527 0.00632577  
-0.000342222 -0.0103827  0.0279928 0.000158167 0.000605879 0.00640572  
-0.000272159 -0.0104235  0.0279988 0.000166182 0.00065148 0.00636908  
-0.000272237 -0.0104059  0.0280103 0.000131998 0.000612951  0.0063219  
-0.000338085 -0.0103915  0.0280066 0.000162045 0.000607591  0.0064027  
-0.000268308 -0.0104307  0.0280093 0.000172688 0.000655404 0.00636586  
-0.000305924 -0.0103906  0.0279946 0.000141102 0.000607628  0.0063611  
-0.000302462 -0.0103992  0.0280085 0.000146695 0.000610696 0.00635759  
-0.000308589 -0.0104032   0.027989 0.000168711 0.000645706 0.00639762  
-0.000242377 -0.0104287  0.0279926 0.000156432 0.000657649 0.00633503  
-0.000278086 -0.0103806   0.027979 0.000118514 0.000616128 0.00631371  
-0.000347582 -0.0103697  0.0279795 0.000157226 0.000613876 0.00639754  
-0.000273082 -0.0104099  0.0279836 0.000161267 0.000652069 0.00635508  
-0.000276676  -0.010389  0.0279871 0.000120098 0.000612414 0.00632144  
-0.000345121 -0.0103758  0.0279851 0.000156487 0.000610128  0.0064028  
-0.000273138 -0.0104166  0.0279909 0.000162368 0.000651759 0.00636324  
-0.000310073 -0.0103755  0.0279792 0.000137335 0.000615397 0.00635088  
-0.00030815 -0.0103829  0.0279861 0.000137832 0.000611683 0.00635743  
-0.000304233 -0.0103984   0.027986 0.000176884 0.000647739 0.00638667  
-0.000234242 -0.0104206   0.027984 0.000165103 0.000660672 0.00631822  
-0.000271819 -0.0103801  0.0279813 0.000131522 0.000619305 0.00630726  
-0.000343182 -0.0103714  0.0279848 0.00016614 0.000614044 0.00639471  
-0.000266782   -0.01041  0.0279849 0.000170841 0.000654248 0.00634911  
-0.000304749  -0.010376   0.027983 0.000148193 0.000617007 0.00634619  
-0.000152369 -0.0104344  0.0279901 0.000330307 0.000851615 0.00626675  
-0.00021657 -0.0104236   0.027996 0.000347486 0.000875601 0.00633414  
-0.000183777   -0.01044  0.0280056 0.000335204 0.00085686 0.00630771  
-0.000167081 -0.0104173  0.0280097 0.000373508 0.000876662 0.00626483  
-0.000244297 -0.0104001  0.0280105 0.000386318 0.000910012 0.00634368  
-0.000184932 -0.0104289  0.0279931 0.000340799 0.000865187 0.00629985  
-0.000167614  -0.010402  0.0279925 0.000377323 0.000887491 0.00625557  
-0.000249212 -0.0103891  0.0279989 0.000386161 0.000914694  0.0063378  
-0.000205945 -0.0104086  0.0280101 0.000378787 0.000894385 0.00630185  
-0.000208776 -0.0103954  0.0279958 0.000380691 0.000902281  0.0062943  
-0.000164724 -0.0104517  0.0280138 0.00032852 0.000851836 0.00628434  
-0.000222247 -0.0104359  0.0280132 0.000346209 0.000877539 0.00634817  
-0.00020316 -0.0104447   0.028019 0.000343941 0.000877723 0.00632433  
-0.00019022 -0.0104249  0.0280237 0.00039007 0.000911009  0.0062757  
-0.000261817 -0.0104014  0.0280195 0.000392623 0.000932274 0.00635686  
-0.000193835 -0.0104437  0.0280136 0.000339354 0.000866176 0.00631563  
-0.000179796 -0.0104229  0.0280187 0.000382336 0.000892568 0.00626986  
-0.000253191  -0.010402  0.0280163 0.000389828 0.000919721 0.00634971  
-0.000226268 -0.0104131  0.0280217 0.00039032 0.000922509 0.00631376  
-0.000216734 -0.0104124  0.0280176 0.000384995 0.00090705 0.00630731  
-0.000178929 -0.0104491  0.0280137 0.000345017 0.000876618  0.0062958  
-0.000236531 -0.0104294  0.0280097 0.000354037 0.000893907 0.00636055  
-0.00021185  -0.010433  0.0280045 0.000360847 0.000891739 0.00633336  
-0.000196337 -0.0104117  0.0280042 0.000409481 0.000929388 0.00628595  
-0.000271476 -0.0103857  0.0279976 0.00040274 0.000940718 0.00636637  
-0.000208114 -0.0104392  0.0280117 0.000351557 0.000886741  0.0063276  
-0.000193805 -0.0104187  0.0280137 0.000398798 0.000922709 0.00627899  
-0.000267097 -0.0103938  0.0280087 0.000396717 0.000939027  0.0063606  
-0.000234126 -0.0103987  0.0280008 0.000405218 0.000935919 0.00632365  
-0.000230692 -0.0104063  0.0280112 0.000396794 0.000931784 0.00631727  
-0.000181028 -0.0104352  0.0279988 0.000368563 0.000884247 0.00629598  
-0.000243219  -0.010415  0.0279941 0.000368599 0.000892733 0.00635952  
-0.000212401 -0.0104165  0.0279881 0.000378403 0.000887617 0.00631756  
-0.000199328 -0.0103897  0.0279845 0.000431492 0.000920207 0.00627418  
-0.000279842 -0.0103692  0.0279835 0.000413008 0.000923827 0.00635264  
-0.000212602  -0.010425  0.0279963 0.000370641 0.000889733 0.00632716  
-0.000197693 -0.0104014  0.0279942 0.000421386 0.00092495  0.0062824  
-0.000275518 -0.0103772  0.0279897 0.000408991 0.00093214 0.00636133  
-0.000239931 -0.0103794  0.0279838 0.000421449 0.000922636  0.0063108  
-0.000236871 -0.0103893  0.0279918 0.000414358 0.000929275 0.00631931  
-0.000170412 -0.0104218  0.0279836 0.000367447 0.000877078  0.0062718  
-0.000237291 -0.0104082  0.0279871 0.000366817 0.000886066 0.00633895  
-0.000204485 -0.0104149  0.0279853 0.000369026 0.000882844 0.00630477  
-0.000191616 -0.0103853  0.0279809 0.000416761 0.000913604 0.00625945  
-0.000273927 -0.0103707  0.0279863 0.000403807 0.000922099 0.00634194  
-0.000233201 -0.0103778  0.0279836 0.000409421 0.000918679 0.00629816  
-0.000366562 -0.0103977  0.0279855 0.000258213 0.000755988 0.00648594  
-0.000349105 -0.0103867  0.0279863 0.000305951 0.000841405 0.00646576  
-0.000361795 -0.0104007  0.0279897 0.000262299 0.000755695 0.00648343  
-0.000343978 -0.0103905  0.0279905 0.000306669 0.000841492 0.00646118  
-0.000356552 -0.0103919  0.0279861 0.00028423 0.000798791 0.00647721  
-0.00035157 -0.0103953  0.0279902 0.000286659 0.000798638 0.00647371  
-0.000361944 -0.0104074  0.0279951 0.000258034 0.000759903  0.0064942  
-0.000342799 -0.0103971  0.0279956 0.000304572 0.000850837 0.00647616  
-0.000364905  -0.010402  0.0279897 0.000257885 0.000757965 0.00649064  
-0.000346494 -0.0103914  0.0279902 0.000305542 0.000845973  0.0064717  
-0.000351207 -0.0104018  0.0279954 0.000283499 0.00080543 0.00648656  
-0.000354483 -0.0103963  0.0279901 0.000283883 0.000802052 0.00648252  
-0.000350709 -0.0104221  0.0280136 0.000261557 0.000763793 0.00649091  
-0.000330863 -0.0104118  0.0280135 0.000305376 0.000852801 0.00647118  
-0.000356452 -0.0104149  0.0280045 0.00025959 0.000761502 0.00649189  
-0.000336998 -0.0104047  0.0280048 0.000304477 0.000852497 0.00647312  
-0.000339641 -0.0104164  0.0280134 0.000285747 0.000808384 0.00648249  
-0.000345573 -0.0104093  0.0280046 0.000284271 0.000807063 0.00648393  
-0.00034378 -0.0104222  0.0280115 0.000270068 0.000764762 0.00648667  
-0.000322228 -0.0104128  0.0280098 0.000310938 0.000848146 0.00646196  
-0.000346606 -0.0104232  0.0280134 0.000265433 0.000764488 0.00648817  
-0.000325919 -0.0104132  0.0280124 0.000308018 0.000850206 0.00646607  
-0.000331797  -0.010417  0.0280106 0.000292817 0.000806525 0.00647568  
-0.000335094 -0.0104177  0.0280127 0.000289029 0.00080744 0.00647853  
-0.000347905 -0.0104144  0.0280027 0.00027058 0.000760854  0.0064846  
-0.000327147 -0.0104055  0.0280021 0.000310313 0.000845691 0.00645933  
-0.000336258 -0.0104095  0.0280024 0.000292719 0.000803283 0.00647334  
-0.000156243 -0.0104196  0.0279782 0.000153397 0.000686017 0.00622343  
-0.000114032 -0.0104381  0.0279796 0.00021423 0.000746802 0.00620774  
-0.000104224 -0.0104314  0.0279951 0.000200461 0.000736856  0.0061807  
-0.000150547 -0.0104074  0.0279838 0.000108681 0.000668722 0.00619527  
-0.000140826 -0.0104384  0.0279892 0.000165877 0.000704425  0.0062268  
-9.43296e-05 -0.0104141  0.0279762 0.000217397 0.000751928 0.00616737  
-0.00014037  -0.010396  0.0279732 0.000129363 0.00068063 0.00618299  
-0.000131855 -0.0104293  0.0279787 0.000182824 0.000716445 0.00621444  
-0.000123681  -0.010421  0.0279894 0.000156128 0.000703007 0.00618889  
-0.000113438 -0.0104067  0.0279744 0.000175061 0.000716676 0.00617586  
-0.000170361 -0.0104373  0.0279975 0.000143866 0.000680022 0.00624445  
-0.000131812 -0.0104596  0.0280056 0.000207706 0.000742828 0.00622944  
-0.000121265 -0.0104545  0.0280183 0.000228692 0.000765048 0.00618714  
-0.000157862 -0.0104329  0.0280087 0.000131754 0.000677656  0.0062043  
-0.000153278 -0.0104572   0.028012 0.000185784 0.000719198 0.00624208  
-0.000114129 -0.0104452  0.0280085 0.000214671 0.000751008 0.00618507  
-0.000154715 -0.0104218  0.0279969 0.00011937 0.000673204 0.00620187  
-0.000147982 -0.0104491  0.0280016 0.000174695 0.000711416 0.00623596  
-0.000136095 -0.0104452  0.0280137 0.000181816 0.00072193 0.00619716  
-0.00013085  -0.010435  0.0280028 0.00016859 0.000712512 0.00619468  
-0.000173124 -0.0104511  0.0280163 0.00016714 0.000695075 0.00624727  
-0.000139941 -0.0104682  0.0280179 0.00023335 0.000766818 0.00623482  
-0.000122519 -0.0104557  0.0280236 0.000256706 0.000794032 0.00619019  
-0.000157187 -0.0104427  0.0280296 0.000156808 0.000704316 0.00620237  
-0.000152353 -0.0104626  0.0280238 0.000212704 0.000745919 0.00624254  
-0.000122215 -0.0104554  0.0280198 0.000242579 0.000779176 0.00618561  
-0.000157879 -0.0104381  0.0280181 0.000144693 0.000688934 0.00620048  
-0.000153508 -0.0104603  0.0280173 0.000199282 0.000731192 0.00624009  
-0.000136473 -0.0104506  0.0280268 0.000208495 0.000750083 0.00619779  
-0.000136622 -0.0104482  0.0280191  0.0001953 0.000734793 0.00619453  
-0.000160791 -0.0104514  0.0280192 0.000192638 0.00072552 0.00624506  
-0.000131425 -0.0104623  0.0280132 0.00026331 0.00079387 0.00623451  
-0.000104371 -0.0104333  0.0280029 0.000294484 0.000825141 0.00619017  
-0.000132199 -0.0104273  0.0280136 0.000189941 0.000746653 0.00620447  
-0.000130598 -0.0104487  0.0280049 0.00024185 0.000773095 0.00623376  
-0.000115146 -0.0104469  0.0280155 0.00027461 0.000809548 0.00619124  
-0.000146882 -0.0104375  0.0280244 0.000172081 0.00072588 0.00620344  
-0.000142979 -0.0104575  0.0280164 0.000227167 0.00076036 0.00623884  
-0.000114564 -0.0104317  0.0280083 0.000244104 0.000787448 0.00619856  
-0.000127521 -0.0104436  0.0280201 0.000225147 0.000768899 0.00619872  
-0.000142593 -0.0104297  0.0279887 0.000199947 0.000723293  0.0062275  
-0.000111875 -0.0104399  0.0279836 0.000268341 0.000789941  0.0062123  
-9.3853e-05 -0.0104151    0.02798 0.000283537 0.00080918 0.00617321  
-0.000124937 -0.0104079  0.0279874 0.000186065 0.000730529 0.00619009  
-0.000123801 -0.0104353   0.027986 0.000233471 0.000757317 0.00621883  
-0.000105413 -0.0104131  0.0279835  0.0002367 0.000771158 0.00618259  
-0.000139251 -0.0105007   0.027989 0.000247237 0.000763122 0.00630902  
-0.000149414 -0.0104868  0.0279873 0.000228703 0.000743678 0.00630093  
-0.000162665 -0.0104934  0.0279892 0.000255982 0.000769209  0.0063306  
-0.000149938 -0.0104974  0.0279941 0.000231886 0.000750815 0.00631491  
-0.000156548 -0.0105002  0.0279942 0.000247087 0.000764042 0.00632944  
-0.000177951  -0.010479  0.0279913 0.00021509 0.000728959 0.00632704  
-0.000183966 -0.0104837   0.027992 0.000234171 0.000747267 0.00634247  
-0.00014462 -0.0104939  0.0279882 0.000238352 0.000753874 0.00630497  
-0.000151214 -0.0104976  0.0279891 0.000250571 0.000764616 0.00631962  
-0.000171577 -0.0104769  0.0279873 0.000222519 0.000732008 0.00631768  
-0.000177794 -0.0104823  0.0279885 0.000238634 0.000748204 0.00633325  
-0.000167753 -0.0104902  0.0279929 0.000232854 0.000747905  0.0063287  
-0.000161946 -0.0104878  0.0279883 0.000238248 0.000749749 0.00631912  
-0.000150226 -0.0105087  0.0280035   0.000242 0.000763854 0.00633124  
-0.000161007 -0.0104953  0.0280017 0.000222334 0.000743088 0.00632305  
-0.000172913 -0.0104995   0.028001 0.000252174 0.000771547 0.00635228  
-0.000160762 -0.0105062  0.0280105 0.000234698 0.00075761 0.00633807  
-0.000165974 -0.0105085  0.0280096 0.000245804 0.000768808  0.0063525  
-0.000185268 -0.0104893  0.0280075 0.000219107 0.000735152 0.00634824  
-0.000190216 -0.0104933   0.028007 0.000234121 0.000751601  0.0063636  
-0.000155864 -0.0105022  0.0280027 0.00023256 0.000753888 0.00632711  
-0.0001618 -0.0105046  0.0280022 0.000246086 0.000766305 0.00634158  
-0.000182248 -0.0104842  0.0279996 0.000216211 0.000731775 0.00633847  
-0.000187739 -0.0104885  0.0279996 0.000233635 0.000749315  0.0063538  
-0.000176117 -0.0104994  0.0280086 0.000234108 0.00075337 0.00635079  
-0.000172524  -0.010495   0.028001 0.00023287 0.000750434 0.00634045  
-0.000156217 -0.0105129  0.0280121 0.000247115 0.000770916 0.00634276  
-0.000164839 -0.0105021  0.0280125 0.00023249 0.000753044   0.006333  
-0.000174171 -0.0105067  0.0280109 0.000250872 0.000773978 0.00636132  
-0.000159005 -0.0105084  0.0280138 0.000246224 0.000767648 0.00633818  
-0.000162884 -0.0105115  0.0280129 0.000250695 0.000773221 0.00635141  
-0.00017985 -0.0104955  0.0280154 0.000231975 0.000746684 0.00634655  
-0.000183945 -0.0104998  0.0280141 0.000240539 0.000757647 0.00636096  
-0.000160828 -0.0105076  0.0280123 0.000240172 0.000762353 0.00633786  
-0.00016534 -0.0105103  0.0280115 0.000247895 0.000770911 0.00635185  
-0.000183409 -0.0104927  0.0280116 0.000225377 0.000740301 0.00634697  
-0.00018789 -0.0104968  0.0280107 0.00023708 0.000754254 0.00636205  
-0.000171884  -0.010504   0.028014 0.000242846 0.000761214 0.00634939  
-0.000174875  -0.010502  0.0280115 0.000238209 0.000756957 0.00634984  
-0.0001491 -0.0105099  0.0280055 0.000256825 0.000775945 0.00633231  
-0.00015538 -0.0105009  0.0280081 0.000246543 0.000763247 0.00632312  
-0.00016407 -0.0105072  0.0280069 0.000254285 0.000773843 0.00634908  
-0.000145478 -0.0105011  0.0279983 0.000257031 0.000771076 0.00631632  
-0.000150039 -0.0105054  0.0279984 0.000257665 0.000772649 0.00632892  
-0.000165146 -0.0104896  0.0280015 0.000243419 0.00075186 0.00632748  
-0.000170354 -0.0104949  0.0280011 0.000248338 0.000758905 0.00634101  
-0.000152633 -0.0105054  0.0280067 0.000252026 0.000769932 0.00632768  
-0.000156675 -0.0105091  0.0280062 0.000254307 0.00077322 0.00634044  
-0.000172672 -0.0104936  0.0280093 0.000238064 0.00075005 0.00633714  
-0.000177165 -0.0104983  0.0280083 0.000244555 0.000758721 0.00635098  
-0.000158269  -0.010498  0.0279998 0.000252045 0.000763431 0.00632854  
-0.000165264 -0.0105018  0.0280076 0.000247686 0.00076283 0.00633917  
-0.000138264 -0.0105014    0.02799 0.000258977 0.000771583 0.00630985  
-0.000144409 -0.0104905  0.0279904 0.000248207 0.000757867 0.00630168  
-0.000155894 -0.0104985  0.0279921 0.000257698 0.000770668 0.00632932  
-0.000141759  -0.010496  0.0279902 0.000253904 0.000765147 0.00630574  
-0.000147235 -0.0105006   0.027991 0.000257088 0.00076936 0.00631935  
-0.000163498  -0.010483  0.0279921 0.000240109 0.000744656 0.00631801  
-0.000169392 -0.0104887  0.0279928 0.000247434 0.000754577 0.00633254  
-0.000156045 -0.0104922  0.0279916 0.000250145 0.000758332 0.00631908  
-0.000260598 -0.0104065  0.0279883 0.000358514 0.000880846 0.00636365  
-0.000280669 -0.0104105  0.0279878 0.000336899 0.000857251 0.00639639  
-0.00032543   -0.01037  0.0279849 0.000373949 0.000905014 0.00640898  
-0.000274328 -0.0104126  0.0279893 0.000334214 0.000856182 0.00638823  
-0.00032008 -0.0103734  0.0279891 0.000369427 0.000904856 0.00640126  
-0.000337705 -0.0103759  0.0279858 0.000337151 0.000871581 0.00643898  
-0.000332437 -0.0103796    0.02799 0.000335443 0.000871565 0.00643292  
-0.000265315 -0.0104116  0.0279932 0.000359715 0.000887004  0.0063822  
-0.000276605 -0.0104228  0.0279996 0.000329812 0.000865312 0.00641157  
-0.000316934 -0.0103831  0.0279958 0.000369083 0.000920239 0.00642157  
-0.000279169 -0.0104164  0.0279934 0.000333973 0.000861209 0.00640504  
-0.000321352 -0.0103761  0.0279894 0.00037236 0.000912383 0.00641655  
-0.000330483 -0.0103875  0.0279957 0.000334089 0.000883583 0.00645054  
-0.00033447 -0.0103812    0.02799 0.000336167 0.000877389 0.00644574  
-0.000257529 -0.0104259  0.0280083 0.000348785 0.000890497 0.00638349  
-0.000265151 -0.0104362  0.0280148 0.000324333 0.000862192 0.00640416  
-0.000305591 -0.0103987  0.0280162 0.000364659 0.000917574   0.006414  
-0.000271293 -0.0104298  0.0280074 0.000326373 0.000865009 0.00640715  
-0.000311571 -0.0103912  0.0280063 0.000366084 0.000920786 0.00641712  
-0.000318834 -0.0104026  0.0280146 0.000332448 0.000883388  0.0064443  
-0.000324896 -0.0103953  0.0280054 0.000332628 0.000884723 0.00644684  
-0.00024377  -0.010433  0.0280127 0.000344294 0.000877988 0.00637148  
-0.000252051 -0.0104356   0.028007 0.000325713 0.000852647 0.00638885  
-0.000292797 -0.0103993  0.0280099 0.000364361 0.000904096 0.00640153  
-0.000258231  -0.010437  0.0280116 0.000324848 0.000856851 0.00639585  
-0.000298821    -0.0104   0.028014 0.000364671 0.000909848 0.00640727  
-0.000308192 -0.0104035  0.0280097 0.000335347 0.00087469 0.00643326  
-0.000313008  -0.010404   0.028013 0.000333899 0.000878443 0.00643829  
-0.000240346  -0.010422  0.0279976 0.000345696 0.000875298 0.00635901  
-0.000255955 -0.0104272  0.0279983 0.000327183 0.000853845 0.00638428  
-0.00029848 -0.0103907  0.0280011 0.000363301 0.000904941 0.00639751  
-0.000313418 -0.0103957  0.0280016 0.000334528 0.000873781 0.00643001  
-0.000136134 -0.0104906  0.0279888 0.000258368 0.000778592 0.00629611  
-0.000148276 -0.0105021  0.0279914 0.000258026 0.000771569 0.00632262  
-0.000151476 -0.0104923  0.0279911 0.000268614 0.000786461 0.00631733  
-0.000142892 -0.0105005  0.0279959 0.000245787 0.000766932 0.00631221  
-0.000146904  -0.010497  0.0279978 0.000256784 0.000778712 0.00631549  
-0.000146663  -0.010506  0.0279968 0.000250712 0.000768753  0.0063248  
-0.000152321 -0.0105037  0.0279986 0.000259639 0.000777679 0.00632955  
-0.000138712 -0.0104958  0.0279889 0.000252101 0.000770482 0.00630248  
-0.0001442 -0.0104911    0.02799 0.000263093 0.000782731 0.00630634  
-0.000143178 -0.0105017  0.0279902 0.000253986 0.000769266 0.00631537  
-0.000150282 -0.0104983  0.0279913 0.000262689 0.000778192 0.00632075  
-0.000148081 -0.0105017  0.0279973  0.0002533 0.000773672 0.00632102  
-0.000145005 -0.0104966  0.0279901 0.000257923 0.000775724 0.00631179  
-0.000147511 -0.0105008  0.0280058 0.000252418 0.000777967  0.0063178  
-0.00015717 -0.0105106  0.0280062 0.000254443 0.000774407 0.00634325  
-0.000160473 -0.0105018  0.0280067 0.000263492 0.000787097 0.00633736  
-0.000155879 -0.0105081  0.0280121 0.000248629 0.000775198 0.00633566  
-0.000161265 -0.0105034  0.0280133 0.000259607 0.000787581  0.0063384  
-0.000158997 -0.0105127  0.0280119 0.000249065 0.000773259 0.00634815  
-0.000165787 -0.0105091  0.0280129 0.000257691 0.000782677 0.00635238  
-0.000149802 -0.0105049  0.0280046 0.000246548 0.000770651 0.00632436  
-0.000154338  -0.010501  0.0280063 0.000257557 0.000782654 0.00632716  
-0.000153121 -0.0105099  0.0280049 0.000249553 0.000770892 0.00633681  
-0.000159179 -0.0105071  0.0280064 0.000258371 0.000780038 0.00634109  
-0.000161238 -0.0105082  0.0280125 0.000253701 0.000780235 0.00634412  
-0.000154927 -0.0105056  0.0280055 0.000253029 0.000776669 0.00633284  
-0.000156794 -0.0105028  0.0280128 0.000262697 0.000790268 0.00633038  
-0.00016649 -0.0105111  0.0280112 0.000251977 0.000775437 0.00635557  
-0.000170976 -0.0105015  0.0280115 0.000268675 0.000795282 0.00635045  
-0.000156934 -0.0105073  0.0280124 0.000260519 0.000785301 0.00633763  
-0.000165387 -0.0104996  0.0280107 0.000271911 0.000797655 0.00634213  
-0.000160746 -0.0105111  0.0280109 0.000253573 0.000776909 0.00634957  
-0.000170442 -0.0105047  0.0280092 0.000262068 0.000785873 0.00635545  
-0.000157356  -0.010508  0.0280124 0.000254177 0.000780266 0.00633637  
-0.00016423 -0.0105019  0.0280121 0.000265291 0.000792818 0.00633995  
-0.000160803 -0.0105122  0.0280117 0.000250945 0.000775029 0.00634877  
-0.000168998 -0.0105072  0.0280113 0.000259448 0.000784366  0.0063538  
-0.000164082 -0.0105056  0.0280108 0.000261765 0.000786809 0.00634661  
-0.000163574 -0.0105072  0.0280118 0.000257315 0.00078359 0.00634517  
-0.00015241 -0.0104968  0.0280043 0.000278309 0.000798824 0.00632252  
-0.000163911 -0.0105047   0.028002 0.000254282 0.000773783 0.00634595  
-0.000169555 -0.0104939  0.0280019 0.00027944 0.000799114 0.00634274  
-0.000145221 -0.0104987  0.0279964 0.000272014 0.000787694 0.00631546  
-0.000156028 -0.0104899  0.0279947 0.000283963 0.000799643 0.00632049  
-0.000150231 -0.0105032  0.0279956 0.000260348 0.000776151 0.00632668  
-0.000162243 -0.0104958  0.0279941 0.000268946 0.000784328 0.00633309  
-0.000151599 -0.0105035  0.0280049 0.000266739 0.000786965 0.00632722  
-0.000161364 -0.0104951  0.0280031 0.000278466 0.00079903 0.00633218  
-0.000155976 -0.0105075  0.0280037 0.000257082 0.000776743  0.0063387  
-0.000166952 -0.0105004  0.0280019 0.000265658 0.000785244 0.00634502  
-0.000154205 -0.0104969  0.0279952 0.000270885 0.000787164 0.00632436  
-0.000159702 -0.0105016  0.0280034 0.00026664 0.00078728 0.00633619  
-0.000140188 -0.0104876  0.0279883 0.000279471 0.000793654 0.00629872  
-0.00015344 -0.0104982  0.0279893 0.000257867 0.000771245 0.00632378  
-0.000158735 -0.0104869  0.0279888 0.000281298 0.000795022 0.00631999  
-0.000140159 -0.0104947  0.0279892 0.000268377 0.000782108  0.0063042  
-0.000149857 -0.0104869  0.0279885 0.000279981 0.000794496 0.00630896  
-0.000145341    -0.0105  0.0279896 0.000259915 0.000773397 0.00631636  
-0.000156371 -0.0104937  0.0279891 0.00026842 0.000781941 0.00632261  
-0.000148774 -0.0104938  0.0279892 0.00026881 0.000783283 0.00631355  
-0.00013937 -0.0105016  0.0279897 0.000261702 0.000775211  0.0063116  
-0.000155608 -0.0105004  0.0279948 0.000260208 0.000776101  0.0063304  
-0.000147399 -0.0105066  0.0279975 0.000258667 0.000774418  0.0063268  
-0.000150302 -0.0104978  0.0279894 0.000260289 0.000773898 0.00632016  
-0.000143981 -0.0105022  0.0279905 0.000258529  0.0007717 0.00631701  
-0.000151189 -0.0105041  0.0279958 0.000253634 0.000770907 0.00632667  
-0.00014681 -0.0105005  0.0279898 0.000255308 0.000769969 0.00631683  
-0.000150302 -0.0105095  0.0280046 0.000259378 0.000779233  0.0063343  
-0.000165069 -0.0105087  0.0280101 0.000254154 0.000777513 0.00635313  
-0.000159712 -0.0105132  0.0280123 0.000252341 0.000775643 0.00634976  
-0.000160879 -0.0105048  0.0280028 0.000257245 0.000776958  0.0063424  
-0.000153844 -0.0105105  0.0280054 0.000255587 0.000775247 0.00633864  
-0.000162071 -0.0105115   0.028011 0.000249854 0.000773902 0.00634976  
-0.000157043 -0.0105082  0.0280039 0.000251608 0.000772435  0.0063387  
-0.000156188 -0.0105135  0.0280119 0.000250765 0.000775495 0.00634453  
-0.000161997 -0.0105116  0.0280124 0.00025091 0.000775073 0.00635115  
-0.000161489 -0.0105114  0.0280104 0.000248622 0.000772321  0.0063503  
-0.000164445 -0.0105105  0.0280114 0.00025215 0.000776257 0.00635205  
-0.00016153 -0.0105126  0.0280116 0.000250108 0.000773925 0.00634995  
-0.000161418 -0.0105122  0.0280117  0.0002505 0.00077451 0.00634949  
-0.000162667 -0.0105122  0.0280116 0.000249806 0.000774145 0.00634954  
-0.000149086 -0.0105104  0.0280043 0.000246925 0.000769243 0.00633255  
-0.000149228 -0.0105055  0.0279977 0.000253355 0.000771044 0.00632812  
-0.00015114 -0.0105036   0.027995 0.000250644 0.000767912 0.00632694  
-0.000155819 -0.0105092  0.0280056 0.000251862 0.000772993 0.00633987  
-0.00015679 -0.0105078  0.0280031 0.000249344 0.000770028 0.00633916  
-0.000149806 -0.0105052  0.0279967 0.000255045 0.000772079 0.00632646  
-0.000155956 -0.0105092  0.0280046 0.000252699 0.000773381 0.00633838  
-0.000138487 -0.0105022  0.0279895 0.000251868 0.000768194 0.00631055  
-0.000146416 -0.0105007  0.0279908 0.000256081 0.000771052 0.00631896  
-0.000146268 -0.0105005  0.0279894 0.000253589 0.000768109 0.00631708  
-0.000145964 -0.0105012  0.0279902 0.00025618 0.000770612 0.00631673  
-0.000170321 -0.0104825   0.027989 0.000282198 0.000795847  0.0063301  
-0.000146907 -0.0104864  0.0279884 0.000283114 0.000797883 0.00630629  
-0.000173062 -0.0104903  0.0279933 0.000267682 0.000782733 0.00634094  
-0.000164243 -0.0104869   0.027994 0.000285436 0.000801062 0.00632805  
-0.00014973 -0.0104974  0.0279955 0.00027479 0.000790913 0.00632016  
-0.000166979 -0.0104888  0.0279891 0.000267856 0.000780955 0.00633082  
-0.000157898 -0.0104846  0.0279887 0.000282169 0.000796758 0.00631684  
-0.000144279  -0.010494  0.0279891 0.00027174 0.000786176   0.006309  
-0.000161068 -0.0104939  0.0279945 0.000271324 0.000787777 0.00633005  
-0.000155337 -0.0104914  0.0279891 0.000269872 0.000784597 0.00631944  
-0.000180527 -0.0104888  0.0280008 0.000280033 0.000799617 0.00635218  
-0.000158674 -0.0104947  0.0280032 0.000281842 0.000802701 0.00632988  
-0.000179965 -0.0104995  0.0280081 0.000261768 0.000785026 0.00636278  
-0.000172285 -0.0104968  0.0280096 0.000274532 0.00080031 0.00634954  
-0.000160211 -0.0105062  0.0280113 0.000264269 0.000789718 0.00634248  
-0.000177156 -0.0104949   0.028001 0.000264799 0.000783964 0.00635263  
-0.000168931 -0.0104921  0.0280021 0.000280452 0.000800981 0.00633968  
-0.000155527 -0.0105021  0.0280039 0.000269958 0.000790687 0.00633205  
-0.000169774 -0.0105029  0.0280098 0.000263141 0.000788348 0.00635214  
-0.000166015 -0.0104986  0.0280025 0.000267487 0.000788281 0.00634184  
-0.000180618 -0.0104971  0.0280109 0.000271128 0.000797531 0.00635954  
-0.00016165 -0.0105016  0.0280123 0.000267712 0.000795942 0.00633754  
-0.000174123 -0.0105051  0.0280131 0.000258983 0.000783292 0.00635931  
-0.000167074 -0.0105017  0.0280135 0.000264041 0.000791943  0.0063454  
-0.000157816 -0.0105083  0.0280125 0.000253985 0.000781168 0.00633993  
-0.000177884 -0.0105026  0.0280108 0.000259946 0.000784244 0.00636093  
-0.000170553 -0.0104996  0.0280117 0.000268796 0.000796384  0.0063472  
-0.000159948 -0.0105076  0.0280121 0.000258696 0.000785548 0.00634098  
-0.000165717 -0.0105067  0.0280128 0.000256625 0.000783241 0.00634918  
-0.000168634 -0.0105051  0.0280115 0.000259451 0.000785899 0.00635049  
-0.000169612 -0.0104984  0.0280072 0.000267877 0.000790823 0.00634647  
-0.00015156 -0.0105008  0.0280064 0.000259111 0.000784779  0.0063246  
-0.000160671 -0.0105002  0.0279996 0.000261957 0.000779018 0.00633723  
-0.000152698  -0.010496  0.0279987 0.000262477 0.000783749 0.00632284  
-0.000144394 -0.0105015  0.0279969 0.000252275 0.000773391 0.00631652  
-0.000167426 -0.0105035   0.028007 0.000260243 0.000781083 0.00634829  
-0.000160046 -0.0104997  0.0280068 0.000262713 0.000787405 0.00633422  
-0.000151429 -0.0105056  0.0280053 0.000252562 0.000776898 0.00632854  
-0.000152335 -0.0105008  0.0279982 0.000257257 0.00077727 0.00632642  
-0.000159203 -0.0105045  0.0280061 0.000256548 0.000780022 0.00633797  
-0.000161633  -0.010489  0.0279921 0.000272653 0.000789612 0.00632737  
-0.000141031 -0.0104907  0.0279898 0.00026471 0.000784989 0.00630354  
-0.000159384 -0.0104945  0.0279921 0.000264352 0.000778836 0.00632887  
-0.000150737 -0.0104899  0.0279908 0.00026793 0.000787031 0.00631411  
-0.000140962 -0.0104964  0.0279896 0.000257792 0.000776366 0.00630708  
-0.000149961 -0.0104954  0.0279909 0.00026118 0.000778702 0.00631753  
-0.000160119 -0.0104881  0.0279919 0.000242631 0.000750371  0.0063181  
-0.00014138 -0.0104941    0.02799 0.000255192 0.00076578 0.00630312  
-0.000156778 -0.0105016  0.0279996 0.000252419 0.000765718 0.00633097  
-0.000153848 -0.0104964  0.0279997 0.000252138 0.00076386 0.00632155  
-0.000145072 -0.0105022  0.0279973 0.000261406 0.000776272 0.00631791  
-0.000154758 -0.0104961  0.0279917 0.000251623 0.000761863 0.00632181  
-0.000151153 -0.0104906  0.0279911 0.000248756 0.000757225 0.00631147  
-0.000140801 -0.0104978  0.0279898 0.000258698 0.000771094 0.00630722  
-0.000151272 -0.0105017  0.0279985 0.000256594 0.000769845 0.00632457  
-0.000148204 -0.0104967  0.0279908 0.000254958 0.000765365  0.0063147  
-0.000169195 -0.0104982  0.0280086 0.000240769 0.00075569 0.00633774  
-0.000152498 -0.0105038   0.028007 0.000253518 0.000770932 0.00632523  
-0.000170269 -0.0105073  0.0280136 0.000245001 0.000765171 0.00635253  
-0.000167963 -0.0105029  0.0280146 0.00024092 0.000759794 0.00634232  
-0.000157649 -0.0105099  0.0280129 0.000251288 0.000773953 0.00634026  
-0.000163661 -0.0105052  0.0280072 0.000248839 0.000765816 0.00634191  
-0.000161175 -0.0105005  0.0280079 0.000246941 0.000762505 0.00633222  
-0.000151801 -0.0105066  0.0280057 0.000256716 0.000775585  0.0063296  
-0.000164331 -0.0105083  0.0280133 0.000247912 0.00076853 0.00634646  
-0.000158078 -0.0105057  0.0280065 0.000252484 0.000769607 0.00633584  
-0.000179638 -0.0104977  0.0280115 0.00022906 0.000747276 0.00634816  
-0.000160861  -0.010506  0.0280125 0.000240242 0.000762162 0.00633516  
-0.000174864 -0.0105026  0.0280086 0.000239196 0.000759795 0.00635443  
-0.000171643 -0.0104988  0.0280091 0.000228499 0.000748807  0.0063431  
-0.000158076 -0.0105091  0.0280112 0.000241061 0.000765174  0.0063395  
-0.000173443 -0.0105052  0.0280113 0.000241802 0.000762233 0.00635332  
-0.00017071 -0.0105012   0.028012 0.000234468 0.000753901 0.00634239  
-0.000158814 -0.0105098  0.0280122 0.000245838 0.000769406 0.00633967  
-0.00016699 -0.0105055  0.0280098 0.000240133 0.000761642 0.00634711  
-0.000166572 -0.0105072  0.0280117 0.000243707 0.000764875  0.0063466  
-0.000178154 -0.0104897  0.0280001 0.000220958 0.000739151 0.00633924  
-0.000155857 -0.0105004  0.0280026 0.000231247 0.000752557  0.0063244  
-0.00016675 -0.0104935  0.0279932 0.000239754 0.000755265 0.00633211  
-0.000162446 -0.0104893  0.0279928 0.000225006 0.000741964  0.0063207  
-0.000146421  -0.010501   0.027995 0.000239196 0.000758531 0.00631607  
-0.000171405 -0.0104982  0.0280011 0.00023903 0.000757406 0.00634398  
-0.000167634 -0.0104943  0.0280013 0.000225944 0.000745063 0.00633262  
-0.000152694 -0.0105055  0.0280036 0.000239489 0.000761544 0.00632831  
-0.000157218 -0.0104969   0.027994 0.00023961 0.000756131 0.00632428  
-0.000162632 -0.0105014  0.0280023 0.00023934 0.000758686 0.00633631  
-0.000167465 -0.0104825  0.0279877 0.000226832 0.000738986 0.00631806  
-0.000144391 -0.0104919  0.0279879 0.000237359 0.000752865 0.00630217  
-0.000160909 -0.0104914  0.0279887 0.000243792 0.000756114 0.00632239  
-0.000156557 -0.0104865  0.0279878 0.000231966 0.000745103 0.00631097  
-0.000141705 -0.0104971  0.0279888 0.000244981 0.000761211 0.00630623  
-0.000151901 -0.0104939  0.0279887 0.000244452 0.000757763 0.00631452  
-0.000130953 -0.0104774  0.0279875 0.000268302 0.000782948 0.00627262  
-0.000144992 -0.0104869  0.0279961 0.000283454 0.000799652 0.00630203  
-0.000141104 -0.0104914  0.0279981 0.000267156 0.000783009 0.00629921  
-0.000138873 -0.0104822  0.0279879 0.000277412 0.00079206 0.00628962  
-0.000136204 -0.0104855  0.0279888 0.000261357 0.000774562 0.00628721  
-0.000146049  -0.010494  0.0279967 0.000271977 0.00078788 0.00630978  
-0.000140891 -0.0104894  0.0279889 0.000267496 0.000781357 0.00629825  
-0.000145002   -0.01049  0.0280077 0.000267148 0.000788963 0.00629636  
-0.000156996 -0.0104972  0.0280131 0.000267659 0.000793892 0.00632273  
-0.000155404 -0.0105004  0.0280149 0.000251628 0.000775943 0.00631975  
-0.000151693 -0.0104926  0.0280053 0.000276194 0.000797355 0.00631327  
-0.00014885 -0.0104967  0.0280074 0.000259976 0.000780205 0.00631015  
-0.000158315  -0.010503  0.0280131 0.000258919 0.00078382 0.00633121  
-0.000152748 -0.0104991  0.0280055 0.000265965 0.000786395  0.0063212  
-0.000152426 -0.0104946  0.0280144 0.000246039 0.000773664 0.00630323  
-0.000154733 -0.0104989  0.0280134 0.000250421 0.000778993 0.00631956  
-0.00015604 -0.0104991  0.0280119 0.000234164 0.000760518 0.00631836  
-0.000156796 -0.0104984  0.0280133 0.00025863 0.000786514 0.00632057  
-0.000156666 -0.0105001  0.0280134 0.000242593 0.000767994 0.00631847  
-0.000157419 -0.0105035  0.0280123 0.000244958 0.000771783 0.00632921  
-0.000158806 -0.0105036  0.0280128 0.000251567 0.000777755 0.00632981  
-0.000144724 -0.0104895  0.0280045 0.000229569 0.000757222 0.00629261  
-0.000140044 -0.0104905  0.0279962 0.000243671 0.000767655 0.00629698  
-0.000143267 -0.0104893  0.0279941 0.000226959 0.000750108 0.00629576  
-0.000147863 -0.0104955  0.0280056 0.000246205 0.000772698 0.00630873  
-0.000150249 -0.0104948  0.0280036 0.000229636 0.000754784 0.00630774  
-0.000144313 -0.0104952  0.0279956 0.000240496 0.000762684 0.00630625  
-0.000151323 -0.0104999  0.0280045 0.000241977 0.000766762 0.00631822  
-0.000131102 -0.0104772  0.0279858 0.000236417 0.000759356 0.00627002  
-0.000135814 -0.0104843  0.0279879 0.000252392 0.000773924 0.00628694  
-0.000137675 -0.0104843  0.0279868 0.000236097 0.000755959 0.00628535  
-0.000139854 -0.0104901  0.0279883 0.00024783 0.000767178 0.00629637  
-0.000155564 -0.0104659  0.0279908 0.000223579 0.000732128 0.00628312  
-0.000159688 -0.0104851   0.028002 0.000238102 0.000749882 0.00631112  
-0.000145512 -0.0104796  0.0280006 0.000252238 0.000767971  0.0062896  
-0.000157407 -0.0104776  0.0279913 0.000233747 0.000741093 0.00630084  
-0.000141217 -0.0104719   0.027989 0.000245581 0.000757292 0.00627747  
-0.000149433 -0.0104879  0.0280002 0.000251486 0.000765532 0.00630511  
-0.000145855 -0.0104811    0.02799 0.000246439 0.000756808 0.00629397  
-0.000167827 -0.0104799  0.0280125 0.000221195 0.000737803 0.00630253  
-0.000175878 -0.0104918  0.0280169 0.000224248 0.000741307  0.0063294  
-0.000162221 -0.0104887  0.0280175 0.000234214 0.000756427 0.00630754  
-0.000168149 -0.0104896  0.0280105 0.000231564 0.000746496 0.00632046  
-0.000154535 -0.0104853  0.0280102 0.000243771 0.000763181 0.00629912  
-0.000164897 -0.0104958  0.0280161 0.000236738 0.000757478 0.00632445  
-0.000157653 -0.0104928  0.0280091 0.000244587 0.000762332 0.00631521  
-0.000179473 -0.0104792  0.0280134 0.000202303 0.000719786 0.00631017  
-0.000180738 -0.0104855   0.028008 0.000208351 0.000726891 0.00633095  
-0.000164456 -0.0104849  0.0280107 0.000213566 0.000737652 0.00630718  
-0.000179167  -0.010489  0.0280125 0.000216202 0.000733282 0.00632954  
-0.000164248 -0.0104872   0.028014 0.000223734 0.000746356 0.00630645  
-0.00016775 -0.0104918  0.0280099 0.000220022 0.000742433  0.0063246  
-0.000167228 -0.0104941   0.028013 0.000228189 0.000749402 0.00632391  
-0.000177541  -0.010469   0.027999 0.000186107 0.000707496 0.00630308  
-0.000172737  -0.010474  0.0279907 0.000201785 0.00071987 0.00631001  
-0.000153078 -0.0104729  0.0279918 0.000203451 0.000727215 0.00628611  
-0.000177393   -0.01048  0.0279997 0.000204029 0.000723055 0.00632143  
-0.000159444 -0.0104795  0.0280018 0.000207361 0.000731905 0.00629758  
-0.000157404 -0.0104811  0.0279923 0.000213079 0.000733761 0.00630284  
-0.000163208 -0.0104869  0.0280015 0.00021556 0.000737675 0.00631455  
-0.000165359 -0.0104585  0.0279843 0.00019383 0.000709951 0.00628169  
-0.000165909 -0.0104712  0.0279861 0.000210938 0.000724272 0.00630011  
-0.00014637 -0.0104681   0.027985 0.000214686 0.000734218 0.00627547  
-0.000151092 -0.0104772  0.0279863 0.000222299 0.00073891 0.00629266  
-0.000211775 -0.0104649  0.0279955 0.000234233 0.000727257 0.00635755  
-0.000184551 -0.0104838  0.0280028 0.000240631 0.000744637 0.00634582  
-0.000215414 -0.0104586  0.0280071 0.000214418 0.000710154  0.0063485  
-0.000186105 -0.0104586  0.0280066 0.000209212 0.000715531 0.00630992  
-0.000184184 -0.0104769  0.0279937 0.000238312 0.000738248 0.00633753  
-0.00021637 -0.0104497  0.0279957 0.000212458 0.000702236 0.00634102  
-0.000185199 -0.0104488  0.0279933 0.000205152 0.000704769 0.00630031  
-0.00018602 -0.0104719  0.0280045 0.000225754 0.000729597 0.00632973  
-0.000185409 -0.0104636  0.0279935 0.00022261 0.000721163 0.00632084  
-0.000217107 -0.0104755   0.028011 0.000231319  0.0007322 0.00637191  
-0.00019838 -0.0104886  0.0280151 0.000230666 0.000740765 0.00636355  
-0.000230396 -0.0104629  0.0280178 0.000202742 0.000701202 0.00636099  
-0.000204025 -0.0104649    0.02802 0.000193501 0.000701304 0.00632274  
-0.00019144 -0.0104872  0.0280098 0.000235901 0.000743418 0.00635461  
-0.000222912 -0.0104621  0.0280136 0.000208672 0.000706659 0.00635439  
-0.000195482 -0.0104632  0.0280147 0.000201573 0.000709633 0.00631624  
-0.000201813 -0.0104774  0.0280174 0.000212982 0.000720774 0.00634517  
-0.000194102 -0.0104759  0.0280121 0.000219605 0.000726136 0.00633737  
-0.000228928 -0.0104714  0.0280094 0.000221717 0.000724503 0.00638108  
-0.000205516 -0.0104806  0.0280056 0.000220104 0.000731201 0.00636616  
-0.000238736 -0.0104516  0.0280022 0.000190346 0.000689603 0.00636457  
-0.000210322 -0.0104549  0.0280046 0.000175661 0.000684539 0.00632543  
-0.000202709 -0.0104849  0.0280105 0.000225238 0.000735336 0.00636446  
-0.000235201 -0.0104575    0.02801 0.000196625 0.000694044 0.00636196  
-0.000207918 -0.0104602  0.0280122 0.000184716 0.000691307 0.00632299  
-0.000208583 -0.0104684  0.0280051 0.000198808 0.000707701 0.00634779  
-0.00020595 -0.0104732  0.0280113 0.00020589 0.000713132 0.00634576  
-0.000232124 -0.0104606  0.0279961 0.000215319 0.00071891 0.00637519  
-0.000200393 -0.0104703  0.0279905 0.000217469 0.000726131  0.0063462  
-0.000236912 -0.0104392  0.0279869 0.000185856 0.000687193 0.00634769  
-0.000205728 -0.0104409  0.0279868 0.000166953 0.00068019  0.0063076  
-0.000203623 -0.0104754  0.0279982 0.000217992 0.000728479 0.00635701  
-0.000238423 -0.0104453  0.0279945 0.00018701 0.000688291 0.00635719  
-0.000208623 -0.0104481  0.0279958 0.000169976 0.000682134 0.00631776  
-0.000203747 -0.0104564  0.0279888 0.000193281 0.000702983 0.00632882  
-0.0002068 -0.0104625   0.027997 0.000194976 0.000705129 0.00633932  
-0.000223766 -0.0104553   0.027988 0.000221254 0.000718376 0.00635773  
-0.000194019 -0.0104692  0.0279878 0.000223932 0.000728111 0.00633759  
-0.00023027 -0.0104387  0.0279862 0.000194354 0.000689585 0.00634015  
-0.000198406 -0.0104387   0.027984 0.000178234 0.000684966 0.00629858  
-0.000196904 -0.0104548  0.0279861 0.000202139 0.000706361 0.00632006  
-0.000139621 -0.0104332  0.0279884 0.000205175 0.000728384 0.00622815  
-0.000112711 -0.0104414  0.0279834 0.000275558 0.00079611 0.00621493  
-0.000104923 -0.0104338  0.0280023 0.000299093 0.000828117 0.00619188  
-0.000130728  -0.010429   0.028013 0.00019367 0.000749349 0.00620514  
-0.00012964 -0.0104507  0.0280039 0.000248657 0.000778388 0.00623557  
-9.43862e-05  -0.010416  0.0279799 0.000287887 0.000812319 0.00617487  
-0.000123388 -0.0104098  0.0279872 0.00018947  0.0007332 0.00619068  
-0.000122732 -0.0104378  0.0279857 0.000239779 0.000762747 0.00622054  
-0.000114148 -0.0104328  0.0280077 0.000248046 0.000789913 0.00619968  
-0.000104964 -0.0104145  0.0279833 0.00024038 0.000773696 0.00618366  
-0.000157755 -0.0104545  0.0280185 0.000198541 0.000731218 0.00624636  
-0.000131784 -0.0104632  0.0280122 0.000271271 0.000800656 0.00623765  
-0.000122617 -0.0104562  0.0280231 0.000261527 0.000798075 0.00619247  
-0.000155549 -0.0104445  0.0280292 0.000160572 0.000707716 0.00620359  
-0.000150767 -0.0104648  0.0280231 0.000219747 0.000752704 0.00624518  
-0.000115426 -0.0104474  0.0280149 0.000279391 0.00081307 0.00619329  
-0.0001453 -0.0104392  0.0280239 0.00017588 0.00072893 0.00620443  
-0.000141644 -0.0104595  0.0280155 0.000234187 0.000766409 0.00624114  
-0.000135784 -0.0104517  0.0280264 0.000212532 0.000753389 0.00619945  
-0.000126935 -0.0104447  0.0280196 0.000229192 0.000771793 0.00620016  
-0.00016993 -0.0104546  0.0280164 0.000172785 0.00070139 0.00624881  
-0.000139812 -0.0104696  0.0280178 0.000241364 0.000774784 0.00623811  
-0.00012125 -0.0104554  0.0280186 0.000233484 0.000769171 0.00618918  
-0.00015621  -0.010435   0.028009 0.000135311 0.000680944 0.00620537  
-0.000151557 -0.0104601  0.0280126 0.00019266 0.000725999 0.00624435  
-0.00012227 -0.0104562  0.0280197 0.000247357 0.000783349 0.00618781  
-0.000156247   -0.01044  0.0280181 0.000148331 0.000692331 0.00620164  
-0.000151874 -0.0104628  0.0280172 0.000206196 0.00073814  0.0062426  
-0.000135362 -0.0104466   0.028014 0.000185744 0.000725222 0.00619864  
-0.000135924 -0.0104495  0.0280191 0.000199258 0.000738159 0.00619613  
-0.00016679 -0.0104414  0.0279982 0.000149355 0.000685556 0.00624556  
-0.000131205 -0.0104618  0.0280063 0.000215963 0.000750257 0.00623217  
-0.000103802 -0.0104328  0.0279955 0.000205456 0.000740531 0.00618246  
-0.00014849 -0.0104098  0.0279842 0.000112198 0.000671361  0.0061961  
-0.000138398 -0.0104418  0.0279899 0.000172852 0.00071027 0.00622869  
-0.000113929 -0.0104464  0.0280089 0.000219567 0.000754875 0.00618693  
-0.000152894  -0.010424  0.0279974 0.000122911 0.000676154 0.00620278  
-0.000145943 -0.0104522  0.0280023 0.00018165 0.000717702 0.00623796  
-0.000122579 -0.0104228  0.0279898 0.000160157 0.000705803 0.00619013  
-0.000129957 -0.0104367  0.0280032 0.00017257 0.000715534 0.00619599  
-0.000152295 -0.0104238  0.0279786 0.000158515 0.000691142 0.00622429  
-0.000113404 -0.0104406  0.0279803 0.000222078 0.000753842 0.00621047  
-9.40909e-05 -0.0104156  0.0279766 0.000222126 0.000755652 0.00616916  
-0.000138317 -0.0103983  0.0279735 0.000132708 0.00068337 0.00618376  
-0.000129604 -0.0104326  0.0279792 0.000189388 0.00072233  0.0062163  
-0.000112418 -0.0104085  0.0279747 0.000178899 0.000719549 0.00617709  
-0.000173814 -0.0104951  0.0280007 0.000260735 0.000774462 0.00635004  
-0.00016883  -0.010487  0.0280006 0.000278314 0.000800161 0.00633641  
-0.000173265 -0.0104892  0.0279931 0.000261881 0.00077275 0.00634222  
-0.000168431 -0.0104802  0.0279925 0.000282967 0.00080311 0.00632863  
-0.000171991 -0.0104922  0.0280006 0.000268707 0.00078589 0.00634534  
-0.000171519  -0.010486  0.0279929 0.000271526 0.000786331  0.0063376  
-0.000186668 -0.0104994  0.0280131 0.000255928 0.00077699 0.00637067  
-0.000183373 -0.0104913  0.0280139 0.000279019 0.000808761 0.00635773  
-0.000180156 -0.0104981  0.0280075 0.000258227 0.000775831 0.00636029  
-0.000176103 -0.0104901   0.028008 0.000278208 0.000803975 0.00634696  
-0.000185559 -0.0104964  0.0280133 0.000266409 0.000791124 0.00636635  
-0.000178726 -0.0104952  0.0280076 0.000267277 0.000788341 0.00635576  
-0.000193495 -0.0104928  0.0280068 0.000255425 0.00077589 0.00637408  
-0.000190725 -0.0104839  0.0280073 0.00028852 0.000815947 0.00636309  
-0.00019086 -0.0104964  0.0280102 0.000255297 0.000776404 0.00637223  
-0.000187832 -0.0104879  0.0280108 0.000283203 0.000812864 0.00636011  
-0.000192642 -0.0104895   0.028007 0.000270602 0.000793903 0.00637063  
-0.000189878 -0.0104933  0.0280104 0.000268042 0.000792712  0.0063683  
-0.000187877 -0.0104836  0.0279926 0.000259194 0.000772556 0.00635315  
-0.000185649 -0.0104734  0.0279925 0.000298819  0.0008147 0.00634272  
-0.000191349 -0.0104882  0.0279998 0.000257194 0.000774228 0.00636436  
-0.000188867 -0.0104787      0.028 0.000294175 0.000815512 0.00635389  
-0.000187279 -0.0104798  0.0279926 0.000277389 0.000791646 0.00634992  
-0.000190634 -0.0104846      0.028 0.00027417 0.000792871 0.00636111  
-0.000181815 -0.0104826  0.0279893 0.000260872 0.000771751 0.00634383  
-0.000178958 -0.0104722  0.0279887 0.000295672 0.000811234 0.00633194  
-0.000180939 -0.0104788  0.0279891 0.000276854 0.00078958    0.00634  
-0.000197235 -0.0104784   0.027992 0.000256335 0.00077053 0.00635908  
-0.000195874 -0.0104719  0.0279922 0.00029014 0.000806531 0.00635366  
-0.00019105 -0.0104777  0.0279892 0.000258341 0.000769941 0.00635007  
-0.000189322 -0.0104713  0.0279891 0.000288429 0.000804018 0.00634359  
-0.000196649  -0.010476  0.0279921 0.000272094 0.000786702  0.0063573  
-0.000190301 -0.0104754  0.0279892 0.000272361 0.000785172 0.00634783  
-0.000201954 -0.0104878  0.0280061 0.00025305 0.000774127 0.00637939  
-0.000200096 -0.0104821  0.0280064 0.000281922 0.000808801 0.00637382  
-0.000200279  -0.010483  0.0279991 0.000254537 0.000772315    0.00637  
-0.000198672 -0.0104769  0.0279994 0.000286385 0.000807784 0.00636465  
-0.000201181 -0.0104857  0.0280062 0.000266437 0.000789526 0.00637756  
-0.000199604 -0.0104808  0.0279993 0.000269345 0.000788168 0.00636826  
-0.000194375 -0.0104953  0.0280133 0.000254267 0.00077588 0.00637573  
-0.000192123 -0.0104899  0.0280136 0.000275393 0.000804254  0.0063687  
-0.000198904 -0.0104918  0.0280099 0.000253291 0.000774943 0.00637739  
-0.000196854 -0.0104863  0.0280101 0.000278124 0.000806927 0.00637103  
-0.00019345 -0.0104933  0.0280133 0.000263944 0.000788253 0.00637326  
-0.000198056 -0.0104898    0.02801 0.000264749 0.000789028 0.00637522  
-0.00018156 -0.0104913  0.0280015 0.000259504 0.000773726 0.00635594  
-0.000178319 -0.0104862  0.0280012 0.000276613 0.000797489 0.00634795  
-0.000187827 -0.0104942   0.028008 0.000256803 0.000774948  0.0063657  
-0.000185119  -0.010489  0.0280081 0.000275642 0.000800543 0.00635816  
-0.000180207 -0.0104894  0.0280013 0.000267284 0.000783984   0.006353  
-0.000186708 -0.0104923   0.028008 0.000265391 0.000786043 0.00636298  
-0.000181506 -0.0104852  0.0279937 0.000260368 0.000771652 0.00634845  
-0.000178446 -0.0104796  0.0279933 0.000280131 0.000798986 0.00634059  
-0.000180209 -0.0104831  0.0279936 0.000269458 0.000783614 0.00634559  
-0.000133344 -0.0104714  0.0279847 0.000223201 0.000746256 0.00626431  
-0.000148155 -0.0104838  0.0279929 0.000214892 0.000738428 0.00629331  
-0.000160358 -0.0104645  0.0279904 0.00019066 0.000713523  0.0062833  
-0.000141874 -0.0104792   0.027986 0.000224758 0.000744487 0.00628277  
-0.000153123   -0.01046  0.0279841 0.000202679 0.000720628 0.00627267  
-0.000169067 -0.0104723  0.0279909 0.000201817 0.000720693 0.00630537  
-0.000162283 -0.0104691  0.0279858 0.000211518 0.000725711  0.0062954  
-0.000147347  -0.010484  0.0280034 0.000215968 0.000743698 0.00628697  
-0.000159867 -0.0104946   0.028011 0.000223135 0.000748572 0.00631535  
-0.000170459 -0.0104776  0.0280096 0.000201591 0.000723033 0.00630351  
-0.000154662 -0.0104897  0.0280025 0.000218003 0.000743004 0.00630515  
-0.000166097 -0.0104716  0.0280005 0.000194889 0.000717808 0.00629449  
-0.000177795  -0.010484  0.0280085 0.000209283 0.000728509  0.0063262  
-0.000174089 -0.0104785      0.028 0.000204483 0.000724235 0.00631673  
-0.000153891 -0.0104906  0.0280147 0.000233805 0.000760303  0.0062965  
-0.000157946 -0.0104975  0.0280162 0.000241579 0.000765085 0.00631591  
-0.000167331 -0.0104831  0.0280188 0.000222789 0.000742578 0.00630313  
-0.000159833 -0.0104964  0.0280136 0.000232133 0.000756371 0.00631495  
-0.000169772 -0.0104807  0.0280141 0.000212125 0.000731824 0.00630227  
-0.000173591 -0.0104898  0.0280171 0.000226309 0.000744017 0.00632518  
-0.000176555 -0.0104872  0.0280128 0.00021769 0.000735459 0.00632498  
-0.000145128 -0.0104872  0.0280094 0.000255786 0.000777868 0.00628984  
-0.000142379 -0.0104888  0.0279995 0.000257746 0.000773878 0.00629631  
-0.000149407 -0.0104742  0.0280022 0.00024148  0.0007564 0.00628667  
-0.000150751 -0.0104941  0.0280088 0.000250212 0.000770318 0.00630668  
-0.000159074 -0.0104799  0.0280118 0.000232585 0.000750561 0.00629533  
-0.000157313 -0.0104825  0.0280018 0.00024124 0.000753472  0.0063073  
-0.000165897 -0.0104872  0.0280105 0.000234186 0.000749667 0.00631652  
-0.000130606 -0.0104734  0.0279877 0.000257411 0.000771932 0.00626679  
-0.000138024  -0.010482  0.0279891 0.000251768 0.000764556 0.00628443  
-0.0001456 -0.0104655  0.0279896 0.000235028 0.000744973 0.00627471  
-0.000154552 -0.0104748  0.0279909 0.000236378 0.00074417  0.0062966  
-0.000278895 -0.0103733  0.0279779 0.000108818 0.00060878   0.006305  
-0.000328897   -0.01038  0.0279806 0.000161812 0.00062488 0.00638875  
-0.000272599 -0.0103726  0.0279804 0.000122631 0.000612185  0.0062984  
-0.000324026 -0.0103814   0.027985 0.000170766 0.00062548 0.00638515  
-0.000305542 -0.0103758  0.0279794 0.000136229 0.000617339   0.006347  
-0.000300053 -0.0103762  0.0279829 0.000147249 0.000619143 0.00634203  
-0.000275446 -0.0103909   0.027996 0.000115498 0.000599761 0.00631662  
-0.000324605 -0.0103931  0.0279943 0.000163579 0.000618727 0.00639843  
-0.000277182 -0.0103821  0.0279862 0.000110541 0.000604377 0.00631263  
-0.000327046 -0.0103862  0.0279867 0.000161479 0.000621986 0.00639474  
-0.000301681  -0.010391   0.027995 0.000140351 0.00060991 0.00635755  
-0.000303775 -0.0103832  0.0279864 0.000136889 0.000613778 0.00635373  
-0.000269209 -0.0104077  0.0280257 0.000129126 0.000614702 0.00631189  
-0.000315636 -0.0104096  0.0280201 0.000171757 0.000627385 0.00639451  
-0.00027282 -0.0103996  0.0280106 0.00012289 0.000604292 0.00631263  
-0.000320492 -0.0104015  0.0280072 0.000167995 0.000620924 0.00639534  
-0.000294007 -0.0104077  0.0280227 0.000151058 0.000621436 0.00635322  
-0.000298278 -0.0103996  0.0280087 0.000146151 0.00061316 0.00635402  
-0.000249912 -0.0104029  0.0280172 0.000145197 0.000640122  0.0063111  
-0.000303581 -0.0104071  0.0280154 0.000182634 0.000640032 0.00639368  
-0.000260216 -0.0104072  0.0280235 0.000136542 0.000629059 0.00631087  
-0.000309388   -0.01041  0.0280191 0.000176743 0.000634945 0.00639331  
-0.000278648 -0.0104041  0.0280162 0.000164038 0.000639661 0.00635227  
-0.000286501 -0.0104076  0.0280211 0.000157056 0.000631994 0.00635204  
-0.000251738 -0.0103895  0.0279993 0.000146723 0.000630093 0.00630378  
-0.000307331 -0.0103963   0.028002 0.000184496 0.000633626 0.00638953  
-0.000281528 -0.0103921  0.0280008 0.00016559 0.000631577 0.00634669  
-0.000141136 -0.0104697  0.0279891 0.000285369 0.00080848 0.00628392  
-0.00014915 -0.0104621  0.0280018 0.000299466 0.000820518  0.0062838  
-0.000164006 -0.0104778  0.0280009 0.000284746 0.000808718 0.00631983  
-0.000199785 -0.0104563  0.0280043 0.000316041 0.000840994 0.00634402  
-0.000147513 -0.0104518  0.0279895 0.000307748 0.000830026 0.00627435  
-0.00016331   -0.01047  0.0279915 0.000291191 0.000814306 0.00631158  
-0.000201668 -0.0104476  0.0279948 0.000319941 0.000845196 0.00633742  
-0.00017505 -0.0104593  0.0280031 0.00030868 0.000832572 0.00631416  
-0.000175314 -0.0104498  0.0279923 0.000314702 0.000839385 0.00630623  
-0.000152864 -0.0104827  0.0280088 0.000280145 0.000807296 0.00630427  
-0.000168726 -0.0104694  0.0280182 0.000310286 0.000840999 0.00630267  
-0.000180286 -0.0104829  0.0280152 0.00028901 0.000820987 0.00634065  
-0.00021569  -0.010459  0.0280158 0.000318485 0.000853937 0.00636247  
-0.000159546 -0.0104671  0.0280113 0.000304427 0.000829724 0.00629323  
-0.00017231 -0.0104814   0.028009 0.000286322 0.000814112 0.00633017  
-0.000207694 -0.0104588   0.028011 0.000316973 0.000846663 0.00635283  
-0.000192741 -0.0104642   0.028017 0.000315126 0.000848998 0.00633291  
-0.000184156  -0.010463  0.0280111 0.000311527 0.000839845 0.00632331  
-0.000164978 -0.0104825  0.0280133 0.000294017 0.000825026 0.00631703  
-0.00017497 -0.0104613  0.0280093 0.00033059 0.000858644 0.00631028  
-0.000187656 -0.0104752  0.0280079 0.000303261 0.00083237 0.00634696  
-0.000225327 -0.0104478  0.0280036 0.00032941 0.000862145 0.00637019  
-0.000172612 -0.0104657  0.0280136 0.00031972 0.00085111 0.00630533  
-0.00018475 -0.0104794  0.0280116 0.000295509 0.000827449 0.00634324  
-0.00022113 -0.0104537  0.0280098 0.000323204 0.000859326 0.00636571  
-0.000200771 -0.0104545  0.0280063 0.000330657 0.000861713 0.00634061  
-0.000197453 -0.0104597  0.0280116 0.000322155 0.000856669  0.0063359  
-0.000163684  -0.010473  0.0280024 0.000314221 0.000834716 0.00631255  
-0.0001696 -0.0104457  0.0279912 0.000350969 0.000860487 0.00629308  
-0.000182448 -0.0104631  0.0279921 0.000317424 0.000832849  0.0063275  
-0.000225533 -0.0104348  0.0279894 0.000340985 0.000857147 0.00635263  
-0.00017292  -0.010454  0.0280007 0.00034166 0.000859866 0.00630329  
-0.000185765 -0.0104693  0.0280003 0.00031105 0.00083285 0.00633842  
-0.000225983 -0.0104412  0.0279964 0.000335963 0.000859696 0.00636269  
-0.000198397 -0.0104402  0.0279902 0.000346455 0.000859842 0.00632312  
-0.000200165 -0.0104475  0.0279984 0.000339393 0.000860939 0.00633331  
-0.000151223 -0.0104625  0.0279864 0.000314519 0.00082897 0.00628808  
-0.000161468 -0.0104419  0.0279849 0.000341131 0.000853121 0.00627904  
-0.00017512 -0.0104613  0.0279876 0.000311771 0.000827958 0.00631558  
-0.000218437  -0.010435   0.027988 0.000335757 0.000854176 0.00634186  
-0.00019083 -0.0104385  0.0279865 0.000338966 0.000854908 0.00631081  
-0.000151574 -0.0104617  0.0280054 0.000220156 0.000742896 0.00626972  
-0.000129755 -0.0104686  0.0279989 0.00028124 0.000802137 0.00625898  
-0.000147761 -0.0104506  0.0279897 0.000214023  0.0007297 0.00625747  
-0.000122615 -0.0104595  0.0279855 0.000271888 0.000789697 0.00624443  
-0.000137574 -0.0104659  0.0280021 0.000251032 0.000773251 0.00626384  
-0.000131982 -0.0104558  0.0279875 0.000243255 0.000760263 0.00625033  
-0.000172071 -0.0104712  0.0280219 0.000198665 0.000722532 0.00628234  
-0.000146164 -0.0104819  0.0280181 0.00025665 0.000786445 0.00627437  
-0.000162799  -0.010468  0.0280153 0.000209542 0.000733819  0.0062763  
-0.000139013 -0.0104765  0.0280098 0.000269389 0.000795037 0.00626771  
-0.000156323 -0.0104773  0.0280201 0.000227826 0.000754965   0.006278  
-0.000147986  -0.010473  0.0280126 0.000239714 0.000765037 0.00627159  
-0.000175735 -0.0104634  0.0280083 0.000176069 0.000700902  0.0062838  
-0.000145509 -0.0104812  0.0280146 0.000231671 0.000763219 0.00627166  
-0.000174672 -0.0104676  0.0280148 0.000187475 0.000710201 0.00628158  
-0.000146664 -0.0104819   0.028016 0.000243895 0.000774556 0.00627154  
-0.000157841 -0.0104731  0.0280116 0.000203885 0.000732272 0.00627736  
-0.000157891 -0.0104755  0.0280155 0.000215776 0.000742718 0.00627621  
-0.000167306 -0.0104473  0.0279878 0.000162229 0.000692264 0.00626586  
-0.0001298 -0.0104676  0.0279941 0.000216053 0.000746137 0.00625269  
-0.000172216  -0.010456  0.0279986 0.000167845 0.000696254 0.00627623  
-0.000138533 -0.0104755  0.0280054 0.000222924 0.000754039 0.00626309  
-0.000145587 -0.0104583   0.027991 0.000189079 0.000719218 0.00625871  
-0.000152514 -0.0104665  0.0280021 0.000195355 0.000725259 0.00626921  
-0.000159024 -0.0104422  0.0279816 0.000176332 0.000700245 0.00625489  
-0.00012293  -0.010459  0.0279832 0.00022938 0.000756788 0.00624093  
-0.000137868 -0.0104514  0.0279823 0.000202905 0.000728648 0.00624725  
-0.00013944 -0.0104873  0.0279951 0.000232923 0.000757434 0.00629077  
-0.000134365 -0.0104814  0.0279869 0.00024257 0.000764245 0.00628037  
-0.000145977 -0.0104918  0.0279945 0.000231272 0.000753543 0.00630285  
-0.000140798  -0.010487  0.0279875 0.000239387 0.000758462 0.00629275  
-0.000153591 -0.0104968   0.028013 0.000241061 0.00076906 0.00631307  
-0.000147077 -0.0104928  0.0280047 0.000236063 0.000762626 0.00630252  
-0.00015837  -0.010501  0.0280116 0.00023687 0.000762814 0.00632553  
-0.000152707 -0.0104969  0.0280036 0.000233231 0.000757706  0.0063148  
-0.000154593 -0.0104966  0.0280145 0.000259785 0.000785561 0.00631554  
-0.000155028 -0.0104971  0.0280137 0.000250077 0.000777206 0.00631362  
-0.000157963  -0.010502  0.0280142 0.000252174 0.000776232 0.00632683  
-0.000159104 -0.0105018   0.028013 0.000244207 0.000769324  0.0063257  
-0.000141043 -0.0104865  0.0279972 0.000276692 0.000793215 0.00629545  
-0.000148527 -0.0104923  0.0280067 0.000268865 0.00079008 0.00630633  
-0.000144453 -0.0104933  0.0279978 0.000266084 0.000781771 0.00630596  
-0.000151754 -0.0104984  0.0280068 0.000259654 0.000779649 0.00631702  
-0.000135251 -0.0104808  0.0279879 0.000270198 0.00078457 0.00628289  
-0.000139747 -0.0104879  0.0279891 0.00026119 0.00077436 0.00629443  
-0.000142515 -0.0104873  0.0279981 0.00026313 0.000786453 0.00629941  
-0.0001395 -0.0104801   0.027989 0.000271275 0.000793052 0.00628983  
-0.000155915  -0.010487  0.0279994 0.000271502 0.000794249 0.00631688  
-0.000154255   -0.01048  0.0279907 0.000277865 0.000799057 0.00630822  
-0.000158653 -0.0104945  0.0280147 0.000269682 0.00079946 0.00632167  
-0.000151003 -0.0104918  0.0280072 0.000265679 0.000792222 0.00631079  
-0.000171296 -0.0104928  0.0280144 0.00027509 0.000804969 0.00633868  
-0.000163816 -0.0104908  0.0280077 0.00027271 0.000798991 0.00632784  
-0.000162841 -0.0104902  0.0280114 0.000286822 0.000814003 0.00632646  
-0.000161644 -0.0104927  0.0280131 0.000277721 0.000807184 0.00632346  
-0.000177097 -0.0104869  0.0280093 0.00028835 0.000815738  0.0063438  
-0.000175036 -0.0104901  0.0280119 0.000281167 0.00081085 0.00634079  
-0.000153343 -0.0104788  0.0279944 0.000302929 0.000817676 0.00630601  
-0.000158789 -0.0104849  0.0280034 0.000295601 0.000816302 0.00631733  
-0.000169909 -0.0104758  0.0279934 0.000301543 0.000816889 0.00632338  
-0.000174186 -0.0104816  0.0280017 0.00029556 0.000816624 0.00633463  
-0.000146498 -0.0104751  0.0279873 0.000296367 0.000810755 0.00629327  
-0.000163138 -0.0104734   0.027988  0.0002967 0.00081183 0.00631162  
-0.000275214   -0.01041  0.0279997 0.000345185 0.000880831 0.00639111  
-0.000239461 -0.0104268  0.0280075 0.000344473 0.00087511 0.00636493  
-0.000271721  -0.010429  0.0280079 0.000325745 0.000857107 0.00640693  
-0.00024331 -0.0104175  0.0279977 0.000346457 0.000878682 0.00635964  
-0.000276201 -0.0104209  0.0279995 0.000326323 0.000857203 0.00640301  
-0.000232632 -0.0104434  0.0280059 0.000320167 0.000849482 0.00637321  
-0.000235774  -0.010435   0.027997 0.000322448 0.000851748 0.00636783  
-0.000276543 -0.0104195  0.0280128 0.000344304 0.000884583 0.00640158  
-0.000254769  -0.010428  0.0280166 0.000346646 0.000889507 0.00638036  
-0.000283679 -0.0104289  0.0280144 0.000323172 0.00086557 0.00642095  
-0.000246943 -0.0104285   0.028013 0.000345428 0.000881404 0.00637202  
-0.000277233   -0.01043  0.0280119 0.000324321 0.00086083 0.00641326  
-0.000246695 -0.0104448  0.0280152 0.000320336 0.000860287 0.00638951  
-0.000239417 -0.0104452  0.0280114 0.000320053 0.000854215 0.00638085  
-0.000289632 -0.0104114  0.0280068 0.00034596 0.000894246 0.00641237  
-0.000265651 -0.0104141  0.0279998 0.000355867 0.000896021  0.0063888  
-0.000295505 -0.0104149  0.0279982 0.00032671 0.000867045 0.00642796  
-0.000260661 -0.0104214  0.0280083 0.000350441 0.000894652 0.00638367  
-0.000289936 -0.0104222  0.0280066 0.000324271 0.000867518 0.00642372  
-0.000257404 -0.0104323  0.0280011 0.000327762 0.000865234 0.00639686  
-0.000252542 -0.0104389  0.0280083 0.000323342 0.00086401 0.00639257  
-0.000298662 -0.0103971  0.0279915 0.000353463 0.000888295 0.00641119  
-0.000270445 -0.0104002  0.0279868 0.000365757 0.000886644  0.0063737  
-0.000300722  -0.010403  0.0279872 0.000332039 0.000857795 0.00641381  
-0.000268446  -0.010407  0.0279929 0.000361741 0.000891255 0.00638258  
-0.000298626 -0.0104086  0.0279923 0.00032994 0.000862311 0.00642186  
-0.000260013 -0.0104199  0.0279884 0.000336311 0.000858144 0.00638094  
-0.000259238 -0.0104259  0.0279945 0.000332702 0.000861651 0.00639005  
-0.000295445  -0.010394  0.0279893 0.000352297 0.00088219 0.00639519  
-0.000263819 -0.0104018  0.0279881 0.000360184 0.000884914 0.00636412  
-0.000294734 -0.0104058  0.0279897 0.000330208 0.000857266 0.00640663  
-0.000253435 -0.0104212  0.0279888 0.000332624 0.000856409 0.00637183  
-0.000175044 -0.0104395  0.0279867 0.000153439 0.000683016  0.0062648  
-0.000131919 -0.0104631  0.0279929 0.000203887 0.000735685  0.0062482  
-0.00016663 -0.0104346   0.027981 0.000167945 0.00069085 0.00625403  
-0.00012445 -0.0104546  0.0279823 0.000217904 0.000746443 0.00623626  
-0.000150535 -0.0104521  0.0279898 0.000178492 0.000709563 0.00625596  
-0.000142456 -0.0104454  0.0279815 0.000192854 0.00071896  0.0062445  
-0.000182359 -0.0104563  0.0280073 0.000167454 0.000690442 0.00628199  
-0.000146751 -0.0104778  0.0280139 0.000220381 0.000752249 0.00626658  
-0.000179361 -0.0104485  0.0279974 0.000159095 0.000686453 0.00627489  
-0.000140235 -0.0104716  0.0280045 0.000211149 0.000743395 0.00625844  
-0.000161786 -0.0104679  0.0280108 0.000193831 0.000721738 0.00627394  
-0.000156951 -0.0104608   0.028001 0.000184987 0.000715225 0.00626624  
-0.000178358 -0.0104651  0.0280228 0.000189856 0.000712099 0.00628007  
-0.000146681 -0.0104798  0.0280194 0.00024583 0.00077619  0.0062686  
-0.000181091 -0.0104611  0.0280147 0.000178827 0.000699531 0.00627943  
-0.000147522 -0.0104791  0.0280163 0.000232916 0.000763703   0.006266  
-0.000159745 -0.0104732  0.0280212 0.000217903 0.000744794 0.00627399  
-0.000161545 -0.0104709  0.0280156 0.000205858 0.000732132 0.00627238  
-0.000157314 -0.0104559  0.0280067 0.000211533 0.000734065 0.00626885  
-0.00012898 -0.0104665  0.0280002 0.000271097 0.000794063 0.00625429  
-0.000168848 -0.0104622  0.0280165 0.000200728 0.00072422 0.00627463  
-0.000138945 -0.0104745  0.0280113 0.000258808 0.000785926 0.00626239  
-0.000140081  -0.010462  0.0280034 0.000241508 0.000764972 0.00626106  
 -0.000151 -0.0104691   0.028014 0.000229891 0.000755856 0.00626809  
-0.000153864 -0.0104441  0.0279903 0.000205902 0.000720622 0.00625683  
-0.000122081 -0.0104566  0.0279857 0.000261897 0.000780871 0.00623975  
-0.000134791 -0.0104511  0.0279879 0.000234057 0.000751481 0.00624768  
-0.000137248  -0.010457  0.0279851 0.000313539 0.000827385 0.00626394  
-0.000131482 -0.0104311  0.0279818 0.000343676 0.000853232  0.0062324  
-0.000139931 -0.0104743  0.0279962 0.000296907 0.000812484  0.0062824  
-0.000143484 -0.0104504  0.0279934 0.000340526 0.000851395   0.006263  
-0.000129012 -0.0104468  0.0279966 0.000320097 0.000836394 0.00623945  
-0.000133001 -0.0104683  0.0279864 0.000288354 0.000802627  0.0062686  
-0.00013474 -0.0104435  0.0279833 0.000329048 0.000841043 0.00624758  
-0.000119941 -0.0104367  0.0279825 0.000308279 0.000823186 0.00622318  
-0.000134647 -0.0104601  0.0279964 0.000308264 0.000824597 0.00626087  
-0.000126686  -0.010452  0.0279845 0.000297992 0.000813018 0.00624586  
-0.0001514 -0.0104705  0.0280043 0.000312946 0.000833502 0.00628877  
-0.000146594 -0.0104498  0.0280042 0.000342563 0.000859582   0.006257  
-0.000152883 -0.0104867  0.0280146 0.000276362 0.00080358 0.00630109  
-0.000153137 -0.0104673  0.0280132 0.000315042 0.000842887 0.00627818  
-0.000143147 -0.0104645  0.0280174 0.00029022 0.000819852 0.00625134  
-0.000147223 -0.0104813  0.0280063 0.000287363 0.000808714 0.00629287  
-0.000149158 -0.0104598  0.0280042 0.000328458 0.000847551 0.00627222  
-0.000137272  -0.010457  0.0280084 0.00030552 0.000828594 0.00624691  
-0.000148133 -0.0104751   0.028016 0.000283125 0.000811844 0.00627612  
-0.000142371 -0.0104688  0.0280074 0.000296228 0.00081881  0.0062698  
-0.000154451 -0.0104797  0.0280148 0.000289016 0.000819708 0.00629211  
-0.000148856 -0.0104617  0.0280165 0.000313876 0.000843359 0.00625599  
-0.000150684 -0.0104886  0.0280149 0.000254248 0.000783857  0.0062971  
-0.000148892 -0.0104728  0.0280188 0.000290562 0.000820538 0.00627158  
-0.000140559 -0.0104669  0.0280183 0.000262885 0.000793694 0.00624631  
-0.000152693  -0.010488  0.0280146 0.000264876 0.000793909  0.0062981  
-0.000151774 -0.0104704  0.0280157 0.000302207 0.000832635 0.00627329  
-0.000142564 -0.0104661  0.0280173 0.000276153 0.000807162 0.00624672  
-0.000145785 -0.0104773  0.0280166 0.000258333 0.000788865 0.00627163  
-0.000147757 -0.0104766  0.0280159 0.000270315 0.000800609 0.00627235  
-0.000142785 -0.0104783   0.028009 0.000271158 0.000798474 0.00628068  
-0.000136224 -0.0104601  0.0280124 0.000291655 0.00081535 0.00624702  
-0.000134232 -0.0104785  0.0279962 0.000243057 0.000768255 0.00627586  
-0.000128601  -0.010462  0.0279999 0.000274711 0.000796965 0.00625407  
-0.000120966 -0.0104523  0.0279971 0.000242751 0.000769312 0.00623079  
-0.000143135 -0.0104846  0.0280065 0.000247744 0.000775254 0.00628704  
-0.000139701 -0.0104689  0.0280108 0.000282143 0.000807838 0.00626317  
-0.00013192 -0.0104612  0.0280093 0.000252213 0.000780743 0.00623932  
-0.000127903 -0.0104649  0.0279966 0.000242594 0.000768797 0.00625327  
-0.00013776 -0.0104724  0.0280079 0.000249723 0.000778071 0.00626312  
-0.000128805 -0.0104629  0.0279869 0.000276329 0.000800268 0.00625969  
-0.000119621 -0.0104391  0.0279851 0.00029463 0.000816559 0.00622743  
-0.000129311 -0.0104709  0.0279862 0.000253975 0.000777288 0.00626515  
-0.000124396 -0.0104505   0.027986 0.000285756 0.000808883 0.00624301  
-0.000114511 -0.0104401  0.0279825 0.000256802 0.000783237 0.00621851  
-0.000122181  -0.010455  0.0279844 0.000254986 0.000780122  0.0062418  
-0.000205449 -0.0104792  0.0280038 0.000251699 0.000755102 0.00636883  
-0.000206507 -0.0104722  0.0279953 0.000251407 0.000751065 0.00636205  
-0.000178656 -0.0104909  0.0280016 0.000252173 0.000760176 0.00634916  
-0.000178168 -0.0104846  0.0279934 0.000251645 0.000756235 0.00634113  
-0.000218158 -0.0104826  0.0280142 0.000244288 0.000754323 0.00638567  
-0.00021156  -0.010482  0.0280098 0.000248002 0.000755127 0.00637696  
-0.000191943 -0.0104954   0.028014 0.000244757 0.00075955  0.0063685  
-0.000185247 -0.0104941  0.0280085 0.000248534 0.000760256 0.00635876  
-0.000227204  -0.010473  0.0280038 0.000239152 0.000749189 0.00638963  
-0.000223323 -0.0104781  0.0280092 0.000241482 0.000751351 0.00638731  
-0.000198861 -0.0104883  0.0280063 0.000239304 0.00075431 0.00637144  
-0.000196172 -0.0104921  0.0280103 0.00024176 0.000756604 0.00636973  
-0.000224645 -0.0104628  0.0279902 0.000239878 0.000745391 0.00637113  
-0.000226632 -0.0104677   0.027997 0.000239055 0.000747224  0.0063812  
-0.000193456 -0.0104786  0.0279917 0.000239991 0.000750149  0.0063509  
-0.000196821 -0.0104834  0.0279991 0.000239196 0.000752136 0.00636194  
-0.000218292 -0.0104629  0.0279888 0.000243972 0.000745785 0.00636314  
-0.000187268 -0.0104776  0.0279887 0.000244056 0.000750758 0.00634197  
-0.000178949 -0.0104172  0.0279929 0.000170193 0.000681504 0.00625202  
-0.000201342 -0.0104381  0.0280108 0.000182374 0.000690659 0.00629877  
-0.000188234 -0.0104071  0.0280185 0.000138776 0.000679868  0.0062396  
-0.000200935 -0.0104262  0.0279946 0.000179574 0.000678725 0.00628925  
-0.000185813 -0.0103898  0.0279946 0.000139261 0.000666024 0.00622862  
-0.000222606 -0.0104079   0.028017 0.00014707 0.00065968 0.00628107  
-0.00022267 -0.0103931  0.0279971 0.000147745 0.000647997 0.00627221  
-0.000193713 -0.0104373  0.0280216 0.000162151 0.000682673 0.00626572  
-0.000221285 -0.0104445  0.0280232 0.000164848 0.000669998 0.00630693  
-0.00021367 -0.0104162  0.0280303 0.000114011 0.000639731 0.00623791  
-0.000211944  -0.010443  0.0280187 0.000173545 0.000681604 0.00630246  
-0.000202773 -0.0104139  0.0280272 0.000125292 0.000661059 0.00623833  
-0.000244184 -0.0104147  0.0280273 0.000127514 0.000629348 0.00628146  
-0.000234483 -0.0104133  0.0280245 0.000136539 0.000646008 0.00628075  
-0.000207057 -0.0104335  0.0280142 0.000141378 0.000653388 0.00626848  
-0.000227675 -0.0104318  0.0280019 0.00014669 0.000652176 0.00631057  
-0.000216456  -0.010401  0.0280004 9.4453e-05 0.000618051 0.00624247  
-0.000225109 -0.0104385  0.0280124 0.000156093 0.000658646 0.00630707  
-0.0002155 -0.0104089  0.0280147 0.000104915 0.000625901 0.00623786  
-0.000249068 -0.0103989  0.0279981 0.000111253 0.00061162 0.00628597  
-0.00024711 -0.0104071  0.0280123 0.000119976 0.000617563  0.0062818  
-0.000207768 -0.0104176  0.0279926 0.000121835 0.000644799 0.00626695  
-0.000225822 -0.0104152  0.0279832 0.00013651 0.000651094 0.00629501  
-0.000216708 -0.0103777  0.0279775 7.97382e-05 0.000623874 0.00623146  
-0.000227258 -0.0104237  0.0279926 0.000140028 0.000651545 0.00630433  
-0.000216511 -0.0103901  0.0279886 8.55856e-05 0.00062094 0.00623931  
-0.000250845 -0.0103791  0.0279782 0.000101133 0.000618531 0.00627432  
-0.000249972 -0.0103894  0.0279877 0.000104637 0.000615123 0.00628213  
-0.000197469 -0.0104032  0.0279787 0.00013242 0.00065149 0.00624789  
-0.000218142  -0.010413  0.0279818 0.000149643 0.000656191 0.00628642  
-0.000208292 -0.0103725  0.0279749 9.89345e-05 0.00063157 0.00622157  
-0.000243699 -0.0103764  0.0279785 0.000116901 0.00062363  0.0062664  
-0.000161362  -0.010439  0.0280099 0.000194585 0.000721415  0.0062524  
-0.000157755 -0.0104251  0.0279905 0.000189465 0.000706287 0.00623992  
-0.000158364 -0.0104184  0.0280158 0.000168845 0.000716302 0.00622281  
-0.000153274 -0.0104001  0.0279907 0.000167252 0.000701184 0.00620987  
-0.000184712 -0.0104489  0.0280257 0.000170052 0.000692979  0.0062595  
-0.000174328 -0.0104458  0.0280199 0.000182082 0.000708388   0.006256  
-0.000183761 -0.0104309  0.0280299 0.000139325 0.000674889  0.0062209  
-0.000173107  -0.010427  0.0280257 0.000152846 0.000696375 0.00622165  
-0.000188262 -0.0104385   0.028006 0.000146683 0.000669397  0.0062619  
-0.000187152  -0.010444  0.0280154 0.000158662 0.000678772  0.0062586  
-0.000185439 -0.0104186  0.0280048 0.000116878 0.000650527 0.00622388  
-0.000184995  -0.010425  0.0280165 0.000128632 0.000660212 0.00621979  
-0.000182247 -0.0104191  0.0279842 0.000130588 0.000663705 0.00624675  
-0.000185892 -0.0104296  0.0279955 0.000137125 0.000666364 0.00625611  
-0.000181656 -0.0103944  0.0279808 9.80085e-05 0.000648559  0.0062135  
-0.000183784 -0.0104077  0.0279931 0.00010626 0.000649524  0.0062209  
-0.000173342 -0.0104136  0.0279786 0.000147019 0.000672458 0.00623589  
-0.000172192 -0.0103859   0.027974 0.00011823 0.000658505 0.00620239  
-0.000176478 -0.0104528  0.0279869 0.00032702 0.000842156 0.00630839  
-0.000165298 -0.0104585  0.0279926 0.000329618 0.000842802  0.0063004  
-0.000168279 -0.0104726  0.0279931 0.000309674 0.000824394 0.00631929  
-0.000157424 -0.0104549   0.027986 0.00032125 0.00083563 0.00628693  
-0.000161274 -0.0104701  0.0279876 0.000303946 0.000818866 0.00630712  
-0.000154116 -0.0104738  0.0279945 0.00030494 0.000819775 0.00630014  
-0.000147134 -0.0104696  0.0279869 0.000297762 0.000812238 0.00628714  
-0.000186982 -0.0104615  0.0279997 0.000326898 0.000847645  0.0063317  
-0.000172468 -0.0104723  0.0280101 0.000310721 0.000839212 0.00631888  
-0.000175351 -0.0104842  0.0280094 0.000295336 0.00082314  0.0063396  
-0.000169637 -0.0104659  0.0280018 0.000320992 0.00084136 0.00631103  
-0.000172495 -0.0104786  0.0280016 0.000303211 0.000824098 0.00633057  
-0.000163929 -0.0104859  0.0280119 0.000287474 0.000814861  0.0063197  
-0.000159757 -0.0104804  0.0280038 0.000296925 0.000817803 0.00631105  
-0.000185388 -0.0104725  0.0280119 0.000309405 0.000841975 0.00633552  
-0.000166402 -0.0104791  0.0280166 0.000291275 0.000822647 0.00631234  
-0.00016947 -0.0104904  0.0280148 0.00028057 0.000811007 0.00633405  
-0.000170247  -0.010476  0.0280133 0.000300367 0.000831821 0.00631468  
-0.000173257 -0.0104876  0.0280122 0.000287364 0.000817702 0.00633631  
-0.000159853   -0.01049   0.028015 0.000269059 0.000799002 0.00631488  
-0.000162767 -0.0104883  0.0280134 0.000277749 0.000807375 0.00631654  
-0.000172288 -0.0104751  0.0280099 0.00029863 0.000826166 0.00632228  
-0.000148254 -0.0104719  0.0280002 0.000282277 0.000805948 0.00629205  
-0.00015337 -0.0104845  0.0279996 0.000275915 0.000798813 0.00631226  
-0.000157793 -0.0104767  0.0280095 0.000286141 0.000813362  0.0063023  
-0.00016168 -0.0104884  0.0280081 0.000277636 0.000804196 0.00632321  
-0.000143503 -0.0104821   0.027998 0.000261148 0.000785031 0.00629335  
-0.000152152 -0.0104871  0.0280074 0.000264357 0.00079125 0.00630441  
-0.000162921 -0.0104627  0.0279915 0.000303136 0.000826485  0.0063039  
-0.000146199 -0.0104629  0.0279893 0.000290972 0.000814511 0.00628261  
-0.00015169 -0.0104771  0.0279905 0.000282725 0.000804424 0.00630346  
-0.000140259 -0.0104745  0.0279884 0.000269957 0.000792422 0.00628359  
-0.00019887 -0.0104587  0.0279914 0.000315665 0.000830896 0.00634278  
-0.000191742 -0.0104579  0.0279882 0.000311379  0.0008273 0.00633173  
-0.000182275 -0.0104718  0.0279926 0.000301446 0.000816453 0.00633542  
-0.000175494 -0.0104702  0.0279884 0.000297654 0.000812456 0.00632426  
-0.000202189 -0.0104705  0.0280062 0.000303905 0.000832537 0.00636196  
-0.000201213 -0.0104646  0.0279989 0.000310396 0.000831863 0.00635351  
-0.000187909 -0.0104827  0.0280079 0.000290004 0.000816875 0.00635564  
-0.000185774 -0.0104774  0.0280005 0.000296264 0.000816884 0.00634655  
-0.00019374 -0.0104794  0.0280148 0.000292837 0.000824159 0.00635546  
-0.000198685 -0.0104753  0.0280107 0.000297736 0.000829128 0.00635825  
-0.000180998 -0.0104897  0.0280142 0.000279174 0.000808404 0.00635024  
-0.000185248 -0.0104866  0.0280112 0.000284022 0.000813165 0.00635256  
-0.000178273 -0.0104755  0.0280019 0.000290871 0.00081358 0.00633523  
-0.000186014 -0.0104785  0.0280092 0.00029142 0.000818248 0.00634513  
-0.000166011 -0.0104849  0.0280004 0.000277386 0.000798904 0.00632891  
-0.000173587 -0.0104883  0.0280081 0.000277788 0.000803116 0.00633952  
-0.000178628 -0.0104677   0.027993 0.000295823 0.000817559 0.00632779  
-0.000165234 -0.0104779  0.0279919 0.000282631 0.000802586 0.00632085  
-0.000184137 -0.0104106  0.0279833 0.000381938 0.000889508 0.00627563  
-0.000243703 -0.0103898  0.0279858 0.000392386 0.00090888 0.00632519  
-0.000189482 -0.0104346  0.0279897  0.0003633 0.000871192 0.00630621  
-0.000219172 -0.0104026  0.0279865 0.000398793 0.000903634 0.00631083  
-0.00022339   -0.01043  0.0279893 0.000349148 0.000864951 0.00634583  
-0.000260178 -0.0103981  0.0279863 0.000381692 0.000895217  0.0063572  
-0.000181507 -0.0104321  0.0279852 0.00035392 0.000865252 0.00629283  
-0.000211454 -0.0104008  0.0279844 0.000388067 0.000898922 0.00629781  
-0.000216144 -0.0104298  0.0279875 0.00034298 0.000861519 0.00633467  
-0.000253428 -0.0103992  0.0279872 0.000374701 0.000893061 0.00634677  
-0.000221858 -0.0104173   0.027988 0.000371899 0.000882964 0.00633009  
-0.000214428 -0.0104165  0.0279861 0.000363533 0.000878874 0.00631807  
-0.000193181 -0.0104239  0.0279971 0.000383795 0.00089734 0.00629917  
-0.000247999  -0.010398  0.0279923 0.000395802 0.000917478 0.00634579  
-0.000191938 -0.0104505  0.0280069 0.000344703 0.000872625 0.00632301  
-0.000216737 -0.0104205  0.0280034 0.000380795 0.000910539  0.0063255  
-0.000223326 -0.0104436  0.0280039 0.000336242 0.000869498 0.00636305  
-0.000255083 -0.0104133  0.0280001 0.000370188 0.000905521 0.00637239  
-0.000191242 -0.0104429  0.0279985 0.000354915 0.000872089 0.00631626  
-0.00021824 -0.0104119  0.0279948 0.000390882 0.000907114 0.00632004  
-0.000223908 -0.0104368  0.0279965 0.000343543 0.000867286 0.00635579  
-0.000257916 -0.0104056  0.0279928 0.000376946 0.000900304 0.00636629  
-0.000220703 -0.0104328  0.0280037 0.000356783 0.000888745 0.00634622  
-0.000221688 -0.0104252  0.0279957 0.000365294 0.000885908 0.00633975  
-0.000189924 -0.0104388  0.0280133 0.000361108 0.00089197 0.00629817  
-0.000240732  -0.010414    0.02801 0.00038009 0.000920494 0.00634524  
-0.000184461 -0.0104605  0.0280184 0.000326556 0.000857209 0.00631466  
-0.000208345 -0.0104333  0.0280203 0.00036377 0.000895997 0.00631591  
-0.000213891 -0.0104547  0.0280163 0.000323612 0.000859758 0.00635519  
-0.000244693 -0.0104274  0.0280177 0.000359443 0.000897371 0.00636328  
-0.000188898 -0.0104558  0.0280126 0.000334842 0.00086648 0.00631773  
-0.000213111 -0.0104273  0.0280118 0.000371386 0.000905663 0.00631926  
-0.000219236 -0.0104495  0.0280102 0.000329167 0.000866047 0.00635839  
-0.000250372 -0.0104207   0.028009 0.00036394 0.000903561 0.00636679  
-0.000211796 -0.0104447  0.0280181 0.000342137 0.000876754 0.00633755  
-0.000216853 -0.0104391  0.0280109 0.000348632 0.000884568 0.00634086  
-0.00017555 -0.0104424   0.028015 0.000345429 0.00086662 0.00628703  
-0.000226258  -0.010421  0.0280154 0.000370818 0.000900367 0.00633369  
-0.000165067 -0.0104546  0.0280036 0.000317275 0.000836915 0.00629659  
-0.000188056 -0.0104285  0.0280073 0.000353365 0.000871717 0.00630096  
-0.000197386 -0.0104515  0.0280043 0.000319789 0.000845375   0.006337  
-0.000227953 -0.0104257  0.0280079 0.000355424 0.000880058 0.00634779  
-0.000175246 -0.0104589  0.0280123 0.000321602 0.000846002 0.00630542  
-0.000198692 -0.0104324  0.0280153 0.000358551 0.000882635 0.00630798  
-0.000205663 -0.0104543  0.0280113 0.000321375 0.000851655 0.00634572  
-0.000236306 -0.0104278  0.0280139 0.000357385 0.00088767 0.00635488  
-0.000193549 -0.0104408  0.0280056 0.000335222 0.000857786 0.00632074  
-0.000202923 -0.0104441  0.0280131 0.000338519 0.000866198 0.00632875  
-0.000164037 -0.0104248  0.0279913 0.000345899 0.00086549 0.00627065  
-0.000220132  -0.010407  0.0279965 0.000369499 0.000897068 0.00632053  
-0.000164851  -0.010444  0.0279914 0.000324019 0.000845505 0.00628801  
-0.000189686 -0.0104163  0.0279937 0.000357996 0.000880523 0.00629306  
-0.000199093 -0.0104425  0.0279944  0.0003243 0.000850588 0.00633014  
-0.000231689 -0.0104155  0.0279971 0.000357547 0.000884717 0.00634205  
-0.000195238 -0.0104305  0.0279941 0.000339696 0.000864564 0.00631342  
-0.000288315 -0.0104268  0.0279999 0.000233106 0.000700047 0.00641414  
-0.000280549 -0.0104448  0.0280089 0.000253585 0.000739995 0.00642791  
-0.000334234 -0.0104117  0.0280142 0.000217735 0.000676457  0.0064589  
-0.000283893 -0.0104368  0.0279997 0.000253801 0.000735613 0.00642382  
-0.000338248 -0.0104023  0.0280031 0.000219453 0.000671749  0.0064565  
-0.000337662 -0.0104161  0.0280126 0.000244575 0.00072316 0.00647483  
-0.000341668 -0.0104076  0.0280028 0.000245653 0.000718866 0.00647258  
-0.000289734 -0.0104378  0.0280138 0.000228249 0.000703833 0.00642138  
-0.000290339 -0.0104463  0.0280144 0.000245313 0.000738078 0.00643716  
-0.000342198 -0.0104128  0.0280163 0.000208201 0.000670226 0.00645941  
-0.00028492 -0.0104467  0.0280124 0.00024928 0.000739476 0.00643183  
-0.000337671 -0.0104136  0.0280163 0.000212483 0.000674033 0.00645836  
-0.000345172 -0.0104167  0.0280148 0.000235637 0.000719795 0.00647737  
-0.000340826 -0.0104176  0.0280146 0.000239684 0.000721911 0.00647539  
-0.00030097 -0.0104308  0.0280068 0.000220228 0.000696244 0.00642676  
-0.000301344 -0.0104331  0.0279983 0.000240318 0.000733013 0.00644129  
-0.000352408 -0.0103972  0.0279941 0.000202923 0.000664799  0.0064625  
-0.000296183 -0.0104399  0.0280065 0.00024267  0.0007349  0.0064384  
-0.000347513 -0.0104051  0.0280053 0.000205649 0.000666198 0.00646008  
-0.000355916 -0.0104017  0.0279948 0.000231255 0.000715189 0.00648052  
-0.000350719 -0.0104093  0.0280049 0.000233382 0.000716692 0.00647818  
-0.000307638 -0.0104179  0.0279914 0.000215298 0.000693478 0.00642418  
-0.000303668 -0.0104226  0.0279869 0.000240555 0.000730157 0.00642826  
-0.000356706 -0.0103864  0.0279829 0.000202722 0.000666657 0.00645482  
-0.000303186 -0.0104275  0.0279923 0.000239915 0.00073159 0.00643548  
-0.00035508 -0.0103913  0.0279878 0.000202063 0.000665888 0.00645941  
-0.000360222 -0.0103915  0.0279844 0.000231243 0.000713918 0.00647245  
-0.000358667 -0.0103961   0.027989 0.00023076 0.000714642 0.00647712  
-0.000302632 -0.0104142   0.027988 0.000221751 0.000693199 0.00641283  
-0.000298098 -0.0104244  0.0279891 0.00024524 0.000730193 0.00642361  
-0.000352249 -0.0103886  0.0279875 0.000209218 0.00066631 0.00645278  
-0.000355555 -0.0103941  0.0279887 0.000236471 0.000713567 0.00647018  
-0.00023719 -0.0104544  0.0279888 0.000236008 0.00073395 0.00637843  
-0.000219072 -0.0104627  0.0279897 0.00022003 0.000725623 0.00636136  
-0.000237283 -0.0104578  0.0279899 0.000246629 0.000753659 0.00638397  
-0.000212651 -0.0104623  0.0279881 0.000226004 0.000727008 0.00635339  
 -0.000231 -0.0104583  0.0279891 0.000250001 0.00075363 0.00637642  
-0.000207552 -0.0104718   0.027991 0.000240151 0.000749009 0.00636082  
-0.000201301 -0.0104713  0.0279888 0.00024412 0.00074944 0.00635234  
-0.000244718 -0.0104587  0.0279956 0.00023073 0.00073521 0.00639485  
-0.000222316 -0.0104732   0.028004 0.000221834 0.000729973 0.00638005  
-0.000238726 -0.0104679  0.0280029 0.000244996 0.000757349 0.00640162  
-0.000221385 -0.0104678  0.0279969 0.000220205 0.000727672 0.00637155  
-0.000238727 -0.0104625  0.0279963 0.000245468 0.000755465  0.0063936  
-0.000211629 -0.0104817  0.0280052 0.000239292 0.00075295 0.00638039  
-0.000210275 -0.0104766  0.0279981 0.000239285 0.000750905 0.00637139  
-0.000240305 -0.0104697  0.0280085   0.000234 0.000739344 0.00640022  
-0.000213869 -0.0104826  0.0280151 0.000230888 0.000738288 0.00637676  
-0.000228935 -0.0104781  0.0280138 0.000248576 0.000761251 0.00639731  
-0.000218767 -0.0104782  0.0280097 0.000226222 0.000733457 0.00637797  
-0.000234412 -0.0104733  0.0280085 0.00024651 0.000759001 0.00639912  
-0.000203711   -0.01049   0.028014 0.00024436 0.000757915 0.00637697  
-0.000208379 -0.0104861  0.0280098 0.000241563 0.000755086  0.0063784  
-0.000228523 -0.0104744  0.0280106 0.000241085 0.000744127 0.00639095  
-0.000200544 -0.0104786  0.0280041 0.000240241 0.000741647 0.00636054  
-0.000216858 -0.0104754  0.0280044 0.000255351 0.000761006 0.00638128  
-0.000207056 -0.0104817  0.0280104 0.000235708 0.000740625 0.00636842  
-0.000222561 -0.0104779  0.0280099 0.000251902 0.000761448 0.00638892  
-0.000190753  -0.010486  0.0280026 0.000251686 0.000758438 0.00635878  
-0.000197085  -0.010489   0.028009 0.000248053 0.000758565  0.0063677  
-0.000224599 -0.0104646  0.0279965 0.000244681 0.000739857 0.00637786  
-0.00020117 -0.0104714  0.0279949 0.000238629 0.00073577 0.00635313  
-0.000218516 -0.0104683  0.0279961 0.000255562 0.000757613 0.00637512  
-0.000190993 -0.0104794  0.0279943 0.000251346 0.000754573 0.00635135  
-0.000199495 -0.0103976  0.0279781 0.000126497   0.000648  0.0062438  
-0.000218299 -0.0103744   0.027977 7.59662e-05 0.000621707 0.00622917  
 -0.000185 -0.0104147  0.0279835 0.00012537 0.000659766 0.00624415  
-0.000209905 -0.0103691  0.0279746 9.54269e-05 0.000629392 0.00621931  
-0.000176061  -0.010409  0.0279782 0.000142146 0.000668544 0.00623336  
-0.000182703 -0.0103918  0.0279804 9.47176e-05 0.000646546 0.00621159  
-0.000173216 -0.0103833  0.0279737 0.000115178 0.000656488 0.00620049  
-0.000209526 -0.0104125  0.0279919 0.000115632 0.000640808 0.00626252  
-0.000217721  -0.010398  0.0280001 9.07073e-05 0.00061517 0.00623982  
-0.000190473 -0.0104345  0.0280056 0.000141571 0.000664596 0.00625881  
-0.000217892  -0.010387  0.0279882 8.1839e-05 0.000618425  0.0062369  
-0.000188329 -0.0104254   0.027995 0.00013195 0.000662016 0.00625332  
-0.000186207 -0.0104164  0.0280046 0.000113667 0.000647992 0.00622167  
-0.000184659 -0.0104054  0.0279927 0.000103019 0.000647262 0.00621888  
-0.000208716 -0.0104289  0.0280143 0.000135213 0.000648877 0.00626348  
-0.000215085 -0.0104136  0.0280307 0.000110043 0.000636789 0.00623518  
-0.000187024 -0.0104454  0.0280262 0.000164705 0.000688154 0.00625622  
-0.000216821 -0.0104061  0.0280147 0.000101082 0.000622975 0.00623514  
-0.000189389 -0.0104403  0.0280154 0.000153467 0.000673853 0.00625535  
-0.000184625 -0.0104289  0.0280303 0.00013597 0.000672335  0.0062186  
-0.000185794  -0.010423  0.0280166 0.000125371 0.000657639 0.00621751  
-0.000195433 -0.0104329  0.0280225 0.000155956 0.000679132 0.00626132  
-0.000189484 -0.0104043  0.0280191 0.000135022 0.000677975 0.00623764  
-0.000163314 -0.0104354  0.0280107 0.000189536 0.000717979 0.00625008  
-0.000204162 -0.0104112  0.0280277 0.000121359 0.000658637 0.00623596  
-0.000176527 -0.0104423  0.0280207 0.000176791 0.000704236 0.00625314  
-0.000159047 -0.0104163  0.0280164 0.000165698 0.000714666 0.00622117  
-0.000173927  -0.010425  0.0280262 0.00014953 0.000694268 0.00621966  
-0.000180295 -0.0104121  0.0279931 0.000164818 0.000678811 0.00624835  
-0.000187044 -0.0103868  0.0279948 0.000135881 0.000664187 0.00622667  
-0.000159731 -0.0104211  0.0279908 0.000184875 0.000702824 0.00623768  
-0.000153924 -0.0103978  0.0279909 0.00016441 0.000699556 0.00620824  
-0.000174731 -0.0104496  0.0280081 0.000200627 0.000717609  0.0062831  
-0.00017255  -0.010438  0.0279921 0.000196279 0.000705022 0.00627221  
-0.000195142 -0.0104575  0.0280227 0.000181037 0.00069671  0.0062934  
-0.000185782 -0.0104552  0.0280171 0.000190821 0.000708367 0.00628822  
-0.000200088 -0.0104473  0.0280052 0.000160731 0.000676884 0.00629597  
-0.000198315 -0.0104527  0.0280137 0.00017111 0.00068486 0.00629316  
-0.00019493 -0.0104309  0.0279855 0.000148738 0.000672206 0.00627926  
-0.000198082 -0.0104395  0.0279956 0.000153333 0.000674331  0.0062891  
-0.000186897 -0.0104272  0.0279816 0.00016247 0.000678786 0.00626941  
-0.000207092 -0.0103829  0.0279835 0.000440105 0.000926433 0.00627635  
-0.000138662 -0.0104124  0.0279905 0.000394464 0.000891116 0.00621882  
-0.000166412 -0.0104265  0.0279903 0.000374754 0.000879835 0.00626909  
-0.000199643 -0.0103787  0.0279808 0.000425123 0.000920308 0.00626181  
-0.000128805 -0.0104006  0.0279777 0.000378706 0.000879307 0.00620185  
-0.000157404 -0.0104207  0.0279825 0.000362472 0.000871132 0.00625379  
-0.000169552 -0.0103992  0.0279868 0.000414008 0.000910003 0.00624516  
-0.000160871  -0.010391   0.027979 0.000398235 0.000900929 0.00622938  
-0.00020277 -0.0104053  0.0280032 0.000418792 0.000937737 0.00628776  
-0.000144656 -0.0104375  0.0280131 0.000361601 0.000883225 0.00622481  
-0.000171249 -0.0104454  0.0280098 0.000349518 0.000876223 0.00628296  
-0.00020467 -0.0103948  0.0279931 0.000430366 0.000932219 0.00628445  
-0.000142176 -0.0104267  0.0280028 0.000378035 0.000887291 0.00622392  
-0.000169512 -0.0104368  0.0280006 0.000362944 0.000878216 0.00627793  
-0.000170332 -0.0104231  0.0280083 0.00038688 0.000911843 0.00625414  
-0.000170045 -0.0104124  0.0279979 0.000400927 0.000911074 0.00625193  
-0.000196558 -0.0104192  0.0280241 0.000400165 0.000919997 0.00627729  
-0.000141311 -0.0104454  0.0280242 0.000335987 0.000857727 0.00621662  
-0.000165362 -0.0104542  0.0280207 0.000326276 0.000855065 0.00627463  
-0.000200165 -0.0104126  0.0280134 0.000408467 0.000931494 0.00628068  
-0.000143402 -0.0104418  0.0280178 0.000348099 0.000871975 0.00621807  
-0.000168971 -0.0104502  0.0280149 0.000337167 0.000867386   0.006277  
-0.000165634 -0.0104338  0.0280244 0.00036455 0.000889945 0.00624494  
-0.000168445 -0.0104288  0.0280157 0.000374865 0.000902986 0.00624727  
-0.000173381  -0.010412  0.0280108 0.000383667 0.000884763 0.00626722  
-0.000117762 -0.0104299  0.0280058 0.000311014 0.000819024 0.00620955  
-0.000143494 -0.0104448  0.0280034 0.000310301 0.00082821 0.00625928  
-0.000186123 -0.0104174  0.0280195 0.000392574 0.000901068  0.0062718  
-0.000131268   -0.01044  0.0280172 0.00032411 0.00083788 0.00621317  
-0.000155369 -0.0104512  0.0280137 0.000318054 0.000840565 0.00626697  
-0.000141989 -0.0104223  0.0280084 0.00034325 0.000852417 0.00623666  
-0.000155295 -0.0104302  0.0280186 0.000354577 0.000870282 0.00624059  
-0.00017445 -0.0103964  0.0279933 0.000386583 0.000895272 0.00625818  
-0.000112604 -0.0104114  0.0279845 0.000320581 0.000833595 0.00619766  
-0.000141229 -0.0104318  0.0279882 0.000319671 0.000840654 0.00624893  
-0.000139887 -0.0104052  0.0279888 0.000349317 0.000865174 0.00622598  
-0.000237606  -0.010435  0.0279896 0.000326335 0.000843931 0.00636918  
-0.000230771 -0.0104356  0.0279887 0.000322779 0.000841603 0.00635946  
-0.000237285  -0.010447   0.028003 0.00031683 0.00084872  0.0063864  
-0.000238058 -0.0104408  0.0279962 0.000322191 0.000846352 0.00637891  
-0.000227251 -0.0104582  0.0280149 0.000308471 0.000842835 0.00637943  
-0.000232844 -0.0104529  0.0280091 0.000311979 0.000846791 0.00638239  
-0.000212772 -0.0104558  0.0280044 0.000308104 0.000832634 0.00636166  
-0.000219839 -0.0104581  0.0280105 0.000307994 0.000837121 0.00637013  
-0.000214886 -0.0104478  0.0279956 0.000311346 0.00083536 0.00635556  
-0.000115189 -0.0104403  0.0279842 0.000284422 0.00080725 0.00622309  
-0.000115245 -0.0104306  0.0280052 0.000305001 0.000813793 0.00620676  
-0.000137502 -0.0104497  0.0280021 0.000297152 0.000816749 0.00625618  
-0.000109676 -0.0104121  0.0279839 0.000315053 0.000828509 0.00619471  
-0.000134479 -0.0104372  0.0279872 0.000307515 0.000829412 0.00624548  
-0.00013964 -0.0104246  0.0280077 0.000336842 0.000847092 0.00623507  
-0.000137208 -0.0104076  0.0279883 0.000343492    0.00086 0.00622428  
-0.000132325 -0.0104615  0.0280116 0.000280888 0.000805603 0.00624318  
-0.000138587 -0.0104466   0.028024 0.000330388 0.000852289 0.00621378  
-0.000159016 -0.0104598  0.0280202 0.000313337 0.000842498 0.00627222  
-0.000128663 -0.0104409  0.0280168 0.000318279 0.000832593 0.00621042  
-0.000149201 -0.0104564  0.0280127 0.000304892 0.000828609 0.00626434  
-0.000163106 -0.0104365  0.0280241 0.000358209 0.000883985 0.00624371  
-0.000152847 -0.0104326  0.0280181 0.000348135 0.000864665 0.00623923  
-0.000144503  -0.010464  0.0280168 0.000303822 0.000833445 0.00625175  
-0.000141704 -0.0104393  0.0280138 0.000356356 0.000878232  0.0062217  
-0.000164524 -0.0104522  0.0280112 0.000337343 0.000864365 0.00628002  
-0.000140561 -0.0104433   0.028018 0.000342709 0.000866643 0.00621506  
-0.000162459 -0.0104564  0.0280153 0.000324665 0.00085493 0.00627433  
-0.00016769 -0.0104262  0.0280089 0.000380948 0.000906248 0.00625272  
-0.000165872 -0.0104317  0.0280159 0.000368755 0.00089711 0.00624594  
-0.000141343 -0.0104529  0.0280055 0.000333026 0.000851423 0.00625261  
-0.000134851 -0.0104142  0.0279912 0.00038976 0.000887576 0.00621606  
-0.000157864 -0.0104338  0.0279915 0.000363266 0.00087053 0.00626588  
-0.000138859 -0.0104285  0.0280036   0.000373 0.000883029 0.00622094  
-0.000162006 -0.0104439  0.0280021 0.000351057 0.000867672 0.00627477  
-0.000166046 -0.0104025  0.0279875 0.000408506 0.000905786 0.00624371  
-0.000167047 -0.0104156  0.0279987 0.000395181 0.000906177 0.00625044  
-0.000125277 -0.0104335  0.0279818 0.00033475 0.000845532 0.00622806  
-0.000124909 -0.0104019  0.0279776 0.000374114 0.00087535 0.00619899  
-0.000148707 -0.0104275  0.0279827 0.000351302 0.000861193  0.0062504  
-0.000157266 -0.0103941  0.0279791 0.000392953 0.000896396 0.00622784  
-0.000292854 -0.0104253  0.0279885 0.000228272 0.000706795 0.00641353  
-0.000358492 -0.0103911  0.0279834 0.000211715 0.000675692 0.00645443  
-0.000300291  -0.010426  0.0279872 0.000242055 0.000737152 0.00642796  
-0.00035398 -0.0103933  0.0279878 0.000217951 0.00067533 0.00645228  
-0.000294669 -0.0104279  0.0279892 0.000246485 0.000737167 0.00642318  
-0.000361199 -0.0103939  0.0279845 0.000235898 0.000716329 0.00647179  
-0.000356531 -0.0103965  0.0279888 0.000241044 0.000715967 0.00646951  
-0.000298186 -0.0104289  0.0279922 0.000222212 0.000707539 0.00642554  
-0.000354347 -0.0104017  0.0279944 0.000211871 0.000674395 0.00646244  
-0.000298074 -0.0104364  0.0279986 0.000241653 0.000740403  0.0064413  
-0.000356962 -0.0103959  0.0279882 0.00021108 0.00067519 0.00645916  
-0.000299874 -0.0104309  0.0279926 0.000241375 0.000738773 0.00643533  
-0.000356896  -0.010404  0.0279948 0.000235907 0.000717764 0.00647985  
-0.00035965 -0.0103984   0.027989 0.00023543 0.000717132 0.00647645  
-0.000291613 -0.0104414  0.0280069 0.000226604 0.000710704  0.0064286  
-0.000344041 -0.0104172   0.028016 0.000217017 0.000679668 0.00645933  
-0.000287012 -0.0104495  0.0280142 0.000246392 0.000745237 0.00643714  
-0.000349405 -0.0104096  0.0280053 0.000214504 0.000675814 0.00646004  
-0.000292888 -0.0104432  0.0280065 0.000243849 0.000742253 0.00643841  
-0.000346131  -0.010419  0.0280147 0.000240231 0.000722308 0.00647671  
-0.000351685 -0.0104116  0.0280049 0.000237997 0.000719268 0.00647753  
-0.000280297  -0.010448   0.028013 0.000234358 0.000717209 0.00642251  
-0.000336129  -0.010416  0.0280137 0.00022644 0.000685286 0.00645818  
-0.000277203  -0.010448  0.0280085 0.000254525 0.000746642 0.00642733  
-0.000339531  -0.010418  0.0280158 0.000221262 0.000683131 0.00645797  
-0.000281581 -0.0104499  0.0280121  0.0002503 0.00074634 0.00643154  
-0.000338662 -0.0104184  0.0280126 0.000249165 0.000725506 0.00647409  
-0.000341805 -0.0104199  0.0280145 0.000244274 0.00072433 0.00647469  
-0.000278795 -0.0104375  0.0279995 0.000238919 0.000713208 0.00641438  
-0.000340098 -0.0104069  0.0280029 0.00022799 0.000680644  0.0064557  
-0.000280512 -0.0104401  0.0279996 0.000254677 0.000742389 0.00642316  
-0.00034267   -0.01041  0.0280028 0.000250193 0.000721221 0.00647185  
-0.000287994 -0.0104213  0.0279856 0.000201574 0.000686148 0.00639585  
-0.000282149 -0.0104224  0.0279874 0.000208569 0.000687008 0.00639073  
-0.000343348  -0.010385  0.0279821 0.000186499 0.00065145 0.00642219  
-0.000338656 -0.0103868  0.0279864 0.000193953 0.000651519 0.00641939  
-0.00028653 -0.0104329  0.0279987 0.000203704 0.00068729 0.00640966  
-0.000287881 -0.0104269  0.0279919 0.000201671 0.000686712 0.00640363  
-0.000339195 -0.0103968  0.0279943 0.000187463 0.000647923  0.0064309  
-0.000341697 -0.0103905  0.0279874 0.000186032 0.000649852 0.00642747  
-0.000276431 -0.0104463  0.0280166 0.000212521 0.000695528  0.0064058  
-0.000281916 -0.0104399  0.0280077 0.00020817 0.000690062 0.00640671  
-0.00032955 -0.0104128  0.0280179 0.000193996 0.000654768 0.00642739  
-0.000334663 -0.0104049  0.0280062 0.000190923  0.0006497 0.00642816  
-0.000264622 -0.0104436  0.0280097 0.000222495 0.000701775 0.00639727  
-0.000270182 -0.0104463  0.0280141 0.000217435 0.000699433 0.00640083  
-0.000319645  -0.010411  0.0280145 0.00020395 0.000663628 0.00642646  
-0.000324205 -0.0104133  0.0280174 0.000198518 0.000660122 0.00642614  
-0.0002674 -0.0104347  0.0279989 0.000222073 0.00069548 0.00639203  
-0.000323476  -0.010401  0.0280025 0.000205633 0.000658168 0.00642324  
-0.000284084 -0.0103589  0.0279822 0.00042911 0.000936867 0.00634532  
-0.00027844 -0.0103603  0.0279855 0.000418585 0.000935204 0.00633431  
-0.000244586  -0.010371  0.0279827 0.000432652 0.000931397 0.00630727  
-0.000238109 -0.0103694   0.027983 0.000419763 0.000927584 0.00629455  
-0.000274318 -0.0103764  0.0279967 0.000418694 0.000956606 0.00635842  
-0.000278858 -0.0103675  0.0279884 0.00042508 0.000946586 0.00635388  
-0.000237547 -0.0103912      0.028 0.000416542 0.000946892  0.0063195  
-0.000240751 -0.0103814  0.0279907 0.000425643 0.000939132  0.0063156  
-0.000265098 -0.0103928  0.0280207 0.000408356 0.000947596 0.00634861  
-0.000270147 -0.0103849  0.0280089 0.000412513 0.000954858 0.00635245  
-0.000229946 -0.0104062  0.0280226 0.000401866 0.000933404 0.00630941  
-0.000234217  -0.010399  0.0280112 0.000408192 0.000942859 0.00631296  
-0.000246802 -0.0103913  0.0280118 0.000400471 0.000922352 0.00633667  
-0.000256208 -0.0103934  0.0280177 0.000404959 0.000933382 0.00634211  
-0.000209212 -0.0104015  0.0280113 0.00038939 0.000903131 0.00629872  
-0.000220293 -0.0104055  0.0280187 0.000396235 0.000916791 0.00630355  
-0.000252101 -0.0103798  0.0279995 0.000399454 0.000927404 0.00633056  
-0.000212391 -0.0103878  0.0279963 0.000390425  0.0009111  0.0062911  
-0.000312707 -0.0103913  0.0280106 0.000363921 0.000909626 0.00641897  
-0.000318856 -0.0103831  0.0280023 0.000361994 0.000909299 0.00641548  
-0.000322295    -0.0104  0.0280102 0.00033694 0.000877333 0.00644362  
-0.000327749 -0.0103923  0.0280023 0.000335703 0.000875859 0.00644068  
-0.000324272 -0.0103899  0.0280157 0.000363034 0.000921918  0.0064304  
-0.000318024 -0.0103915  0.0280141 0.000363686 0.00091483 0.00642424  
-0.000332249 -0.0103987  0.0280144 0.000333512 0.000885515 0.00645378  
-0.000326727 -0.0104002  0.0280132 0.00033525 0.000880851 0.00644824  
-0.000335833 -0.0103739  0.0279946 0.000365536 0.000922953 0.00643749  
-0.0003303 -0.0103822  0.0280055 0.000363532 0.000924205 0.00643338  
-0.000343954 -0.0103833   0.027995 0.000334183 0.000884934 0.00645971  
-0.0003383 -0.0103913   0.028005 0.00033323 0.000886411  0.0064562  
-0.000345219 -0.0103615  0.0279845 0.000368541 0.000906541 0.00642586  
-0.000340674 -0.0103671  0.0279885 0.00036782 0.000914457 0.00643288  
-0.000351693  -0.010372  0.0279855 0.000336346 0.000872341 0.00644897  
-0.000348183 -0.0103771  0.0279893 0.000335773 0.000878424 0.00645528  
-0.000340258 -0.0103655  0.0279897 0.000364867 0.000906879 0.00641897  
-0.000346655  -0.010376  0.0279902 0.000335064 0.00087254 0.00644339  
-0.000285768 -0.0104287  0.0280114 0.000211755 0.000686504 0.00640772  
-0.000289059 -0.0104194  0.0280002 0.000212118 0.000680468 0.00640323  
-0.000326665 -0.0104046  0.0280155 0.000200648 0.000654126 0.00643161  
-0.000330737 -0.0103944  0.0280033 0.000202789 0.000648871  0.0064288  
-0.000296934 -0.0104311  0.0280171 0.000201914 0.000679382 0.00641373  
-0.000290967 -0.0104313  0.0280152 0.000206657 0.000683763 0.00640991  
-0.000336182 -0.0104062  0.0280182 0.000190668 0.000644779 0.00643109  
-0.000331015 -0.0104068  0.0280181 0.000195132 0.000650407 0.00643055  
-0.000307088 -0.0104166  0.0279971 0.000193917 0.000671622 0.00641763  
-0.000302389 -0.0104241  0.0280071 0.00019803 0.000673982 0.00641454  
-0.00034576 -0.0103897  0.0279935 0.000184575 0.000638239 0.00643452  
-0.000341235 -0.0103981  0.0280059 0.000187839 0.000639807 0.00643183  
-0.00030974 -0.0104049  0.0279843 0.000192228 0.000672128 0.00640543  
-0.000308974 -0.0104105  0.0279903 0.000192064 0.000671923 0.00641241  
-0.000350471 -0.0103779  0.0279814 0.00018392 0.000642718 0.00642676  
-0.000348502 -0.0103833  0.0279866 0.000183288 0.000640679 0.00643158  
-0.000304267 -0.0104063  0.0279871 0.000199343 0.000672696 0.00640121  
-0.00034602 -0.0103798  0.0279862 0.000191507 0.000642622 0.00642441  
-0.000277519 -0.0103946  0.0280105 0.000374724 0.000909387 0.00637734  
-0.000283031  -0.010385  0.0280006 0.000373819 0.000911691  0.0063727  
-0.000292068 -0.0103947  0.0280177 0.000377435 0.000926593 0.00638966  
-0.000284633 -0.0103958  0.0280152 0.000376353 0.000916787 0.00638299  
-0.000302578 -0.0103789  0.0279961 0.000383841 0.000931369 0.00639804  
-0.000297676 -0.0103871  0.0280071 0.000379772 0.000931144 0.00639304  
-0.000311415 -0.0103643   0.027984 0.000390751 0.000914775 0.00638542  
-0.000306992 -0.0103712   0.027989 0.000388233 0.000922846 0.00639325  
-0.000306016 -0.0103669   0.027988 0.000384344 0.000914202 0.00637661  
-0.000124539  -0.010463  0.0279858 0.00026372 0.000789284 0.00625299  
-0.000133989 -0.0104752  0.0279949 0.000229017 0.000755482 0.00626984  
-0.000125296 -0.0104622  0.0279988 0.000262629 0.000786808 0.00624855  
-0.000119823 -0.0104514  0.0279963 0.00023322  0.0007614  0.0062275  
-0.000128186 -0.0104677  0.0279851 0.000240856 0.000764847 0.00625878  
-0.000120311 -0.0104508   0.027985 0.000274468 0.000799007 0.00623712  
-0.000112873 -0.0104393  0.0279817 0.000247913 0.000775449 0.00621503  
-0.00012712 -0.0104628  0.0279956 0.000230627 0.000758753 0.00624824  
-0.000120713  -0.010453  0.0279834 0.000243744 0.000770265  0.0062365  
-0.000139179 -0.0104788  0.0280082 0.00025817 0.000787109 0.00627447  
-0.000149655 -0.0104866  0.0280143 0.000241433 0.000770838 0.00629061  
-0.000145143  -0.010474  0.0280184 0.000279418 0.000810174 0.00626593  
-0.000138869 -0.0104668  0.0280178 0.000253818 0.000785126 0.00624283  
-0.000142562 -0.0104819  0.0280055 0.000234237 0.000762415 0.00628095  
-0.000136223 -0.0104696  0.0280101 0.000270473 0.000797636 0.00625772  
-0.000130501 -0.0104607  0.0280086 0.00024287 0.000772559 0.00623604  
-0.000144369 -0.0104762   0.028016 0.00024729 0.000778487 0.00626624  
-0.000136697 -0.0104708   0.028007 0.000238169 0.000767922 0.00625805  
-0.000150078 -0.0104816  0.0280153 0.000277205 0.00080853 0.00628518  
-0.000150752 -0.0104862  0.0280161 0.000264554 0.000791788 0.00629375  
-0.000148659 -0.0104696  0.0280146 0.000304695 0.000833491 0.00627189  
-0.00014113 -0.0104653  0.0280184 0.000281436 0.000811728 0.00624737  
-0.000151106 -0.0104868   0.028015 0.00025265 0.000781239 0.00629106  
-0.000147663 -0.0104722  0.0280161 0.000291526 0.000822538 0.00626725  
-0.000140701 -0.0104664  0.0280175 0.000267282 0.000798629 0.00624295  
 -0.000146 -0.0104753  0.0280173 0.000272709 0.000802303 0.00627007  
-0.000145974 -0.0104761  0.0280163 0.000259656 0.000790424 0.00626653  
-0.000145751 -0.0104732  0.0280058 0.000301927 0.000824355 0.00628171  
-0.000136029 -0.0104741  0.0279976 0.000286066 0.000803141 0.00627592  
-0.000137407 -0.0104529  0.0279945 0.000331016 0.000844197 0.00625717  
-0.000125839 -0.0104477  0.0279977 0.000311871 0.000830263 0.00623606  
-0.000144262 -0.0104811  0.0280079 0.000275959 0.000798239 0.00628587  
-0.000143955 -0.0104623  0.0280055 0.000318456 0.00083931  0.0062661  
-0.000134769  -0.010458  0.0280095 0.000296922 0.000821471 0.00624316  
-0.000131087 -0.0104604  0.0279976 0.000298595 0.000817204 0.00625557  
-0.000139592 -0.0104691  0.0280088  0.0002861 0.000810398 0.00626405  
-0.00013078 -0.0104588   0.027985 0.000302904 0.00081838 0.00625703  
-0.00012938  -0.010467  0.0279865 0.000277416 0.000792263 0.00626206  
-0.000128714 -0.0104451  0.0279833 0.000319516 0.000833008 0.00624159  
-0.00011676  -0.010437  0.0279826 0.000300357 0.000816592 0.00621974  
-0.000123262 -0.0104515  0.0279845 0.000288374 0.000804831 0.00624049  
-0.000106413 -0.0104323  0.0280003 0.000252922 0.000776895 0.00619412  
-9.84946e-05 -0.0104144  0.0279799 0.00026621 0.000791956 0.00618116  
-0.000126955 -0.0104518  0.0280214 0.000280067 0.000810995  0.0062009  
-0.0001183 -0.0104444  0.0280129 0.000266878 0.000793794 0.00619816  
-0.000129133 -0.0104488  0.0280189 0.00030712 0.000838723 0.00620634  
-0.000128409 -0.0104506  0.0280191 0.000293201 0.000825384 0.00620076  
-0.000116599 -0.0104251   0.027997 0.000342643 0.00085907 0.00620312  
-0.000124013  -0.010439  0.0280096 0.000324371 0.000848936 0.00620633  
-0.000106184 -0.0104099  0.0279785 0.000329069 0.000844788 0.00618591  
-0.000137405 -0.0104749  0.0279985 0.000264832 0.000789827 0.00627926  
-0.000133912  -0.010466  0.0279875 0.000274955 0.000799253   0.006269  
-0.000138278 -0.0104817  0.0279966 0.000246864 0.000771661 0.00628424  
-0.000133881 -0.0104744  0.0279871 0.000256808 0.000779685  0.0062739  
-0.000155402 -0.0104837  0.0280164 0.000275725 0.00080696 0.00629978  
-0.000147009 -0.0104805  0.0280086 0.000269528 0.000797494 0.00628984  
-0.000154192 -0.0104911  0.0280146 0.000256372 0.000785902 0.00630572  
-0.000146821 -0.0104873  0.0280065 0.00025077 0.00077804 0.00629546  
-0.000159959 -0.0104789  0.0280124 0.000297266 0.000825784 0.00630542  
-0.000158532 -0.0104816  0.0280143 0.000285946 0.000816985 0.00630156  
-0.000156797 -0.0104887  0.0280137 0.000276487 0.000803614 0.00630968  
-0.000156392 -0.0104902  0.0280141 0.00026599 0.000794968 0.00630684  
-0.000150005 -0.0104652  0.0279941 0.000317957 0.000832569 0.00628709  
-0.000155815 -0.0104727   0.028004 0.00030839 0.000829655  0.0062976  
-0.000144803 -0.0104769  0.0279958 0.000295299 0.000811007 0.00629049  
-0.00015157 -0.0104835  0.0280055 0.000286581 0.000807916 0.00630115  
-0.000142184 -0.0104603  0.0279857 0.00030902 0.000823882 0.00627308  
-0.000138072 -0.0104714  0.0279868 0.000287654 0.000802205 0.00627721  
-0.000118213 -0.0104246  0.0279964 0.000346999 0.000861786 0.00620525  
-0.000107815 -0.0104098  0.0279785 0.000333281 0.000847765 0.00618805  
-0.00013022 -0.0104483  0.0280183 0.000311771 0.00084251 0.00620892  
-0.000125318 -0.0104385   0.028009 0.000328931 0.000852191 0.00620873  
-0.000127904 -0.0104518  0.0280216 0.000284831 0.000814988 0.00620324  
-0.000129436 -0.0104504   0.028019 0.000297882 0.000829366 0.00620325  
-0.000107071 -0.0104328  0.0280008 0.000258001 0.000780614 0.00619626  
-0.000119107 -0.0104446  0.0280133 0.000271805 0.000797612 0.00620035  
-9.9388e-05 -0.0104149  0.0279803   0.000271 0.000795663 0.00618338  
-0.000306008  -0.010364  0.0279837 0.000397776 0.000918624 0.00637859  
-0.000300542 -0.0103665  0.0279876 0.000390696 0.000917889  0.0063694  
-0.000297053 -0.0103791  0.0279962 0.00039026 0.000935626 0.00639137  
-0.000301475 -0.0103713  0.0279889 0.000394997 0.000926907 0.00638658  
-0.000286753  -0.010395  0.0280182 0.000383194 0.000930113 0.00638276  
-0.000292271 -0.0103874  0.0280074 0.000385835 0.00093514 0.00638622  
-0.000271539 -0.0103948  0.0280107 0.000379653 0.000911604 0.00637045  
-0.000279057  -0.010396  0.0280156 0.000381742 0.000919591  0.0063761  
-0.000276993 -0.0103848  0.0280004 0.000378739 0.000914422 0.00636554  
-0.000228187 -0.0104059   0.027982 0.000125687 0.000642673 0.00628508  
-0.000220418 -0.0104034  0.0279806 0.000139795 0.000648152 0.00627645  
-0.000251973 -0.0103737  0.0279774 9.45197e-05 0.000614036 0.00626861  
-0.000244827 -0.0103708  0.0279778 0.000110891 0.00061927 0.00626064  
-0.000229447 -0.0104236  0.0280013 0.000136631 0.000642415 0.00629975  
-0.000229252 -0.0104151  0.0279916 0.000129534 0.000642481 0.00629409  
-0.000249803 -0.0103941  0.0279977 0.000104881 0.00060605 0.00627981  
-0.000250835 -0.0103843   0.027987 9.81261e-05 0.000610107 0.00627629  
-0.000223547  -0.010437  0.0280246 0.000155069 0.000660935 0.00629591  
-0.000227095 -0.0104307  0.0280127 0.000146242 0.000648991 0.00629597  
-0.00024526 -0.0104103   0.028028 0.000121151 0.000624016 0.00627521  
-0.000247995 -0.0104024  0.0280125 0.000113649 0.000612035 0.00627554  
-0.000202651 -0.0104303  0.0280123 0.000173739 0.000684762 0.00628966  
-0.000213889 -0.0104355  0.0280203 0.000164193 0.000674149 0.00629235  
-0.000223206 -0.0104033   0.028018 0.000141319 0.000656297 0.00627598  
-0.000235424 -0.0104088  0.0280255 0.000130379 0.000641677 0.00627507  
-0.000202091 -0.0104174  0.0279948 0.000171454 0.000672368 0.00627999  
-0.000223185 -0.0103879  0.0279973 0.000142452 0.000644485   0.006267  
-0.000166772 -0.0104422  0.0279914 0.00035224 0.00086211 0.00628528  
-0.000158449 -0.0104375  0.0279843 0.000341761 0.000854093 0.00627095  
-0.000172611 -0.0104585  0.0280099 0.000330428 0.000858958 0.00630142  
-0.000170359  -0.010451  0.0280012 0.00034215 0.00086083 0.00629499  
-0.000166714 -0.0104663  0.0280186 0.000309192 0.000840166 0.00629395  
-0.000170397 -0.0104628  0.0280141 0.000319116 0.000850836 0.00629636  
-0.00014681 -0.0104581  0.0280018 0.000296693 0.000818243 0.00627615  
-0.000157475 -0.0104636  0.0280116 0.000302546  0.0008282 0.00628511  
-0.000144709 -0.0104471  0.0279888 0.000305441 0.000828481 0.00626636  
-0.000199948 -0.0104227  0.0279844 0.000139544 0.000663823 0.00627391  
-0.000191817 -0.0104188  0.0279807 0.000153933 0.000670545 0.00626412  
-0.00020433   -0.01044  0.0280044 0.00015205 0.000667384  0.0062898  
-0.000202663 -0.0104318  0.0279946 0.000144348 0.000665429 0.00628345  
-0.000199474  -0.010451  0.0280237 0.000172452 0.000687591 0.00628693  
-0.000202568 -0.0104458  0.0280138 0.000162538 0.000675335 0.00628669  
-0.000178393  -0.010443  0.0280095 0.00019271 0.000710769 0.00627823  
-0.00018987 -0.0104487  0.0280185 0.000182459 0.000700414 0.00628248  
-0.000176295 -0.0104306  0.0279924 0.000188794 0.000697826 0.00626734  
-0.000244851 -0.0104554  0.0280074 0.000233082 0.000719836 0.00639094  
-0.000246979 -0.0104473  0.0279976 0.000232302 0.00071401 0.00638519  
-0.000247279 -0.0104446  0.0280092 0.000213249 0.000697587  0.0063756  
-0.00024938 -0.0104355  0.0279979 0.000212455 0.000690576 0.00636952  
-0.000256651 -0.0104583  0.0280155 0.000223748 0.000715587 0.00640231  
-0.000250418 -0.0104581  0.0280124 0.000228406 0.000718416 0.00639613  
-0.000260533  -0.010448  0.0280175 0.000202445 0.000689467 0.00638497  
-0.000253728 -0.0104477  0.0280144 0.000207793 0.00069445 0.00637974  
-0.000266428 -0.0104464  0.0280006 0.000215479 0.000707852 0.00640596  
-0.00026205 -0.0104526  0.0280082 0.000219568 0.000710758 0.00640347  
-0.000269766 -0.0104352  0.0279998 0.000192176 0.000679722 0.00638868  
-0.000265667 -0.0104418  0.0280087 0.00019741 0.000683156 0.00638591  
-0.000266222 -0.0104356  0.0279874 0.000213926 0.000705271 0.00639066  
-0.000266993 -0.0104407  0.0279938 0.000213911 0.000706519 0.00639915  
-0.000270104 -0.0104231  0.0279857 0.000189113 0.00067887 0.00637405  
-0.000270509 -0.0104289  0.0279925 0.000189602 0.000679269 0.00638235  
-0.00026023 -0.0104362   0.027988 0.000220121 0.000706101 0.00638461  
-0.000264004 -0.0104235  0.0279866 0.000196999 0.000680354 0.00636805  
-0.000241824 -0.0104614  0.0280063 0.000251424 0.00074751 0.00639853  
-0.00024405 -0.0104539  0.0279975 0.000251376 0.000743285 0.00639306  
-0.000253167 -0.0104638  0.0280143 0.00024358 0.000746174 0.00641156  
-0.000247111 -0.0104638  0.0280111 0.000247418 0.000747275 0.00640457  
-0.00026328 -0.0104524  0.0280011 0.000238502 0.000741035 0.00641557  
-0.000258719 -0.0104584  0.0280078 0.000240848 0.000743085 0.00641305  
-0.000263176 -0.0104421  0.0279886 0.000238987 0.000737687 0.00639982  
-0.000263926  -0.010447  0.0279947 0.00023826 0.000739329 0.00640847  
-0.000257161 -0.0104431  0.0279889 0.000243381 0.000737915 0.00639346  
-0.000138473 -0.0104615  0.0280004 0.000281919 0.000804696 0.00626721  
-0.000135276 -0.0104506  0.0279874 0.000291861 0.000815511 0.00625683  
-0.000158153  -0.010471  0.0280183 0.000295611 0.000826531 0.00628525  
-0.000149111 -0.0104677  0.0280107 0.00028827 0.000814659 0.00627646  
-0.00016307 -0.0104647  0.0280117 0.000318268 0.000846861 0.00629203  
-0.000161374 -0.0104682  0.0280148 0.000306314 0.000837712 0.00628725  
-0.000154988 -0.0104485  0.0279927 0.000341444 0.00085283 0.00627604  
-0.000159789 -0.0104574  0.0280029 0.000330604 0.000850225 0.00628562  
-0.000146632 -0.0104428  0.0279841 0.000330787 0.000843698 0.00626133  
-0.000272646 -0.0104375  0.0279877 0.000225991 0.000719445 0.00640311  
-0.000266769 -0.0104385  0.0279886 0.000231218 0.000719807 0.00639733  
-0.000254202 -0.0104407  0.0279876 0.000209734 0.00070567 0.00637822  
-0.000248044 -0.0104411  0.0279877 0.000216217 0.000706818 0.00637163  
-0.00027226  -0.010448  0.0280003 0.000226319 0.000722101 0.00641803  
-0.000273136 -0.0104424  0.0279938 0.000225526 0.000720752 0.00641135  
-0.000255048 -0.0104519  0.0280013 0.000211708 0.000708306 0.00639424  
-0.000255274 -0.0104461  0.0279943 0.000209898 0.000706927 0.00638711  
-0.000262045   -0.01046  0.0280148 0.000232638 0.000728229 0.00641419  
-0.000267619 -0.0104543  0.0280076 0.000229368 0.000724409 0.00641551  
-0.000245746 -0.0104633  0.0280159 0.000220569 0.000716647  0.0063906  
-0.000250952 -0.0104579  0.0280087 0.000216103 0.000711489 0.00639176  
-0.000250998 -0.0104576  0.0280074 0.000241157 0.000730928 0.00640282  
-0.000256113   -0.01046  0.0280119 0.000236812 0.00073014 0.00640797  
-0.00023312   -0.01046  0.0280069 0.000230201 0.000721594 0.00637836  
-0.000239193 -0.0104629  0.0280123  0.0002254 0.00071986 0.00638404  
-0.000253455 -0.0104498  0.0279981 0.000240952 0.00072604 0.00639757  
-0.000234844 -0.0104519  0.0279969 0.000229206 0.000715503  0.0063721  
-0.000270044 -0.0104405  0.0279885 0.000243334 0.000744882 0.00640745  
-0.000264102 -0.0104416  0.0279892 0.000247302 0.000744917 0.00640133  
-0.000269612 -0.0104507  0.0280007 0.000242401 0.000748373 0.00642271  
-0.000270532 -0.0104452  0.0279944 0.000242461 0.000746605 0.00641584  
-0.000259187 -0.0104624   0.028014 0.000246658 0.000752857 0.00641856  
-0.00026486 -0.0104568  0.0280075 0.000244307 0.000750189 0.00642012  
-0.000248278 -0.0104602  0.0280066 0.000254206 0.00075354 0.00640593  
-0.000253303 -0.0104624   0.028011 0.000250312 0.000753568 0.00641174  
-0.000250776 -0.0104528  0.0279979 0.000254358 0.000749663  0.0064008  
StrainFluct_nodal 6 8107 float
0.00183688 0.00529276 0.00532353 0.00169806 0.00118656 0.00700701  
0.00158843 0.00523541 0.00509745 -0.000324502 0.000943221 0.00674626  
 0.0018977 0.00536198 0.00441335 0.00301371 0.00187924 0.00642739  
0.00162894 0.00529823 0.00463983 -0.00129534 0.000233622 0.00668553  
0.00321052 -0.0134317 -3.77879e-05 -0.000264996  0.0012258 -0.0767987  
0.00181993 -0.0134341 -3.94354e-05 -0.000158812 0.00119791 -0.0767745  
-0.0723655  0.0181669 -4.29175e-06 0.000710339 -0.00872128  0.0169251  
-0.0723763  0.0162968 -2.25719e-06 -0.00198944 -0.00992733  0.0111324  
0.00189462 0.00535766  0.0044203 0.00299664 0.00186785 0.00642734  
0.00161672 0.00529703 0.00466446 -0.00125318 0.00026657  0.0067168  
0.00184012 0.00529287 0.00532437 0.00171606 0.00120153 0.00701561  
0.00159963 0.00523292 0.00511254 -0.000369373 0.000916632 0.00677574  
0.00321528 -0.0134349 -3.92581e-05 -7.1374e-05 0.00139552  -0.076792  
-0.0723772  0.0163031 -5.33356e-06 -0.00201245 -0.00992747   0.011118  
 0.0018153  -0.013431 -3.79972e-05 -0.000349123  0.0010311  -0.076781  
-0.0723641  0.0181597 -1.35065e-06 0.000736077 -0.00872204  0.0169388  
-0.000291455  0.0188634 0.00389976 0.00754146 0.00583989  0.0265902  
-0.000935934  0.0160794 0.00285377 0.00631704 0.00496674  0.0419946  
-0.000268973 0.00704707 0.00202194 0.00334225 0.00208236  0.0579769  
-0.000166476 0.00126721 -0.000299123  0.0007677 -0.000882469  0.0600846  
-0.00025065 0.00469867 -0.00276698 -0.00133784 -0.00293843  0.0457007  
-0.000472293  0.0124569 -0.00277842 -0.00398041 -0.00491888   0.027963  
-0.000202582  0.0164434 -5.48334e-05 -0.00454341 -0.00450657  0.0172506  
0.000704599   0.014192 0.00442626 0.00536858 0.00349911  0.0176581  
-0.000523418  0.0178277  0.0035678 0.00750179 0.00590339  0.0340699  
-0.000461901   0.011834 0.00270212 0.00511679 0.00384942  0.0499614  
-0.000175846 0.00360503 0.00104787 0.00202485 0.000495131  0.0602717  
-0.000204314 0.00259162 -0.0015965 -0.000301795 -0.00198171  0.0533031  
-0.000351965 0.00878481 -0.00300373 -0.00261806 -0.00385588   0.036122  
-0.00026395  0.0146365 -0.00148576 -0.0044935 -0.00507573  0.0215355  
0.000665426  0.0127841  0.0025164 -0.00306335 -0.0017437  0.0129106  
0.00863576 0.00388248  0.0195559 -0.0252375 -0.0194591  0.0302993  
 0.0219471 0.00137521  0.0243808  -0.041244 -0.0305742  0.0392185  
 0.0418948 -0.00417308   0.017918 -0.0388404 -0.0261275  0.0276964  
 0.0573503 -0.00800272 -0.00412439 -0.000372367 0.00576357 -0.00877105  
 0.0506975 -0.00422239 -0.0227043  0.0388903  0.0361792 -0.0380596  
 0.0319404 0.00146612 -0.0258428   0.048314  0.0435609 -0.0400545  
 0.0155479  0.0040536 -0.0143225  0.0307218  0.0278726  -0.020662  
0.00561955 0.00449164  0.0123339 -0.0126692 -0.00878843  0.0185346  
 0.0145351 0.00212038  0.0231191 -0.0338698 -0.0257217  0.0354155  
 0.0310974 -0.00121455  0.0233475 -0.0437792 -0.0319107   0.036706  
 0.0501378 -0.00545732 0.00777529 -0.0225941 -0.0120005  0.0116075  
 0.0549919 -0.00557159 -0.0139132  0.0201542  0.0216297 -0.0238296  
 0.0411761 -0.000921901 -0.0262831  0.0467117  0.0424045 -0.0414489  
 0.0228325 0.00285626 -0.0203509   0.039979  0.0359497 -0.0307222  
0.00902696 0.00471256 -0.00451797  0.0164322  0.0146213 -0.00641276  
-0.000246909  0.0192604 -3.4652e-06 0.00868964 -0.00391857   0.023352  
-0.000764722  0.0167629 -0.00268724 0.00697087 -0.00403214  0.0374223  
-0.000473709 0.00815464 -0.00277906 0.00327978 -0.00260332  0.0538242  
0.000189252 0.00128803 -0.000248588 0.000435029 -0.00144037  0.0596773  
-0.000418958 0.00441367 0.00222772 -0.00161109 0.00105511  0.0496283  
-0.000653556  0.0118934 0.00352742 -0.00453339 0.00470989  0.0325433  
-0.000253601  0.0160105 0.00413772 -0.00543695 0.00584083  0.0207068  
0.000741786  0.0143736 0.00238771  0.0069927 -0.00118968  0.0163182  
-0.000424484  0.0183063 -0.0015416 0.00820573 -0.00420667  0.0296922  
-0.000326199  0.0125149 -0.0030193 0.00535345 -0.00348459  0.0457339  
-0.000327887 0.00443381 -0.00163428 0.00155369 -0.00194075  0.0579962  
-0.000273588 0.00233033 0.00106387 -0.000487741 -0.000291589  0.0555359  
-0.000562568 0.00836571 0.00312771 -0.00316855 0.00320808  0.0406064  
-0.000342254  0.0141163 0.00384962 -0.00511314 0.00544122  0.0257641  
0.000641039  0.0125853 0.00451406 -0.00441244 0.00316868  0.0148551  
 0.0124513 0.00418702 -0.0135117 -0.0260323  -0.024702 -0.0198248  
 0.0269648 0.00230607  -0.023442 -0.0416886  -0.036345 -0.0366888  
  0.047306 -0.00360104 -0.0230514 -0.0382044 -0.0289701 -0.0380828  
 0.0573894 -0.00801766 -0.0041888 0.000668883 0.00798532 -0.0088069  
 0.0459912 -0.00490529  0.0172553  0.0395681   0.041481  0.0268071  
 0.0254894 0.00066182  0.0263876  0.0486009  0.0487608  0.0414917  
 0.0115432 0.00370712  0.0200362  0.0297049  0.0299568  0.0312739  
 0.0074457 0.00472597 -0.00433236 -0.0134711 -0.0120814 -0.00634905  
 0.0192531 0.00268887 -0.0193898 -0.0344268 -0.0313723 -0.0300604  
 0.0373358 -0.000638766 -0.0255684 -0.0435562 -0.0364807 -0.0405994  
  0.053081 -0.00512943 -0.0147403 -0.0218181 -0.0125833 -0.0248862  
 0.0524098 -0.0058381 0.00670854  0.0209221  0.0254434 0.00993063  
   0.03503 -0.00151984  0.0239399  0.0471417  0.0479226  0.0375056  
 0.0176997 0.00222201  0.0237244  0.0394739  0.0394905   0.036903  
0.00713678 0.00448387  0.0123642   0.015307  0.0148353  0.0186548  
 0.0160605 -0.0164477 -2.50144e-05 0.00815442  0.0274568 -0.0665607  
 0.0158942 -0.0230594 -2.9865e-05  0.0298896  0.0485169 -0.0428577  
-0.0125807 -0.0184234 -2.02702e-05  0.0485176  0.0446902 -0.0219513  
-0.0397829 -0.00480001 -1.26944e-05  0.0541949  0.0339496 -0.00102606  
-0.0625483  0.0102295 -7.98129e-06  0.0356605  0.0143738  0.0117564  
0.00856627  -0.014393 -2.74704e-05 0.00301974  0.0139441  -0.072629  
 0.0154991 -0.0197884 -2.5885e-05  0.0171311   0.037447 -0.0562129  
0.000620549 -0.0211423 -2.59455e-05  0.0395611  0.0463359 -0.0323228  
-0.0268556 -0.0119046 -1.59883e-05  0.0519866  0.0391818 -0.0118794  
 -0.051861  0.0027599 -1.02549e-05  0.0455685   0.024108  0.0049406  
-0.0681151  0.0143884 -6.16241e-06  0.0182372 0.00263702  0.0134634  
-0.0640021  0.0142548 -4.32875e-06 -0.0408338 -0.0340059   0.017395  
-0.0411494 -0.00427331 -7.33039e-06 -0.0625304 -0.0492822 -0.00723782  
-0.00543996 -0.0208701 -1.37023e-05 -0.0632055 -0.0582921 -0.0266605  
0.00640888 -0.0246974 -2.9297e-05  -0.031117 -0.0419411 -0.0570333  
0.00380764 -0.0183989 -4.38503e-05 -0.00793266 -0.0201563 -0.0734174  
-0.0693575  0.0170115 -4.01721e-06 -0.0202592 -0.0213648  0.0169084  
-0.0536841 0.00540116 -6.19183e-06 -0.0527171 -0.0418132 0.00450007  
 -0.024877 -0.0122576 -9.42656e-06 -0.0637185 -0.0536512 -0.0164476  
0.000928094 -0.0236141 -2.08909e-05 -0.0462683 -0.0499073 -0.0433398  
  0.004726 -0.0216038 -3.68837e-05 -0.0181983 -0.0305758 -0.0662214  
0.00158609 -0.0155689 -4.41497e-05 -0.00338967 -0.00914853 -0.0755657  
  0.014055 -0.0163425 -2.60751e-05 0.00800342  0.0267334 -0.0667477  
 0.0116635 -0.0225778 -2.95732e-05  0.0282429  0.0457401 -0.0444439  
-0.0178991 -0.0180163 -1.87895e-05  0.0436121  0.0397695 -0.0269931  
-0.0326772 -0.00323441 -1.03951e-05  0.0672055  0.0437883   0.014859  
-0.0607126  0.0146706 -5.52377e-06  0.0425968    0.01877  0.0292684  
0.00687135 -0.0143536 -2.95664e-05 0.00302726  0.0135973  -0.072681  
 0.0124125 -0.0195288 -2.64522e-05  0.0164374  0.0358585 -0.0568903  
-0.00477047 -0.0205604 -2.569e-05  0.0362436  0.0421656 -0.0355769  
-0.0247287 -0.0117648 -1.4521e-05  0.0548269  0.0416297 -0.00855396  
-0.0482289 0.00640536 -6.99102e-06  0.0558706  0.0310864  0.0222855  
-0.0679062   0.016386 -2.92117e-06   0.019816 0.00371195  0.0201266  
-0.0649608  0.0103656 -1.82877e-06 -0.0369243 -0.0306532 0.00380882  
-0.0391192 -0.00328411 -3.83959e-06 -0.0667149 -0.0518053 -0.00172355  
-0.0160771 -0.0196721 -1.34562e-05 -0.0538933 -0.0503304 -0.0344006  
0.000162502 -0.0237912 -3.19772e-05 -0.0290315 -0.0393205 -0.0585133  
0.00325762 -0.0183316 -4.54725e-05 -0.00804521 -0.0201947 -0.0734057  
-0.0692955  0.0134961 -2.24929e-06 -0.0189578 -0.0198459 0.00632763  
-0.0537616 0.00431617 -2.59295e-06 -0.0515366 -0.0405962 0.00102754  
-0.0270874 -0.0125064 -8.17215e-06 -0.0607704  -0.051255 -0.0197767  
-0.00800636 -0.0224005 -2.20551e-05 -0.0410665 -0.0447799  -0.047444  
0.00136272 -0.0212209 -3.93206e-05 -0.0176575 -0.0296726 -0.0666396  
0.00206674 -0.0155632 -4.39385e-05 -0.0035469 -0.00929398 -0.0755519  
-0.00026112  0.0192691 -2.20213e-06 0.00865717 -0.00395527  0.0233359  
-0.000792465  0.0165209 -0.00244578  0.0065484 -0.0036131  0.0371252  
-0.000169313 0.00753886 -0.00256625 0.00328756 -0.00217991  0.0540212  
-0.000173432 0.00124605 -0.000199042 0.000642837 -0.000900369  0.0600949  
-0.0003469 0.00413822 0.00245513 -0.00149389 0.00153579  0.0495818  
-0.000608502  0.0117915 0.00355129 -0.00422487 0.00508328  0.0328572  
-0.000287468  0.0160267 0.00414266 -0.00538209 0.00590239   0.020738  
0.000737355  0.0143806 0.00238822  0.0069809 -0.00119088   0.016319  
-0.000423042   0.018308 -0.00152336 0.00808523 -0.00416358  0.0297053  
-0.000368385  0.0124184 -0.00285081  0.0052147 -0.00312619   0.045251  
-0.000129026 0.00387381 -0.0015595  0.0019565 -0.0015267  0.0581613  
-0.000257365 0.00227472 0.00119863 -0.000446877 2.8457e-05  0.0553416  
-0.00045649 0.00814299  0.0031966 -0.00281528 0.00374144  0.0408071  
-0.000370989  0.0141084 0.00385167 -0.00495189 0.00555516  0.0259036  
0.000626786  0.0125997 0.00450803 -0.00438957  0.0031934  0.0148728  
 0.0124113 0.00422849 -0.0133652 -0.0258538 -0.0244283 -0.0196518  
 0.0269292 0.00232338 -0.0233056  -0.041481 -0.0360902 -0.0365358  
 0.0473075 -0.00359076 -0.0230495 -0.0382028 -0.0289609 -0.0380695  
   0.05739 -0.00801845 -0.0041888 0.000668179 0.00798449 -0.00880665  
 0.0459912 -0.00490631  0.0172551  0.0395682  0.0414811  0.0268063  
 0.0254914 0.000653522  0.0264042  0.0485959  0.0487588  0.0415078  
 0.0115371 0.00370249  0.0200778   0.029745  0.0300272  0.0313196  
 0.0074557 0.00473658 -0.00431778  -0.013461 -0.0120299 -0.00634981  
 0.0192087 0.00272492 -0.0192192 -0.0341908 -0.0310433 -0.0298665  
 0.0373316 -0.00065648 -0.0255499 -0.0435219 -0.0364621 -0.0406101  
 0.0530802 -0.00513014 -0.0147382 -0.0218153  -0.012579 -0.0248878  
 0.0524103 -0.00583915  0.0067084  0.0209215   0.025443  0.0099293  
 0.0350314 -0.00152531  0.0239391   0.047139  0.0479229  0.0375015  
 0.0177055 0.00221151  0.0237734  0.0395189  0.0395535  0.0369549  
0.00712862 0.00448519  0.0123622  0.0153044  0.0148403  0.0186504  
-0.00027208  0.0188527 0.00389231 0.00757787 0.00585857  0.0265969  
-0.000921692  0.0162587 0.00314764 0.00672333 0.00521452  0.0424513  
-0.000565397 0.00758977 0.00225372 0.00331899 0.00185411  0.0579137  
0.000189331 0.00128443 -0.000239887  0.0005996 -0.00122967  0.0598191  
-0.000317872 0.00490119 -0.00247796 -0.00144136 -0.00315304  0.0459353  
-0.000516427  0.0125709 -0.00274688 -0.00431079 -0.00519358  0.0276697  
-0.000163275  0.0164247 -5.19077e-05 -0.00459867 -0.00451716  0.0172591  
0.00070963  0.0141856 0.00442511 0.00538036 0.00349641  0.0176442  
-0.000527485   0.017819 0.00359705 0.00761834 0.00591084  0.0340315  
-0.000420748  0.0118577 0.00290407 0.00525251 0.00377074  0.0505475  
-0.000380701 0.00412101 0.00110742 0.00164016 0.000330688  0.0601638  
-0.000225638 0.00259035 -0.00143387 -0.000337165 -0.00213648  0.0537713  
-0.000456599 0.00899148 -0.00291563 -0.00295542 -0.00422942  0.0360667  
-0.000238799  0.0146473 -0.00147679 -0.00465478 -0.00513356  0.0214128  
0.000681154   0.012772 0.00251483 -0.00308457 -0.00174702  0.0128961  
0.00862089 0.00384195  0.0196953 -0.0254277 -0.0197156  0.0304058  
  0.021933 0.00135636  0.0245173 -0.0414578  -0.030855  0.0393762  
 0.0418922 -0.00418263  0.0179216 -0.0388411 -0.0261322  0.0276865  
 0.0573497 -0.00800173 -0.00412446 -0.000371669 0.00576436 -0.00877108  
 0.0506977 -0.0042211 -0.0227059  0.0388895  0.0361779 -0.0380621  
 0.0319339 0.00147402 -0.0258309  0.0483032  0.0435562 -0.0400201  
 0.0155323 0.00406064 -0.0142766  0.0306946  0.0278133 -0.0206185  
0.00560063 0.00448074  0.0123492 -0.0126878 -0.00883531  0.0185181  
 0.0145129 0.00208563  0.0232879 -0.0341116 -0.0260457  0.0355756  
 0.0310949 -0.00119929  0.0233666 -0.0438156 -0.0319486  0.0367484  
 0.0501378 -0.00545688 0.00777759 -0.0225962 -0.0120046  0.0116121  
 0.0549917 -0.0055709 -0.0139138  0.0201547  0.0216295 -0.0238297  
 0.0411738 -0.000918401 -0.0262852  0.0467106  0.0424029 -0.0414423  
 0.0228056 0.00287012 -0.0203003  0.0399328  0.0358977 -0.0306469  
0.00903186  0.0047102 -0.00451623  0.0164425  0.0146183 -0.00642876  
 0.0032048 -0.0183608 -4.3892e-05 -0.00790759 -0.0200752 -0.0734343  
7.65191e-05 -0.0237925 -2.88302e-05 -0.0289658 -0.0392775 -0.0585403  
-0.0161446 -0.0196417 -1.2587e-05 -0.0538542 -0.0503284 -0.0344083  
-0.0391486 -0.00325052 -5.69932e-06  -0.066688 -0.0518101 -0.00171999  
-0.0649629  0.0103802 -4.56895e-06 -0.0369271 -0.0306543 0.00380661  
0.00204391 -0.0155829 -4.41242e-05 -0.00337899 -0.00914759  -0.075565  
0.00129129 -0.0212381 -3.65622e-05 -0.0175605 -0.0295935 -0.0666698  
-0.00808448 -0.0223847 -2.00959e-05 -0.0410172 -0.0447603 -0.0474614  
-0.0271363 -0.0124731 -8.69879e-06 -0.0607362 -0.0512571 -0.0197781  
-0.0537747 0.00433901 -5.02082e-06  -0.051525 -0.0405989 0.00102862  
-0.0692964  0.0135057 -5.02642e-06 -0.0189719 -0.0198463 0.00631943  
 -0.060725  0.0146792 -6.41697e-06  0.0425589  0.0187676  0.0292455  
-0.0327112 -0.00321743 -1.33819e-05  0.0671573  0.0437731  0.0148303  
-0.0179571 -0.0180003 -1.99019e-05  0.0435682  0.0397436 -0.0270246  
 0.0115748 -0.0225888 -2.99016e-05  0.0281628   0.045655 -0.0444937  
 0.0139995 -0.0163763 -2.5491e-05  0.0078487  0.0265909 -0.0667781  
-0.0679123  0.0163927 -5.52409e-06  0.0197858 0.00371065  0.0201075  
-0.0482503 0.00641735 -1.00754e-05  0.0558278  0.0310777  0.0222603  
-0.0247748 -0.0117472 -1.63794e-05  0.0547816    0.04161 -0.00858348  
-0.00484404 -0.0205541 -2.56637e-05   0.036186  0.0421158 -0.0356174  
 0.0123408 -0.0195564 -2.63018e-05  0.0163217   0.035742 -0.0569314  
 0.0068403 -0.0143712 -2.79084e-05 0.00284948  0.0134413 -0.0726995  
0.00386093 -0.0183694 -4.54521e-05 -0.00807136 -0.0202767 -0.0733886  
  0.006502 -0.0246957 -3.2865e-05 -0.0311881 -0.0419877 -0.0570046  
-0.00536044 -0.0209055 -1.49883e-05 -0.0632518 -0.0582948 -0.0266524  
-0.0411218 -0.00430447 -5.33645e-06 -0.0625558 -0.0492775 -0.00724051  
-0.0639992  0.0142376 -1.84139e-06 -0.0408306  -0.034005  0.0173992  
0.00160883 -0.0155493 -4.39676e-05 -0.00355668 -0.00929411 -0.0755526  
0.00480066 -0.0215856 -3.98463e-05 -0.0182995 -0.0306584 -0.0661901  
0.00101655 -0.0236317 -2.34054e-05 -0.0463243 -0.0499296 -0.0433209  
-0.0248262 -0.0122923 -8.99147e-06 -0.0637541 -0.0536491 -0.0164464  
-0.0536712 0.00537797 -3.62021e-06 -0.0527286 -0.0418103 0.00450031  
-0.0693564      0.017 -1.122e-06 -0.0202437 -0.0213656  0.0169166  
-0.0625382   0.010223 -4.84681e-06  0.0356934  0.0143794  0.0117799  
-0.0397543 -0.00481422 -1.00385e-05  0.0542346  0.0339618 -0.00100005  
-0.0125173 -0.0184407 -1.94597e-05  0.0485656  0.0447187 -0.0219173  
 0.0159871 -0.0230477 -2.97198e-05  0.0299735  0.0486062 -0.0428058  
 0.0161172 -0.0164131 -2.56575e-05 0.00831255  0.0276025 -0.0665297  
-0.0681093   0.014382 -3.13425e-06  0.0182665 0.00263942  0.0134824  
-0.0518428 0.00275017 -7.29315e-06  0.0456042  0.0241171 0.00496546  
-0.0268113 -0.0119214 -1.41234e-05  0.0520301  0.0392007 -0.0118507  
0.000699658 -0.0211488 -2.62197e-05   0.039623  0.0463896 -0.0322796  
 0.0155732 -0.0197598 -2.61387e-05  0.0172508  0.0375675 -0.0561706  
0.00859796  -0.014375 -2.91831e-05 0.00320111  0.0141033 -0.0726102  
0.00366783  0.0207894 -0.00179117 0.00311711 0.00191415  0.0154839  
 0.0029007  0.0212016 -0.000589209 0.00285466 0.00209901  0.0172916  
0.00291054  0.0212185 -0.000612864 0.00288577 0.00211889  0.0173131  
0.00376417  0.0208169 -0.00187867 0.00266853 0.00163535  0.0153395  
0.00375235  0.0162781 0.00101771 0.00153769 0.000853237  0.0121486  
0.00308712  0.0206885 -0.000505881 0.00283635 0.00199294  0.0165592  
0.00287453  0.0211548 -0.000473819 0.00287616 0.00212483  0.0174135  
0.00311589  0.0207232 -0.000581384 0.00288828 0.00202953  0.0165645  
0.00390321  0.0164006 0.000543378 0.00348836 0.00254413  0.0127239  
0.00361747  0.0208393 -0.00181337 0.00290432 0.00169437  0.0156322  
0.00282097  0.0212386 -0.000595453 0.00290924 0.00212651  0.0173915  
0.00282604  0.0212506 -0.000609975 0.00288158 0.00210535  0.0174031  
0.00366212  0.0208438 -0.00186216 0.00318862 0.00197979  0.0154032  
0.00368103  0.0163334 0.000900785 0.00297235  0.0022437   0.012202  
0.00301239  0.0207282 -0.000526807 0.00285803 0.00202546  0.0166489  
0.00279126  0.0211881 -0.000474521 0.00287543 0.00213283  0.0175076  
 0.0030209  0.0207492 -0.000560691 0.00281984 0.00199014  0.0166575  
0.00375443  0.0164388 0.000661234 0.00155575 0.000653709  0.0128392  
0.00377087  0.0208071 -0.00187843 0.00267326 0.00163503  0.0153395  
0.00291702  0.0212102 -0.000613147 0.00288943   0.002119  0.0173126  
0.00290672  0.0211929 -0.000588729 0.00285878 0.00209908  0.0172908  
0.00367197  0.0207819 -0.00178855   0.003118  0.0019104  0.0154861  
0.00390797  0.0163992 0.000540224 0.00349423  0.0025475  0.0127272  
0.00312199  0.0207152 -0.000581849  0.0028932 0.00203009  0.0165631  
 0.0028806  0.0211463 -0.000473698 0.00288023 0.00212454  0.0174126  
 0.0030928  0.0206803 -0.000505245 0.00284043 0.00199287  0.0165589  
0.00375592  0.0162709 0.00102057 0.00154308 0.000855646  0.0121559  
0.00368024  0.0208288 -0.00186349 0.00318812 0.00198542  0.0153995  
0.00284113   0.021236 -0.000610049   0.002878 0.00210607  0.0173984  
0.00283547  0.0212232 -0.000594117 0.00290619 0.00212739  0.0173858  
0.00362865  0.0208251 -0.00180853 0.00290243 0.00169712  0.0156278  
0.00377196  0.0164303 0.000649558  0.0015496 0.000647509  0.0128257  
0.00303632  0.0207356 -0.000562598 0.00281548 0.00199002  0.0166514  
0.00280622  0.0211732 -0.000474282 0.00287187 0.00213383  0.0175022  
0.00302652  0.0207132 -0.000524664 0.00285399 0.00202602  0.0166452  
0.00369295  0.0163192 0.000911985 0.00296074 0.00223545  0.0122137  
0.00294851 -0.0134304 -1.21906e-05 -0.00101415 0.000514605 -0.0767556  
0.00267462 -0.0134577 1.76389e-05 -0.000520109 0.00105334 -0.0767434  
0.00266546 -0.0134651 2.60794e-05 -0.000111677 0.00150643 -0.0767459  
0.00294131 -0.0134582 6.99533e-06 0.000511941  0.0020605 -0.0767568  
0.00310239 -0.0134267 -2.6583e-05 -0.000754885 0.000766505 -0.0767773  
0.00278502  -0.013446 4.95243e-06 -0.000753275 0.00078693 -0.0767456  
0.00266338 -0.0134618 1.99569e-05 -0.000317679 0.00128228 -0.0767483  
0.00277109 -0.0134623 2.03167e-05 0.000174941 0.00177311 -0.0767485  
0.00310788 -0.0134463 -1.86431e-05 0.00034544 0.00183695 -0.0767765  
-0.0723673  0.0162064 1.48936e-05 -0.0019683 -0.00991867  0.0111629  
-0.0723698  0.0161949 1.42926e-05 -0.00209472 -0.00991774  0.0111341  
-0.0723777  0.0162584 -7.90111e-06 -0.00214722 -0.0099213  0.0111628  
-0.0723818  0.0163226 -1.74897e-05 -0.00215772 -0.00992577  0.0111206  
-0.0723716  0.0162516 5.92517e-06 -0.00195934 -0.00992329   0.011155  
-0.0723679  0.0161928 1.5663e-05 -0.00203863 -0.00991781  0.0111438  
-0.0723739  0.0162261 3.33025e-06 -0.00212288 -0.0099199  0.0111465  
-0.0723801  0.0162921 -1.39262e-05 -0.00215548 -0.00992342  0.0111494  
-0.0723801   0.016319 -1.09922e-05 -0.00209404 -0.00992682  0.0111107  
0.00155062 -0.0134578 6.88449e-06 0.000414672 0.00185142 -0.0767392  
0.00127964 -0.0134651 2.60336e-05 -0.000198233 0.00130711 -0.0767286  
0.00128865 -0.0134579 1.77422e-05 -0.000599571 0.000861909 -0.0767263  
0.00155785 -0.0134305 -1.19439e-05 -0.00108516 0.000332349 -0.0767382  
0.00171432 -0.0134457 -1.87695e-05 0.000250944 0.00163167 -0.0767588  
0.00138341 -0.0134622 2.0213e-05 8.34612e-05  0.0015691 -0.0767311  
0.00127761 -0.0134619 1.99893e-05 -0.000400666 0.00108686 -0.0767311  
0.00139716 -0.0134462 5.13265e-06 -0.000828726 0.000600053 -0.0767284  
0.00170908 -0.0134265 -2.65653e-05 -0.000830485 0.000579846 -0.0767598  
-0.0723736   0.018191 -1.70495e-05 0.000547543 -0.00872249  0.0169263  
-0.0723692  0.0181227 -7.48516e-06 0.000564013 -0.00871781  0.0169727  
  -0.07236  0.0180557 1.40031e-05 0.000630971 -0.00871276  0.0169448  
-0.0723544  0.0180674 1.33528e-05 0.000770512 -0.00871227  0.0169781  
-0.0723704   0.018186 -1.03288e-05  0.0006191 -0.00872208  0.0169162  
-0.0723718  0.0181583 -1.34064e-05 0.000551702 -0.00872018  0.0169578  
-0.0723647  0.0180886 3.37023e-06 0.00059567 -0.00871563  0.0169563  
-0.0723567  0.0180534 1.47792e-05 0.000693744 -0.00871193  0.0169571  
-0.0723585  0.0181134 5.58576e-06 0.00077504 -0.00871706  0.0169663  
 0.0206327 0.00217188 -0.000247067  0.0588436  0.0581049  0.0207059  
 0.0136017  0.0024024 -1.30567e-05 -0.0569328 -0.0552349  0.0141812  
 0.0130777 0.00287646 0.000117352 -0.0560196 -0.0542321  0.0141435  
 0.0207532  0.0021118 -9.22388e-05  0.0584885  0.0580237  0.0200305  
 0.0648561  -0.021846 -0.00060501 -0.0416097 -0.0277839 -0.0388248  
-0.0155751  0.0140802 -0.000123444  0.0259622  0.0252052  0.0720389  
-0.0190598  0.0159939 -6.31452e-05  0.0399866  0.0335977  0.0757066  
  0.064546 -0.0217713 -0.000390753 -0.0412492 -0.0275268 -0.0389771  
 0.0714006 -0.0241004 -0.000919096  0.0301287  0.0296348 -0.0338166  
 -0.020003  0.0137035 3.04251e-05 -0.0180722 -0.0262391  0.0724109  
-0.0266205  0.0178285 2.36223e-05 -0.0361182 -0.0384657  0.0751659  
 0.0716796 -0.0241703 -0.0011084  0.0306445  0.0302925 -0.0334651  
 0.0107344  0.0111816 0.00388487 -0.0153293 -0.00888462  0.0128035  
0.00326696  0.0162465 -5.244e-05  0.0160196  0.0159231  0.0261931  
0.00282587  0.0161877 0.000868778  0.0157942  0.0159486  0.0254827  
  0.013256    0.01098 -0.00147399 -0.0146296 -0.00786884 0.00799679  
 0.0426171 -0.00605011 -0.00274337  0.0282556  0.0208881 -0.00417407  
-0.00322296 0.00721381 0.000240173 -0.00394239 -0.0124781  0.0503139  
-0.00248437  0.0102169 0.000267766 -0.00573938 -0.0122752  0.0437556  
 0.0403912 -0.00566691 -3.76836e-06  0.0277111  0.0184761 -0.00757825  
0.000106019 0.00998645 -5.08181e-05  0.0514998  0.0505936  0.0487753  
-0.00774426  0.0119347 -0.00013023  0.0151889  0.0201205  0.0587121  
-0.00930022 0.00730975 -0.000154025 0.00512139  0.0047372  0.0679718  
 0.0135007  0.0100013 6.06808e-05  0.0366939    0.03398   0.018813  
 0.0370589 -0.00821831 -5.71392e-05 -0.0558089 -0.0458317 -0.0140787  
 0.0508926 -0.0139851 -0.000655369 -0.0350428 -0.0153921 -0.0217532  
 0.0678752 -0.0249849 -0.00163506 -0.0147558 -0.000368719 -0.0291356  
0.00786715  0.0106046 0.000453361 -0.0299709 -0.0297949  0.0167979  
   0.03744 -0.00836863 -0.000269801 -0.0560981 -0.0460998 -0.0140302  
 0.0515672 -0.0142055 -0.000994579 -0.0356055 -0.0158988  -0.020724  
  0.068251 -0.0251001 -0.0017402 -0.0157356 -0.0017431 -0.0284984  
0.00821464  0.0103181 0.000239307 -0.0307183 -0.0308417  0.0170671  
 -0.034116  0.0217605 -4.01993e-05 -0.000811442 -0.00681946   0.090032  
-0.000688967  0.0108716 -0.000126374  0.0494132  0.0486661  0.0489536  
 0.0138183 0.00989349 -0.000200702  0.0369241  0.0345472  0.0193977  
-0.00661593 0.00944324 5.22424e-05 -0.0524774 -0.0546246  0.0450107  
 0.0455944 -0.00965429 -0.000301995   0.055136  0.0541044 -0.00961516  
 0.0459006 -0.00972496 -0.000542598  0.0554342  0.0544181 -0.00933012  
-0.00729153  0.0105422 0.000114716  -0.047571 -0.0508098  0.0448892  
-0.0117118 0.00731917 -5.51593e-05 -0.00267705 -0.00776582  0.0701228  
  0.019991 0.00760487 -0.00114817  0.0216917  0.0156617 0.00911598  
0.000128594  0.0142461 0.000930547 -0.00871389 -0.0119082  0.0280974  
0.00021464  0.0148218 0.000960484 -0.00859905 -0.0105747  0.0274357  
 0.0175601 0.00795778  0.0017254  0.0220764  0.0157633 0.00800862  
-0.00354323 0.00556556 -0.000165846 -0.00320407 -0.0113024  0.0566341  
 0.0576195 -0.0175412 0.000101509  0.0164676  0.0115806 -0.0156003  
 0.0600884 -0.0177806 -0.00512321  0.0182246  0.0157391 -0.0187884  
-0.00708328 0.00747507 -0.000176446 0.00396687 0.00631442  0.0655638  
-0.0097067 0.00959442 0.000103351 -0.0136126 -0.0243933  0.0578466  
 0.0809052 -0.0284487 -0.000827157 -0.0088614  0.0016232 -0.0489895  
-0.0306708  0.0197321 -5.68338e-05  0.0112584 0.00294262  0.0881759  
 0.0809994 -0.0284767 -0.000891294 -0.00933411 0.00107734 -0.0489838  
  0.068297  -0.024695 -0.00233828  0.0100605   0.013304 -0.0233507  
 0.0680297 -0.0246104 -0.00246145 0.00862257  0.0102019 -0.0250344  
-0.00553073 0.00458133 -3.91677e-05 -0.000331933 -0.00674781  0.0637809  
-0.00204312  0.0116619 0.000220032  -0.023388 -0.0312139  0.0361607  
 0.0313199 0.000223906 -0.000797899   0.039718  0.0330775 0.00220376  
 0.0306604 0.00038502 -0.00026451  0.0394475  0.0325618 0.00144529  
-0.00142396  0.0120922 0.000355863 -0.0203456 -0.0275243  0.0345341  
 0.0351696 -0.00310789 -0.00273639 -0.0236804 -0.00708825 -0.00671248  
-0.00258454   0.013691 0.000134514 0.00871779  0.0115222  0.0427401  
-0.00313885   0.012639 -0.000430308   0.011637  0.0161594  0.0475167  
 0.0323105 -0.00273509 0.00240774 -0.0225404 -0.00671263 -0.00574324  
0.00638098  0.0148777 -0.000137187  0.0107603 0.00765489  0.0168277  
0.00395796  0.0149242 0.000740412 -0.00589394 -0.00280835  0.0164502  
0.00205477  0.0152641 0.00364056 -0.00650056 -0.00460703  0.0190796  
0.00451932  0.0149022 0.00303616  0.0117053 0.00978911  0.0179784  
-0.00295547 0.00308717 -0.000128516 -0.00100846 -0.00640798   0.059871  
 0.0206295 0.00507317 0.000405885 -0.0328271 -0.0227864 0.00149622  
0.00171084  0.0144528 -5.69701e-05  0.0253499  0.0278546  0.0356797  
0.00179171  0.0146567 9.70838e-05  0.0235589   0.026236  0.0342153  
  0.021249 0.00492087 8.04428e-05 -0.0329375 -0.0224158 0.00264433  
 0.0616773  -0.020601 -0.00156041 -0.0171196 -0.00353812  -0.017885  
-0.00333069 0.00541142 -0.000373294 0.00250723 0.00234123  0.0602823  
 0.0612839 -0.0203336 -0.00305932 -0.0153303 -0.000520928 -0.0237447  
0.00644669  0.0126714 0.000534564  -0.019737 -0.0186168  0.0182416  
 0.0106957  0.0123912 0.000563066  0.0249429  0.0224334  0.0180711  
 0.0113384  0.0122309 -8.71935e-05   0.025114   0.022809  0.0185702  
0.00608577  0.0128651 0.00102554 -0.0192412 -0.0180812  0.0178287  
-0.00440727 0.00890609 0.000236225 -0.00968404 -0.0188528  0.0497821  
 0.0499762 -0.0117206 -0.00148002  0.0334553  0.0265837 -0.0101733  
 0.0491053 -0.0114921 -0.00137584  0.0327847  0.0250319  -0.012807  
 0.0498886 -0.0118801 -0.00265191 -0.0221745 -0.00455835 -0.0134143  
-0.00315776 0.00930001 -0.000172728 0.00520372 0.00777381  0.0523627  
 0.0475688 -0.0114943 -9.63907e-05 -0.0211142 -0.00371609 -0.0153733  
-0.00361257 0.00930485 -0.000589956 0.00571932 0.00857366  0.0550243  
-0.00331662 0.00426867 -0.000511699 0.00222948  0.0018794  0.0622344  
-0.000381501  0.0130338 0.000469366 -0.0154088 -0.0208016  0.0316242  
-0.00571347  0.0106099 0.000164932 -0.0191245 -0.0285316  0.0473919  
-0.00596136  0.0084803 8.55243e-05 -0.00819676 -0.0179375  0.0538645  
-0.00156223   0.011066 0.000595093 -0.0068681 -0.0126658  0.0386664  
-0.0029995  0.0109371 0.000274184 -0.0122226 -0.0196656  0.0423736  
  0.063864 -0.0215743 -0.00141818  0.0124183  0.0110633  -0.020921  
 0.0533704 -0.0142277 -0.00165785  0.0257243  0.0198093 -0.0153457  
 0.0596689 -0.0179311 -0.00112679  0.0319332  0.0277538 -0.0223296  
  0.069341 -0.0243486 -0.00162703  0.0183997  0.0193462 -0.0289877  
 0.0614295 -0.0193018 -0.00190179  0.0233366   0.020669 -0.0225803  
-0.00468592 0.00493735 -9.1296e-05 -0.0018217 -0.00875758  0.0605809  
-0.00403825 0.00721625 0.000152165 -0.00634995 -0.0149177  0.0530397  
-0.0111084  0.0109095 0.000114435 -0.0141338 -0.0232054  0.0602967  
-0.0124507 0.00905308 3.71476e-06 -0.0081613 -0.0154056     0.0682  
-0.00828493 0.00801353 9.52174e-05 -0.00763451 -0.0156257  0.0604196  
 0.0651977 -0.0218118 -0.00350701  0.0138414  0.0146052  -0.021357  
  0.054473 -0.0144275 -0.00218373  0.0268178  0.0223638 -0.0128318  
 0.0602257 -0.0180759 -0.00138161  0.0325546  0.0288146 -0.0211638  
 0.0696271  -0.024433 -0.00168544  0.0192414  0.0208112 -0.0281856  
 0.0619117 -0.0194861 -0.00166895  0.0242734  0.0225411 -0.0203925  
 0.0235484 0.00382857 0.00710266   0.034326  0.0298427  0.0188101  
  0.030199 0.00136639 -0.00205519  0.0248669  0.0180222 0.00290168  
 0.0446561 -0.0067663 0.00481245  0.0336038  0.0303191 0.00768265  
  0.033351 -0.00100543 0.00649108  0.0353294  0.0314642  0.0147451  
-0.000560407  0.0133254 -4.84681e-05 -0.0058233 -0.00760084  0.0289239  
-0.00159196 0.00594062 -0.000736939 -0.00255001 -0.00713345  0.0483661  
-0.00110785 0.00999915 -0.000402975 -0.00456334 -0.0076709  0.0380337  
-0.000634153  0.0133141 0.00168778 -0.00592001 -0.00343445  0.0304653  
-0.00102663  0.0129231 0.000573007 -0.00754042 -0.0115161  0.0346487  
-0.00153327 0.00721423 0.000994555 -0.00324723 -0.00520148  0.0467636  
-0.00107144  0.0105446 0.00137533 -0.00489053 -0.00425961  0.0380614  
  0.025007 0.00438296 -0.00665349  0.0344613  0.0277357 -0.0104621  
 0.0276182 0.00176793 0.00112659  0.0248201  0.0170631 0.00101622  
 0.0457151  -0.006168 -0.00899235  0.0326083  0.0257714 -0.0218757  
 0.0348381 -0.000476548 -0.00827881  0.0350388  0.0280014 -0.0165288  
 0.0108504 0.00678382 0.000274925  -0.042146 -0.0412255  0.0160537  
 0.0145354 0.00792403 0.000473853 -0.0310422 -0.0257535 0.00907966  
 0.0279832 -0.000798711 0.000146569 -0.0431468 -0.0328088 -0.00492694  
 0.0257737 -0.00269893 4.0685e-05 -0.0562205 -0.0500539 -8.3498e-05  
 0.0201922  0.0028188 0.000224688 -0.0428146 -0.0368505 0.00510742  
 0.0176195 0.00615005 -0.00024851  0.0473244   0.045778  0.0202947  
0.00754447  0.0123073 -0.000126133  0.0307751  0.0311625  0.0280593  
0.000873327  0.0131499 -0.000106928  0.0363758  0.0378618  0.0422494  
 0.0100646 0.00666981 -0.000178179  0.0539793  0.0536984  0.0358177  
0.00917941 0.00978465 -0.000163547  0.0418287  0.0420492  0.0319878  
 0.0176172 0.00614709 -3.42428e-05  0.0471034  0.0454716   0.019622  
0.00733209  0.0125026 0.000102467  0.0297115  0.0297539  0.0268867  
0.00144777  0.0129413 9.01284e-06   0.035855  0.0374955  0.0408057  
 0.0104257 0.00625273 -6.43228e-05   0.055043  0.0546453   0.035412  
0.00918369 0.00983348 -7.63896e-08  0.0414668  0.0416394   0.031271  
  0.011162 0.00643311 9.93544e-05 -0.0429979 -0.0421685  0.0162466  
 0.0150719 0.00769098 0.000130602 -0.0314625  -0.026089 0.00967083  
 0.0284651 -0.000952176 -0.000150358 -0.0433657 -0.0328107 -0.00442147  
  0.026281 -0.00305422 -0.000132635 -0.0568521 -0.0506179 -0.000155066  
 0.0206294 0.00254524 -1.87529e-05 -0.0433512 -0.0372534 0.00535074  
 0.0529132 -0.0208457 -4.69303e-05 -0.0566207  -0.056663 -0.0262739  
  0.024157 -0.00968903 5.01876e-05 -0.0763608 -0.0705505  0.0102331  
 0.0394432 -0.0158848 7.56776e-06 -0.0669203  -0.064178 -0.00819527  
-0.00223412 0.00779584 -3.39801e-05  0.0788709   0.063873  0.0611898  
 0.0299847 -0.00868898 -6.05736e-05  0.0754179  0.0746012  0.0234904  
 0.0142865 -0.000774485 -4.35196e-05  0.0783018  0.0700433  0.0429625  
-0.00236948  0.0082935 -8.18112e-05  0.0767388  0.0626097  0.0607574  
 0.0300794 -0.00869648 -0.000150389  0.0756405  0.0747081  0.0236948  
 0.0139069 -0.000317307 -0.00010959  0.0773099  0.0693348  0.0432648  
 0.0531955  -0.020951 -0.000173276 -0.0568532 -0.0568585 -0.0261855  
 0.0244808 -0.0100937 -2.56393e-05 -0.0771027 -0.0711577   0.010359  
  0.039846 -0.0161874 -9.40724e-05  -0.067337 -0.0645054 -0.00827458  
 0.0622704 -0.0172594 -0.00372742 0.00404061 0.00763267 -0.0183656  
 0.0532294 -0.00983403 -0.00882792  0.0279734  0.0233836 -0.0229375  
 0.0585582 -0.0135448 -0.00644502  0.0160138  0.0156895 -0.0209328  
-0.00213613 0.00283918 -0.00010908 -0.000314898 -0.00374283  0.0609844  
-0.00145749 0.00492212 0.000763867 -0.00216646 -0.00478119  0.0523831  
-0.00172055 0.00337988 0.000322458 -0.00134431 -0.00419865  0.0573551  
 0.0623568 -0.0173325 -0.00298537 0.00567684  0.0118889 -0.0159539  
 0.0520146 -0.0102961 0.00325133  0.0289012  0.0284045   0.002826  
  0.057866 -0.0137632 1.94914e-05  0.0174615  0.0205965 -0.00654397  
-0.00168646  0.0081296 0.000384213 0.00410538 0.00434995  0.0562912  
-0.00149293 0.00580904 0.000364903  0.0026319 0.00217268  0.0591255  
-0.00515062 0.00581573 -0.000244906  0.0037764 0.00438496  0.0637604  
-0.00530281  0.0083178 -0.000247598 0.00517317 0.00743287  0.0601808  
-0.00319657 0.00705718 -9.78339e-05 0.00408496 0.00450593   0.058888  
-0.00334392  0.0110876 -0.000555239 0.00894371   0.012896  0.0508044  
-0.00171249  0.0144474 0.000487269 0.00813916 0.00900861  0.0439613  
-0.00165073  0.0116263 0.000493907 0.00646913 0.00682481   0.049906  
0.00207445  0.0170041 0.00146685 0.00827561 0.00551226  0.0215575  
0.00914239  0.0101686 0.00584481  0.0194252  0.0166728  0.0201361  
0.00454064  0.0122539 0.00468756  0.0114858 0.00869226  0.0183869  
0.00640882  0.0104356 0.00611396 -0.0150237 -0.00911663  0.0191301  
0.00126781  0.0156879 0.00105538 -0.00482052 -0.00252129  0.0173553  
0.00340929  0.0115458 0.00460951 -0.00853238 -0.00429414   0.016102  
0.00709285   0.010718 -0.000612078 -0.0162364 -0.0136443 0.00474176  
0.000339764  0.0156723 0.00344895 -0.00550215 -0.000245656  0.0198985  
 0.0036855  0.0116237 0.00187275 -0.00970679 -0.0057634  0.0101364  
0.00124259  0.0171773 0.00196584 0.00937024 0.00399802  0.0209042  
0.00986252  0.0103643 -0.00164327  0.0207746  0.0179425 0.00390081  
0.00486376   0.012404 0.000900327  0.0129963 0.00900321  0.0108718  
  0.027953 0.00136478 0.00754286 -0.0322132 -0.0182235  0.0161226  
 0.0458628 -0.00863133 0.00510829 -0.0306781 -0.0158942 0.00454314  
 0.0421897 -0.00702626 -0.00246607 -0.0229496 -0.00584483 -0.00914881  
 0.0361589 -0.00351108 0.00692983 -0.0333328 -0.0187358   0.011192  
-0.00124351   0.015103 -0.000941428 0.00749281 0.00381496  0.0396592  
-0.00161606 0.00866093 -0.00121143 0.00424356 0.00195349   0.053107  
-0.00282095  0.0117231 -5.85086e-05 0.00718824 0.00964964  0.0474404  
-0.00136158  0.0121109 -0.00117259 0.00629089 0.00286324  0.0461813  
 0.0289904 0.00202926 -0.00731082 -0.0325331 -0.0209244 -0.0158163  
 0.0474956 -0.00814055 -0.0090781 -0.0295852 -0.0159478 -0.0246945  
 0.0394414 -0.00653714 0.000963746  -0.021972 -0.00539584 -0.0104041  
 0.0379073 -0.00304281 -0.00875794  -0.032774 -0.0204275 -0.0217011  
0.00252268  0.0138906 0.00112363 -0.0132482 -0.0136457  0.0230448  
0.00733061  0.0116046 0.000679515 -0.0249248 -0.0240315  0.0172434  
 0.0030364  0.0114639 0.000411743 -0.0252373 -0.0289181  0.0262634  
-0.000171446  0.0133312 0.000692514 -0.0143744 -0.0186015  0.0307812  
0.00305768  0.0126807 0.000683486  -0.019057 -0.0212568  0.0248456  
 0.0157563 0.00982193 0.000413558  0.0247229  0.0205768  0.0143298  
 0.0127494  0.0109718 -9.39577e-05  0.0312157  0.0289579  0.0193236  
 0.0230975 0.00496122 -0.000472064  0.0387477  0.0340273  0.0105577  
 0.0252904 0.00418943 -0.000166581  0.0314709  0.0254332  0.0072214  
 0.0196889 0.00730569 -0.00016624  0.0314258  0.0268355  0.0124627  
 0.0149106  0.0100892 0.000171987  0.0248651  0.0203996  0.0112026  
 0.0122507  0.0111441 0.000243695  0.0308745  0.0284203  0.0186854  
 0.0225777 0.00510644 -0.000101651  0.0384748  0.0335414 0.00988013  
 0.0244295 0.00443756 -0.000269536  0.0315008  0.0250323 0.00425634  
  0.018994  0.0075234 5.93958e-05  0.0313403  0.0264375  0.0108808  
0.00265262   0.013577 0.000633858 -0.0134778 -0.0147285  0.0236543  
 0.0076498  0.0113621 0.000416123 -0.0255138 -0.0247496   0.017617  
0.00299024  0.0110814 0.000231883 -0.0269963 -0.0310486  0.0271688  
0.00309448  0.0123488 0.000481196 -0.0198852 -0.0226995  0.0257786  
 0.0399619 -0.00534615 -0.000707836  0.0367012  0.0287831 -0.00552374  
 0.0380548 -0.00464132 -0.000331669   0.047629   0.043045 -0.00340799  
 0.0598135 -0.0169182 -0.000591388  0.0431295   0.042415  -0.022652  
 0.0498836 -0.0114978 -0.000717158  0.0405124  0.0354418 -0.0136031  
 0.0407564 -0.00555303 -0.00115561  0.0371593  0.0297345 -0.00409065  
 0.0384925 -0.00475352 -0.000631161  0.0479111  0.0434271 -0.00282494  
 0.0601404 -0.0170015 -0.000823039  0.0435368  0.0428681 -0.0223485  
  0.050402 -0.0116426 -0.00099087  0.0409572  0.0361141 -0.0127461  
 -0.003061  0.0105556 0.000294889 -0.0148701 -0.0236059  0.0423605  
-0.00369884  0.0115876 0.000233808 -0.0331076 -0.0390597  0.0397694  
 -0.014591  0.0128549 7.30044e-05 -0.0333579 -0.0391969  0.0606343  
-0.00803041  0.0116214 0.000175019 -0.0235709 -0.0317381   0.051336  
8.68391e-05   0.016331 0.000717904  0.0100913  0.0092487   0.034074  
0.00477073  0.0156963 0.000675448  0.0146802  0.0133343  0.0220425  
0.00122853  0.0168568 0.00142103  0.0100786 0.00836601  0.0280487  
 0.0184609 0.00490863 0.00548274  -0.026634 -0.0155778  0.0138612  
0.00823415  0.0130797 -0.000728302 -0.00991315 -0.00494378  0.0119299  
 0.0119446 0.00784217 0.00615327 -0.0219126 -0.0132591   0.017349  
 0.0188105 0.00540136 -0.00317033 -0.0265721 -0.0186538 -0.0062392  
 0.0057478  0.0133228 0.00413254 -0.0105736 -0.00584331  0.0163143  
 0.0127241 0.00814667 -0.00220605  -0.022632 -0.0170347 -0.00145917  
6.52773e-05  0.0164847 -0.000178093  0.0103351 0.00660304  0.0316852  
0.00430602  0.0156275  0.0011193  0.0151462  0.0143592  0.0202383  
0.00108497  0.0170213 0.000401565  0.0106598  0.0057148  0.0255817  
  0.033729 -0.0038579 -0.000385396  0.0573328  0.0564988 0.00631199  
 0.0576009 -0.0186632 -0.000318769  0.0551044  0.0686167 -0.0144543  
 0.0447266 -0.0143517 -0.000227268  0.0655841  0.0722943 0.00482823  
0.00436243  0.0056457 2.34313e-05 -0.0549167 -0.0551132  0.0295891  
-0.00895651 0.00773431 2.31255e-05 -0.0809346 -0.0690858  0.0510195  
0.00878707 -0.00191361 2.16933e-06 -0.0803403 -0.0708905  0.0304213  
 0.0036954 0.00650322 0.000117628 -0.0517146 -0.0527922   0.029803  
-0.00895703 0.00834673 5.55608e-05 -0.0768293 -0.0667573  0.0505453  
  0.008197 -0.00107444 5.42536e-05 -0.0779008  -0.069415  0.0307563  
 0.0335223 -0.0037987 -0.000190455  0.0570494  0.0562592 0.00598794  
  0.057368 -0.0186243 -0.000180991  0.0548677  0.0683915 -0.0146388  
 0.0445732 -0.0143235 -0.000114804  0.0653955   0.072139 0.00460498  
-0.0037745 0.00981268 0.000316319 -0.00739298 -0.0152932  0.0470482  
-0.00263781 0.00731415 0.000441948 -0.00434662 -0.00967261  0.0497847  
 0.0448062 -0.00833184 -0.00134323  0.0299559  0.0219997 -0.0109921  
  0.049052 -0.00954319 -0.00406118  0.0273073  0.0207669 -0.0160154  
 0.0460791 -0.00863265 -0.00151412  0.0306481  0.0240234 -0.00687003  
 0.0494798 -0.00997437 -0.000138682  0.0282384  0.0243673 -0.00398049  
-0.00384443  0.0109473 0.000134773 -0.0367257 -0.0421969  0.0407605  
-0.0160146  0.0134935 3.95319e-05 -0.0455014 -0.0472001  0.0608557  
-0.0167623  0.0136084 5.54217e-05 -0.0235636 -0.0310438  0.0658835  
-0.00999937  0.0122699 9.62292e-05 -0.0307859 -0.0370865  0.0539184  
 0.0091672  0.0117038 0.000713458 -0.0197454 -0.0160181  0.0125575  
0.00203436  0.0150339 0.00126451 -0.00948667 -0.00928337  0.0213551  
0.00507517  0.0134035 0.00112142 -0.0143866 -0.0122726  0.0170791  
0.00691081  0.0141591 0.000173783  0.0203696   0.019196  0.0231017  
 0.0126093  0.0113847 -0.000877576  0.0157268  0.0112334  0.0131076  
0.00976812  0.0127675 0.00080172  0.0198769  0.0171953  0.0187977  
0.00640603  0.0143201 0.000533238  0.0202215  0.0185659  0.0222936  
 0.0102252  0.0116456 0.00273486  0.0163842  0.0117911  0.0140642  
0.00911589  0.0129732 0.000519118  0.0201706  0.0170278  0.0162324  
0.00967657  0.0114224 0.00113882 -0.0199089 -0.0158806  0.0147731  
0.00225716  0.0145832 0.00172406 -0.00926616 -0.00893596  0.0226348  
0.00534865   0.013166 0.00134094 -0.0143125 -0.0124491   0.018818  
-0.0305626  0.0204297 -7.44726e-06 -0.0189323 -0.0231581  0.0839521  
-0.0217844  0.0142344 -4.87863e-05 -0.00188446 -0.00778508  0.0797449  
-0.0108214 0.00846041 2.33576e-05 -0.00835608 -0.0164515  0.0647821  
-0.0193673  0.0141651 3.11129e-06 -0.0130496 -0.0198682  0.0738977  
  0.078019 -0.0267519 -0.000979149  0.0119279  0.0177747 -0.0415766  
 0.0765577 -0.0228032 -0.000617414  0.0265578  0.0415645 -0.0449008  
 0.0827963 -0.0231418 -0.000479184 -0.00317767 0.00685953  -0.061529  
 0.0806268 -0.0229398 -0.00056512  0.0117361  0.0261043 -0.0531817  
-0.0398804  0.0279984 1.11715e-05 -0.0541119 -0.0469597  0.0869871  
-0.0509385  0.0362759 -2.28493e-05 0.000433297 -0.00858214   0.104114  
-0.0461781  0.0333907 -5.73978e-06  -0.027007  -0.027866  0.0969477  
-0.0257629  0.0169297 -1.55425e-05  -0.006142 -0.0130691  0.0816776  
-0.0357587  0.0252251 1.39545e-05 -0.0410731 -0.0388638  0.0847868  
-0.0486903  0.0348435 -3.26154e-05 0.00953177 -0.0011982   0.103008  
-0.0425231  0.0305867 -1.10665e-05 -0.0187498 -0.0214243  0.0949088  
 0.0779075 -0.0267219 -0.000925613  0.0114366  0.0171638 -0.0417854  
 0.0763549  -0.022779 -0.000494733  0.0261612  0.0411321 -0.0451044  
 0.0828478 -0.0231495 -0.000506227 -0.00359861 0.00641908 -0.0615264  
 0.0805416 -0.0229314 -0.000515155  0.0113214  0.0256478 -0.0532874  
 0.0739597 -0.0250928 -0.000752368 -0.0249009 -0.0129275 -0.0438023  
 0.0737744 -0.0240803 -0.000366678 -0.0297613 -0.0298471 -0.0528875  
 0.0790069 -0.0233154 -0.000437983 -0.0156981 -0.0110656 -0.0576889  
 0.0737464 -0.0250353 -0.000608135 -0.0244731 -0.0125204  -0.043894  
 0.0735596 -0.0240621 -0.000249316 -0.0294281 -0.0295896 -0.0530188  
 0.0788657 -0.0233026 -0.000363526 -0.0153152 -0.0107199 -0.0577588  
-0.0248178  0.0182478 -6.19946e-05  0.0260537  0.0185258  0.0831005  
-0.0328301  0.0255893 -4.12072e-05  0.0584093  0.0378556  0.0914619  
-0.0414553  0.0312185 -3.7608e-05  0.0344119  0.0183309  0.0986155  
 -0.024222   0.017965 1.82917e-05 -0.0695451 -0.0589301  0.0696147  
 0.0680262 -0.0209252 -0.000329918  0.0398444  0.0549931 -0.0306031  
 0.0682626  -0.020957 -0.000467016  0.0401535  0.0553075 -0.0304085  
 -0.023177  0.0178584  3.643e-05 -0.0599539 -0.0532708  0.0696035  
0.00411921 0.00859109 0.000122031 -0.0402589 -0.0423147   0.028538  
  0.028415 0.000697077 -0.000429422  0.0476946  0.0448134 0.00902868  
 0.0280766 0.00080635 -0.000171984   0.047387  0.0444549 0.00854121  
0.00394993 0.00912976 0.000255878  -0.037883 -0.0403245  0.0281339  
-0.0248994  0.0177921 -7.88618e-05  0.0163528  0.0109475  0.0827917  
-0.0304912  0.0240863 -6.57764e-05  0.0484634  0.0325688  0.0887721  
-0.0406016   0.030489 -4.70043e-05  0.0283085  0.0138252  0.0978778  
 0.0739713 -0.0271748 -0.00123575 -0.0128711 0.000747359 -0.0382689  
 0.0687172 -0.0248388 -0.00202638 -0.00125145 0.00768149 -0.0261079  
 0.0730623 -0.0261718 -0.00151972 0.00401945  0.0122543 -0.0336472  
-0.0186859   0.013277 -0.000101276  0.0074678 0.00434315  0.0775586  
-0.00724171 0.00546877 -9.72241e-05 0.00166932 -0.00157182  0.0660813  
-0.0158043  0.0110446 -5.52482e-05 -0.00185813 -0.00628462  0.0736418  
 0.0741906 -0.0272455 -0.00131588 -0.0135946 -0.000202223 -0.0379929  
 0.0688025 -0.0248511 -0.00221016 -0.00251081 0.00532463 -0.0266461  
 0.0730124 -0.0261549 -0.0014924 0.00321608  0.0109857 -0.0338532  
-0.0116968  0.0111334 -0.000156389  0.0140031  0.0149726  0.0689936  
-0.0093909 0.00713354 -0.000120874 0.00118944 -0.00055507  0.0683063  
-0.0169335  0.0125899 -9.986e-05 0.00804264 0.00445904  0.0754116  
 0.0155915 0.00719536 0.00667349  0.0271978  0.0234032  0.0198935  
0.00057803  0.0146168 0.000834141 -0.0063292 -0.00591012  0.0227163  
0.000416415  0.0146103 0.00210473 -0.00668714 -0.00237242  0.0238818  
 0.0166216   0.007632 -0.00418215  0.0279879  0.0227044 -0.00316349  
 0.0515592 -0.0151992 -0.00021142 -0.0493391 -0.0373433 -0.0261561  
 0.0642999  -0.022964 -0.000142656 -0.0427777 -0.0434732 -0.0399509  
-0.00874888   0.012926 -0.000120523  0.0378279  0.0371346  0.0621492  
-0.0170945  0.0169539 -7.25916e-05  0.0634508  0.0478842  0.0764462  
-0.00867213  0.0126488 -5.55167e-05  0.0467173  0.0430813   0.062975  
-0.0173745  0.0167191 -3.74911e-05  0.0702148  0.0516843  0.0772635  
    0.0519 -0.0153107 -0.000430126 -0.0496686 -0.0375783 -0.0260705  
 0.0645716 -0.0230294 -0.00026701 -0.0430373 -0.0436536 -0.0398778  
  0.056954 -0.0175059 -0.000561944  -0.038369 -0.0208739 -0.0294261  
 0.0598862 -0.0193746 -0.00114159 -0.0250212 -0.00772961  -0.025444  
  0.066323 -0.0222922 -0.00089381 -0.0254626 -0.00987726 -0.0338609  
-0.0126541  0.0143271 -9.82561e-05  0.0257599  0.0263844  0.0668895  
-0.00860074 0.00967325 -0.000144575  0.0101556  0.0123686  0.0638146  
-0.0157193  0.0139781 -0.000101708   0.016985  0.0155121  0.0731157  
 0.0574315 -0.0176527 -0.000797826 -0.0388355 -0.0212266 -0.0288378  
  0.060426 -0.0195409 -0.00137442 -0.0257946 -0.0086494 -0.0245542  
 0.0666769 -0.0223959 -0.00106464 -0.0260608 -0.0105154 -0.0334036  
-0.00700066 0.00541806 -6.44329e-05 -0.00176371 -0.00728242  0.0648901  
-0.00292947 0.00505156 0.000102841 -0.00255786 -0.00936104  0.0550743  
-0.00649014 0.00688278 1.32367e-05 -0.00529179 -0.0129131  0.0598649  
 0.0351921 -0.00402038 -2.19829e-05  -0.035126 -0.0202847 -0.00963722  
 0.0421285 -0.00860702 -0.000176941 -0.0414898 -0.0278107 -0.0162847  
-0.00110363  0.0135296 -0.000154302  0.0177944  0.0220106  0.0424655  
-0.00809498  0.0132356 -0.000108213  0.0182058   0.021288  0.0590735  
-0.00416342  0.0134814 -0.000105287  0.0270409   0.029783   0.051783  
-0.00271382  0.0134541 -2.22042e-05  0.0202142  0.0240758  0.0463708  
-0.00490032  0.0135203 -4.7803e-05  0.0316189  0.0326854  0.0537588  
 0.0358903 -0.00421158 -0.00047445 -0.0354386 -0.0202428 -0.00872204  
 0.0426115 -0.00875587 -0.000449784 -0.0418301 -0.0279327  -0.015722  
-0.00126777 0.00224168 -0.000327643 -0.000209728 -0.00296751  0.0598615  
-0.00132208 0.00378873 -0.000581472 -0.00140498 -0.00496786  0.0543031  
-0.00709581  0.0108553 -0.000141391  0.0115482  0.0145324  0.0598297  
 0.0499939 -0.0126663 -0.000819028 -0.0300899 -0.0119653 -0.0154818  
 0.0283147 0.000578498 -0.000216092 -0.0291172 -0.0159479 -0.00163018  
 0.0384624 -0.00553065 -0.000215849 -0.0307857 -0.0153133 -0.0077714  
 0.0492514 -0.0123893 -0.00138124  -0.029324 -0.0113739 -0.0191482  
 0.0271196 0.000890794 0.000469275 -0.0288406 -0.0164048 -0.00317414  
 0.0376358 -0.00520775 -0.000679316 -0.0302919  -0.015312 -0.0112517  
-0.0054387  0.0108039 -0.00025222  0.0102413  0.0137415  0.0559859  
-0.0007919  0.0142937 3.28592e-05   0.016357  0.0192234  0.0390993  
-0.00302123  0.0128627 -0.000145269  0.0139949  0.0168369  0.0473784  
 0.0647093 -0.0224754 -0.00179021 -0.0161808 -0.00207251 -0.0233825  
 0.0591892 -0.0142576 -0.00205362 -0.00838597 0.000770293 -0.0115193  
 0.0638375 -0.0197215 -0.0025684 -0.00538586 0.00331232 -0.0200265  
-0.00637192 0.00668083 -0.00024401 0.00377138  0.0037398  0.0643939  
-0.00120033 0.00305181 -0.000437211 0.00110963 -0.000601593  0.0596723  
-0.0040989 0.00441924 -0.000216014 0.00103553 -0.000816703  0.0624827  
  0.064239 -0.0222716 -0.00220673 -0.0148763 -0.000199704 -0.0258147  
 0.0592081 -0.0141176 -0.00483469 -0.00683768 0.00414072 -0.0177054  
 0.0637514 -0.0196663 -0.00301103 -0.00390911 0.00662856 -0.0212804  
 0.0336112 -0.00109097 -0.000903495  0.0315844  0.0243153 -0.00271004  
  0.034574 -0.0013799 -0.00056404  0.0318392  0.0253061 0.00130861  
-0.0018471  0.0118111 0.000538609 -0.0113969  -0.017313  0.0382021  
 0.0170949 0.00795423 -0.000120312 -0.0231737 -0.0153362 0.00628388  
 0.0232134 0.00336013 0.00162077 -0.0260281 -0.0139174 0.00556553  
0.00257249  0.0154569 0.000374743  0.0195173  0.0204703  0.0297026  
-4.9961e-05  0.0153481 1.43539e-05   0.012692  0.0125705  0.0348034  
0.00283237  0.0153448 6.0246e-05  0.0205414  0.0218823  0.0307515  
-0.000199344  0.0150496 0.000128669  0.0132612  0.0147626  0.0377336  
 0.0158655  0.0080717 0.00151181 -0.0233597 -0.0159058 0.00656372  
 0.0223755  0.0038424 -0.000356463 -0.0259392  -0.015346 -0.0022412  
-0.00314083 0.00327074 -0.000301359 0.000520837 -0.00248245  0.0617496  
-0.00621111 0.00539576 -0.000117922 0.00104288 -0.00188271  0.0650559  
-0.00140018 0.00362716 5.05062e-05 0.00111859 -0.000446896   0.060438  
 0.0125749  0.0093533 0.000511115 -0.0256804 -0.0207166   0.012284  
  0.007486  0.0131371 4.93928e-05  0.0256318  0.0254095  0.0257496  
0.00720267  0.0132958 0.000257004   0.025112  0.0244697  0.0245519  
 0.0120451 0.00961621 0.000668079 -0.0254184  -0.020576  0.0110303  
 0.0559134 -0.0159465 -0.00232604  -0.019901 -0.00422354 -0.0156686  
 0.0573944 -0.0171562  -0.001383 -0.0231778 -0.00699442 -0.0191779  
-0.00324532 0.00741099 -0.000253804 0.00415688 0.00538477  0.0563166  
-0.00587038 0.00878092 -0.000243736 0.00728503 0.00903639  0.0603644  
  0.054542 -0.0156678 -0.00135095 -0.0185511 -0.0023421 -0.0189992  
  0.056736 -0.0169369 -0.00173426 -0.0221783 -0.00583526 -0.0220432  
 0.0529639 -0.0113642 0.00181369 -0.0203448 -0.00826178 -0.00279349  
-0.00148254 0.00572926 -0.000871839 0.00277132 0.000660121  0.0570836  
 0.0538157 -0.0110135 -0.00737438 -0.0190501 -0.00655466 -0.0218356  
 -0.071157 -0.0134233 -2.16574e-05 -0.00465555 -0.00913394 -0.0757414  
-0.0711733 -0.0134113 -2.02714e-05 -0.00463582 -0.00911809 -0.0757399  
-0.0712643 -0.0134213 -1.20154e-05 -0.00479995 -0.0093313 -0.0756384  
-0.0712945 -0.0134028 -1.03656e-05 -0.00481162 -0.00935158 -0.0756159  
-0.0712786 -0.0134214 -8.1613e-06 -0.00469631 -0.00916834 -0.0755983  
-0.0712833 -0.0134211 -7.59939e-06 -0.00468949 -0.00916261 -0.0755915  
-0.0711404 -0.0134218 -2.78707e-05 -0.00481108 -0.00929235 -0.0757852  
-0.0711464 -0.0134169 -2.77012e-05 -0.00482276 -0.00930141 -0.0757888  
-0.0711834 -0.0134046 -2.37685e-05 -0.00484116 -0.00933729 -0.0757591  
-0.0711567 -0.0134583 -1.97459e-05 -0.00478735 -0.00928108 -0.0757271  
-0.0711275  -0.013473 -2.10245e-05 -0.00474461 -0.00922899 -0.0757398  
  -0.07114 -0.0134901 -1.69142e-05 -0.00475159 -0.00924172 -0.0757068  
-0.0711416 -0.0134853 -1.68055e-05 -0.00472445 -0.00920847  -0.075705  
-0.0711364 -0.0134992 -1.5827e-05 -0.00474181 -0.00922913 -0.0756982  
-0.0711482 -0.0134979 -1.46167e-05 -0.00474124 -0.00922972 -0.0756854  
-0.0711362 -0.0134983 -1.6074e-05 -0.00474668 -0.00923417    -0.0757  
-0.0711575 -0.0134933 -1.42018e-05 -0.00474244 -0.00923131 -0.0756788  
-0.0711523 -0.0134871 -1.53249e-05 -0.00472526 -0.00921002 -0.0756902  
 -0.071135  -0.013486 -1.77338e-05 -0.00473175 -0.00921501 -0.0757125  
-0.0712053 -0.0134705 -1.15667e-05 -0.00473443 -0.00922809  -0.075642  
 -0.071161 -0.0134827 -1.54905e-05 -0.00476313 -0.00925697 -0.0756904  
-0.0711643 -0.0134829 -1.43757e-05 -0.0047215 -0.0092075 -0.0756803  
-0.0712174 -0.0134638 -1.12654e-05 -0.00473687 -0.00922923 -0.0756352  
-0.0711864 -0.0134696 -1.44633e-05 -0.00477312 -0.00927438 -0.0756752  
-0.0711445 -0.0134854 -1.71304e-05 -0.00476151 -0.00925152 -0.0757086  
-0.0711683 -0.0134537 -1.66767e-05 -0.00468382 -0.00916394 -0.0757044  
 -0.071169 -0.0134477 -1.96913e-05 -0.00480112 -0.00929731 -0.0757282  
-0.0711425 -0.0134624 -1.94471e-05 -0.00470206 -0.0091814 -0.0757244  
-0.0711897 -0.0134622 -1.3308e-05 -0.00469873 -0.0091781 -0.0756665  
-0.0712871 -0.0134331 -7.74558e-06 -0.00473079 -0.00923441 -0.0755747  
-0.0712242 -0.0134135 -1.31735e-05 -0.0046461 -0.00911714  -0.075671  
-0.0711077  -0.013433 -3.06527e-05 -0.00474562 -0.0092237 -0.0758013  
-0.0711286 -0.0134677 -2.19347e-05 -0.00476058 -0.00924359 -0.0757462  
 -0.071108 -0.0134307 -3.12289e-05 -0.00476072 -0.00923538 -0.0758048  
-0.0712267 -0.0134105 -1.71643e-05 -0.00483251 -0.00934787 -0.0757057  
-0.0712232 -0.0134236 -1.59301e-05 -0.00481832 -0.00933469 -0.0756877  
-0.0711998 -0.0134638 -1.23102e-05 -0.00470962 -0.00919056 -0.0756549  
-0.0712892 -0.0134321 -7.96604e-06 -0.0047331 -0.00923407 -0.0755754  
-0.0712512 -0.0134109 -1.04844e-05 -0.00464864 -0.0091202 -0.0756473  
  -0.07113 -0.0134545 -2.24515e-05 -0.00470257 -0.00918424 -0.0757506  
-0.0711233 -0.0134557 -2.37464e-05 -0.00471908 -0.00919726  -0.075757  
-0.0711886 -0.0133976 -2.40995e-05 -0.00485211 -0.00934331 -0.0757672  
-0.0712155  -0.013458 -1.25007e-05 -0.00476991 -0.00927952 -0.0756489  
-0.0711222 -0.0134272 -2.74009e-05 -0.00467792 -0.0091611 -0.0757846  
-0.0711148 -0.0134298 -2.87608e-05 -0.00469441 -0.00917405 -0.0757878  
-0.0712303 -0.0134569 -1.1236e-05 -0.00475881 -0.00926545 -0.0756292  
 -0.071286 -0.0134288 -9.31391e-06 -0.00476523 -0.00929301 -0.0755924  
-0.0712329 -0.0133938 -1.35179e-05 -0.0046205 -0.00909362  -0.075688  
-0.0712837 -0.0134009 -7.98761e-06 -0.00465336 -0.00911725 -0.0756122  
 -0.071294 -0.0134186 -9.0778e-06 -0.00476958 -0.00930623 -0.0755907  
-0.0712854 -0.0134294 -7.59956e-06 -0.00471026 -0.00919842 -0.0755809  
-0.0712335 -0.0134423 -1.05638e-05 -0.00469348 -0.00916992 -0.0756305  
-0.0711979  -0.013468 -1.2238e-05 -0.00471695 -0.00920353 -0.0756524  
-0.0712451 -0.0134519 -9.6631e-06 -0.00473268 -0.00923147 -0.0756077  
-0.0712392 -0.0134486 -9.97754e-06 -0.00471302 -0.00920014 -0.0756175  
-0.0713438 -0.0133957 -4.53352e-06 -0.00468662 -0.0091535 -0.0755408  
 -0.071352 -0.0134077 -5.33651e-06 -0.00473265 -0.0092427 -0.0755198  
-0.0713464 -0.0134008 -4.9163e-06 -0.00471127 -0.00919916 -0.0755284  
-0.0712832 -0.0134289 -8.014e-06 -0.00471614 -0.0092005 -0.0755851  
-0.0712377 -0.0134436 -1.03115e-05 -0.00470158 -0.00918025 -0.0756257  
-0.0712081 -0.0134647 -1.17654e-05 -0.00472285 -0.00921043 -0.0756446  
-0.0712551 -0.0134466 -9.60551e-06 -0.00473604 -0.00923233 -0.0756029  
-0.0712464 -0.0134455 -9.90938e-06 -0.0047179 -0.00920548 -0.0756137  
-0.0712243  -0.013445 -1.33734e-05 -0.00478674 -0.00930215 -0.0756578  
-0.0711784 -0.0134597 -1.68498e-05 -0.00478724 -0.00928637 -0.0757005  
-0.0711961 -0.0134287 -1.86552e-05 -0.0048177 -0.00932182 -0.0757184  
-0.0712474 -0.0134161 -1.42838e-05 -0.00481665 -0.00934012 -0.0756702  
-0.0712111 -0.0134382 -1.56834e-05 -0.00480204 -0.0093116 -0.0756859  
-0.0713337 -0.0133762 -8.74235e-06 -0.00482232 -0.00938591 -0.0756043  
-0.0712563 -0.0134137 -1.33253e-05 -0.00481505 -0.0093431 -0.0756553  
 -0.071259 -0.0133842 -1.56225e-05 -0.00484981 -0.00937614 -0.0756952  
-0.0712936 -0.0133805 -1.22216e-05 -0.00483679 -0.00938081 -0.0756547  
-0.0711912 -0.0134183 -1.72893e-05 -0.00464899 -0.00912398 -0.0757067  
-0.0712595 -0.0133776 -1.09291e-05 -0.00461045 -0.0090792 -0.0756662  
-0.0711752 -0.0133876 -2.21444e-05 -0.00461095 -0.00909732  -0.075752  
-0.0712178 -0.0133824 -1.64308e-05 -0.00461166 -0.00908703 -0.0757115  
-0.0713366 -0.0133962 -5.6481e-06 -0.00469209 -0.00915762 -0.0755446  
-0.0713555 -0.0134054 -6.40277e-06 -0.00473271 -0.00924422 -0.0755201  
-0.0713447 -0.0134004 -5.97812e-06 -0.00471019 -0.00920093 -0.0755309  
-0.0711283 -0.0133904 -3.58085e-05 -0.00484032 -0.00930208 -0.0758302  
-0.0711238 -0.0134242 -2.97989e-05 -0.00479253 -0.00926814 -0.0757981  
-0.0710869 -0.0134019 -4.00895e-05 -0.00475305  -0.009225 -0.0758462  
-0.0711035 -0.0133978 -3.84304e-05 -0.00479485 -0.00926285 -0.0758377  
-0.0711407 -0.0134919 -1.65916e-05 -0.00475375 -0.00924235 -0.0757043  
-0.0711657 -0.0134767 -1.57876e-05 -0.00476837 -0.00926428 -0.0756915  
 -0.071172 -0.0134827 -1.42066e-05 -0.00475636 -0.00925054 -0.0756758  
 -0.071147 -0.0134964 -1.51113e-05 -0.00474569 -0.00923446 -0.0756896  
 -0.071157 -0.0134871 -1.53796e-05 -0.00475541 -0.0092479 -0.0756901  
-0.0712657 -0.0134172 -9.1723e-06 -0.00466969 -0.00914432 -0.0756213  
-0.0713111 -0.0133794 -7.15082e-06 -0.00463576 -0.00909435 -0.0756077  
-0.0713243 -0.0133855 -6.20718e-06 -0.00466631 -0.00912759 -0.0755744  
-0.0711366 -0.0134923 -1.68481e-05 -0.00473999 -0.00922508 -0.0757063  
-0.0711417 -0.0134984 -1.53546e-05 -0.00474256 -0.00922989 -0.0756931  
-0.0711506 -0.0134937 -1.48322e-05 -0.00473409 -0.00922092  -0.075687  
-0.0711441 -0.0134862 -1.65298e-05 -0.0047289 -0.00921231 -0.0757017  
-0.0711441 -0.0134926 -1.5784e-05 -0.00473658 -0.00922161 -0.0756964  
-0.0711462 -0.0134966 -1.50345e-05 -0.00474075 -0.00922846 -0.0756895  
-0.0711425 -0.0134989 -1.52126e-05 -0.00474283 -0.00923117 -0.0756919  
 -0.071144 -0.0134983 -1.52124e-05 -0.00474348 -0.00923088 -0.0756922  
-0.0711614 -0.0134889 -1.42047e-05 -0.00473299 -0.0092209  -0.075679  
-0.0711523 -0.0134842 -1.56771e-05 -0.00472357 -0.00920814  -0.075694  
-0.0711402 -0.0134922 -1.62626e-05 -0.00473373 -0.00921915 -0.0757015  
-0.0711506 -0.0134906 -1.52201e-05 -0.00473329 -0.00921892 -0.0756907  
-0.0711551 -0.0134914 -1.48673e-05 -0.00475082 -0.00924233 -0.0756864  
-0.0711385 -0.0134946 -1.63573e-05 -0.00474641 -0.00923474 -0.0757026  
 -0.071151 -0.0134858 -1.61746e-05 -0.00475748 -0.00925022 -0.0756977  
-0.0711473 -0.0134927 -1.56012e-05 -0.00474868 -0.00923959 -0.0756943  
-0.0711344 -0.0134795 -1.88483e-05 -0.00473279 -0.00921691 -0.0757222  
-0.0711337 -0.0134813 -1.9036e-05 -0.00474866 -0.00923534  -0.075724  
-0.0711376 -0.0134865 -1.75767e-05 -0.0047403 -0.00922618 -0.0757126  
-0.0711401 -0.0134659 -2.05436e-05 -0.00476635 -0.0092554 -0.0757339  
-0.0711584 -0.0134712 -1.75551e-05 -0.00477458 -0.00926914 -0.0757085  
-0.0711452 -0.0134757 -1.84085e-05 -0.00476273 -0.00925339 -0.0757163  
-0.0711865 -0.0134707 -1.40668e-05 -0.00476662 -0.00926884   -0.07567  
-0.0711884   -0.01344 -1.79856e-05 -0.00480391 -0.00930806 -0.0757087  
-0.0712208 -0.0134415 -1.3968e-05 -0.00479307 -0.00930696 -0.0756661  
-0.0711882 -0.0134563 -1.58258e-05 -0.0047843 -0.00928864 -0.0756874  
-0.0711231 -0.0133938 -3.52262e-05 -0.00482781 -0.00929159 -0.0758244  
-0.0711206 -0.0134278 -2.96216e-05 -0.00477901 -0.00925786 -0.0757943  
-0.0710869 -0.0134033 -3.94299e-05 -0.00473769 -0.00921196 -0.0758435  
-0.0711009 -0.0134002 -3.78411e-05 -0.00478105 -0.00925125 -0.0758333  
-0.0711751 -0.0134839 -1.32173e-05 -0.00473774 -0.00922891 -0.0756646  
 -0.071171 -0.0134739 -1.43491e-05 -0.00471121 -0.00919316  -0.075678  
-0.0711737 -0.0134803 -1.35849e-05 -0.00472555 -0.00921285 -0.0756691  
 -0.071185 -0.0134789 -1.29027e-05 -0.00473995 -0.00923051 -0.0756589  
-0.0711826 -0.0134726 -1.33067e-05 -0.00471487 -0.00919865 -0.0756665  
 -0.071184 -0.0134766 -1.30438e-05 -0.00472829 -0.00921638 -0.0756617  
-0.0711371 -0.0134766 -1.94899e-05 -0.00476219 -0.00924803 -0.0757272  
-0.0711467  -0.013458 -2.09512e-05 -0.00478133 -0.00927072 -0.0757378  
-0.0711561  -0.013468 -1.8275e-05 -0.00477597 -0.00926815 -0.0757144  
-0.0713168 -0.0133849 -1.10772e-05 -0.00481929 -0.00937417 -0.0756193  
-0.0712629 -0.0133753 -1.73646e-05 -0.0048611 -0.00938394  -0.075709  
-0.0712917 -0.0133794 -1.383e-05 -0.00484008 -0.00937899 -0.0756638  
-0.0711505 -0.0134425 -2.06076e-05 -0.0046789 -0.00915783 -0.0757338  
-0.0711661 -0.0134628 -1.62341e-05 -0.00469989 -0.00917878 -0.0756954  
-0.0712074 -0.0134391 -1.3202e-05 -0.0046741 -0.00914944 -0.0756679  
-0.0711798 -0.0134409 -1.66504e-05 -0.00467579 -0.00915199 -0.0757004  
-0.0711184 -0.0134532 -2.56128e-05 -0.00474516 -0.00922613 -0.0757698  
-0.0711487 -0.0134412 -2.34743e-05 -0.00479928 -0.00928699 -0.0757542  
-0.0711303 -0.0134479 -2.48002e-05  -0.004772 -0.00925621 -0.0757627  
-0.0711315 -0.0134772 -1.98005e-05 -0.00474444 -0.00922738 -0.0757292  
-0.0711374  -0.013484 -1.81344e-05 -0.00475008 -0.00923547 -0.0757166  
-0.0711396 -0.0134742 -1.85718e-05 -0.0047175 -0.00919879 -0.0757186  
-0.0711556 -0.0134738 -1.64498e-05 -0.00471365 -0.00919498 -0.0756993  
-0.0712839 -0.0134123 -7.73909e-06 -0.00467284 -0.00914227 -0.0756003  
-0.0712513 -0.0134078 -1.07787e-05 -0.00464943 -0.00911648 -0.0756446  
-0.0712425 -0.0134264 -1.06047e-05 -0.00467405 -0.0091452 -0.0756365  
 -0.071119 -0.0134491 -2.643e-05 -0.00476162 -0.00923965 -0.0757752  
-0.0711578 -0.0134332 -2.34739e-05 -0.00481247 -0.00929936 -0.0757572  
-0.0711352 -0.0134419 -2.51747e-05 -0.00478699 -0.00926905 -0.0757669  
-0.0711279 -0.0134647 -2.17634e-05 -0.00472599 -0.00920928 -0.0757448  
-0.0711264 -0.0134402 -2.50908e-05 -0.0046901 -0.00917215 -0.0757682  
-0.0711128 -0.0134304 -2.93038e-05 -0.00471316 -0.00919413 -0.0757934  
-0.0711205 -0.0134471 -2.55614e-05 -0.00472001 -0.00920176 -0.0757691  
-0.0712102 -0.0134657 -1.19276e-05 -0.00475063 -0.0092533  -0.075644  
-0.0711802  -0.013479 -1.35179e-05 -0.00475057 -0.00924803  -0.075666  
-0.0712058 -0.0134154 -1.92595e-05 -0.00482943 -0.00933637 -0.0757201  
-0.0711913  -0.013374 -2.61225e-05 -0.00486982 -0.00935395 -0.0757823  
-0.0712291 -0.0133793 -2.01766e-05 -0.00485884 -0.00936773 -0.0757366  
-0.0711603 -0.0134132 -2.59004e-05 -0.00482446 -0.00931359 -0.0757723  
-0.0711558 -0.0133842 -3.10113e-05 -0.00484587 -0.00932146 -0.0758034  
-0.0711497 -0.0134541 -1.94181e-05 -0.00469215 -0.00917302 -0.0757267  
-0.0711546 -0.0134699 -1.68444e-05 -0.00470527 -0.00918751 -0.0757049  
-0.0711411 -0.0134677 -1.93059e-05 -0.00471406 -0.00919675 -0.0757256  
-0.0711841 -0.0134594 -1.43532e-05 -0.00469554 -0.00917672 -0.0756796  
-0.0711688 -0.0134708 -1.50738e-05 -0.00470872 -0.00919206 -0.0756869  
-0.0711721 -0.0134329 -1.83736e-05 -0.00466044 -0.00914177 -0.0757213  
-0.0712072 -0.0134324 -1.38103e-05 -0.00466618 -0.00914213 -0.0756773  
-0.0712434 -0.0134035 -1.17727e-05 -0.00463498 -0.00910866 -0.0756652  
-0.0712006  -0.013403 -1.71928e-05 -0.00462759 -0.00910628 -0.0757166  
-0.0712047 -0.0134189 -1.5288e-05 -0.00464868 -0.00912561 -0.0756949  
-0.0712895  -0.013429 -8.353e-06 -0.00474823 -0.0092693 -0.0755806  
-0.0713443 -0.0133932 -6.82649e-06 -0.00478182 -0.00933376 -0.0755468  
-0.0713476 -0.0133992 -6.06063e-06 -0.00475595 -0.00928613 -0.0755304  
-0.0712059  -0.013464 -1.30157e-05  -0.004767 -0.00927126 -0.0756549  
-0.0712241 -0.0134607 -1.12073e-05 -0.00474647 -0.00924622 -0.0756316  
 -0.071195 -0.0134727 -1.28881e-05 -0.00475157 -0.00924989 -0.0756563  
-0.0711974 -0.0133689 -2.75155e-05 -0.00487938 -0.00936014 -0.0757914  
-0.0711657 -0.0134076 -2.59865e-05 -0.00483515 -0.00932072 -0.0757783  
-0.0711607 -0.0133802 -3.20631e-05 -0.00485657 -0.0093294 -0.0758114  
-0.0711754 -0.0134278 -2.1491e-05 -0.00481476 -0.00931089 -0.0757382  
-0.0711172 -0.0133946 -3.34418e-05 -0.00464867 -0.00913765 -0.0758168  
-0.0711472 -0.0134192 -2.39341e-05 -0.00465735 -0.00913982 -0.0757625  
-0.0711875 -0.0133797 -2.16394e-05 -0.00459651 -0.00908726 -0.0757543  
-0.0711489 -0.0133883 -2.78741e-05 -0.00462673 -0.00911141  -0.075788  
-0.0712225 -0.0134386 -1.18999e-05 -0.00468272 -0.00916071  -0.075651  
-0.0711104 -0.0133966 -3.42442e-05 -0.0046631 -0.00914928 -0.0758166  
-0.0711367 -0.0134263 -2.51979e-05 -0.00467482 -0.00915397 -0.0757641  
-0.0711416 -0.0133926 -2.82992e-05 -0.00463988 -0.00912117 -0.0757854  
-0.0712878 -0.0134316 -8.63122e-06 -0.00474852 -0.00926268 -0.0755829  
-0.0713478 -0.0133971 -8.14244e-06  -0.004775 -0.00932511 -0.0755508  
-0.0713503 -0.0134007 -7.26127e-06 -0.00475295 -0.00928423 -0.0755337  
-0.0712749 -0.0134255 -1.06443e-05 -0.0047833 -0.00931225 -0.0756157  
 -0.071332 -0.0133905 -9.5005e-06 -0.0047977 -0.00934856 -0.0755843  
-0.0712677 -0.0133655 -1.16513e-05 -0.00459456 -0.00906595  -0.075678  
-0.0712267 -0.0133722 -1.67813e-05 -0.00459786 -0.0090767 -0.0757196  
-0.0713285 -0.0133738 -4.89201e-06 -0.0046393 -0.00909103 -0.0755865  
-0.0713361 -0.0133837 -4.64695e-06 -0.00466585 -0.00912573 -0.0755612  
-0.0712951 -0.0134106 -9.68219e-06 -0.00479067 -0.00932662 -0.0756019  
-0.0713374 -0.0133845 -7.71754e-06 -0.00479832 -0.00935733 -0.0755749  
 -0.071293 -0.0133745 -7.90166e-06 -0.00462497 -0.0090853 -0.0756302  
 -0.071125 -0.0134624 -2.28687e-05 -0.00474237 -0.00922347 -0.0757515  
-0.0711196 -0.0134416 -2.64157e-05 -0.00470652 -0.00918499 -0.0757733  
-0.0711096 -0.0134304 -3.02402e-05 -0.00472886 -0.00920613 -0.0757968  
-0.0711174 -0.0134458 -2.66122e-05 -0.00473633 -0.00921474 -0.0757745  
-0.0710951 -0.0134007 -3.76683e-05 -0.00470817 -0.00918505 -0.0758316  
-0.0711341 -0.0134587 -2.15061e-05 -0.0047102 -0.00918897 -0.0757401  
-0.0711324 -0.0134687 -2.0736e-05 -0.00472923 -0.00921034 -0.0757354  
 -0.071098 -0.0134005 -3.69783e-05 -0.00469346 -0.00917317 -0.0758306  
-0.0712908 -0.0133722 -9.05768e-06 -0.00461796 -0.00908213 -0.0756411  
-0.0712104 -0.0134045 -2.01237e-05 -0.00484223 -0.00934562 -0.0757334  
 -0.071234 -0.0133721 -2.1808e-05 -0.00486881 -0.00937404 -0.0757482  
-0.0711495 -0.0134364 -2.1573e-05 -0.00467495 -0.00915581 -0.0757439  
-0.0711824 -0.0134186 -2.20184e-05 -0.00482718 -0.00932125 -0.0757464  
-0.0712517 -0.0134397 -1.08483e-05 -0.00477111 -0.00929253 -0.0756204  
-0.0712546  -0.013427 -1.19205e-05 -0.00479168 -0.00931757 -0.0756366  
-0.0712488 -0.0134467 -1.01542e-05 -0.00475066 -0.00926135 -0.0756121  
-0.0711365 -0.0134414 -2.33397e-05 -0.00469212 -0.00917051 -0.0757524  
-0.0712599 -0.0134415 -1.02967e-05 -0.00476287 -0.00927973 -0.0756093  
 -0.071241 -0.0134435 -1.19127e-05 -0.00477623 -0.00929186 -0.0756357  
-0.0712572 -0.0134447 -9.94424e-06 -0.00474833 -0.00925486 -0.0756056  
0.00159562  0.0190972 -0.000414754 0.00118415 -0.000160485  0.0195556  
0.00150732  0.0199965 -0.000400576 0.00280877 0.00169645  0.0215609  
0.00157971  0.0200338 -0.000500945 0.00312049 0.00216517  0.0216318  
0.00180688   0.019244 -0.000632505 0.00416614 0.00375504  0.0202329  
-0.00172137  0.0148071 0.000370527 0.000536527 -0.000451397  0.0341361  
-0.00127815  0.0153109 -0.000212594  0.0015371 0.000403849  0.0346553  
-0.00118245  0.0153604 -0.000355806 0.00204754 0.00100492  0.0347495  
-0.00142063  0.0150765 -6.12543e-06 0.00251265 0.00187811  0.0347926  
-0.00178554 0.00622029 0.00029632 5.26133e-05 -0.00113039  0.0516024  
-0.00151758 0.00637665 -5.93039e-05 0.000405519 -0.00114018  0.0517633  
-0.00145547 0.00640215 -0.000139438 0.00075724 -0.000786685   0.051824  
-0.0015309 0.00626036 0.000174578 0.000882207 -0.000319809  0.0520375  
-0.00118845 0.00171735 0.00016533 -0.000166893 -0.00211184   0.060242  
-0.00115701 0.00178785 -4.26652e-05 -6.96836e-05 -0.00242359  0.0600569  
-0.00116131 0.00178897 -4.07806e-05 -7.02649e-05 -0.00242608  0.0600562  
-0.00119436 0.00171321 0.000167198 -0.000105079 -0.00210935  0.0602459  
-0.00176276 0.00668718 0.00018047 0.000933672 -0.000999029  0.0519164  
-0.00168802 0.00676187 -0.000146035 0.000734546 -0.00148318  0.0513772  
-0.00175903 0.00674519 -7.93081e-05 0.000376371 -0.00185219  0.0513195  
-0.00204603 0.00668811 0.000200797 0.000193882 -0.00187022  0.0515221  
-0.00134593  0.0150383 -2.29012e-05 0.00292304  0.0014617  0.0352875  
-0.00112011   0.015212 -0.000355352 0.00208027 0.000471182  0.0348129  
-0.00122018  0.0151811 -0.000239448  0.0015744 -0.000155134  0.0347332  
-0.00172928  0.0149119 0.000231267 0.000978692 -0.00112236  0.0347209  
0.00180166  0.0192347 -0.000647341 0.00424391 0.00328045  0.0206398  
0.00154746    0.01993 -0.00049598 0.00269536 0.00176093  0.0217263  
0.00147871  0.0199109 -0.000418674 0.00237899 0.00128181   0.021673  
0.00152554  0.0191421 -0.000481918 0.00115191 -0.00073982   0.020046  
0.000904742  0.0177957 0.00165986 0.00128304 0.00206595  0.0214362  
0.00272465  0.0199374 -0.00109138 0.00211367 0.000766077  0.0168656  
0.00239121  0.0171001 0.00133542 0.00110198 0.00136797  0.0162534  
0.00153278  0.0197356 -0.00033609 0.00246485 0.00144831  0.0210701  
0.00224992  0.0206972 -0.000471914 0.00281024 0.00187179  0.0189772  
0.00237176  0.0203273 -0.000467534 0.00266912 0.00169877  0.0183207  
0.00152715  0.0200304 -0.000431374 0.00299938 0.00194675  0.0216582  
0.00228749   0.020724 -0.000531754 0.00300837  0.0021253  0.0190171  
0.00225081  0.0207077 -0.000470368 0.00293957 0.00201263  0.0190665  
0.00168602  0.0198268 -0.000682269 0.00354263 0.00231439  0.0210996  
0.00288332  0.0200478 -0.00131219 0.00338772 0.00280171  0.0170688  
0.00246197  0.0203903 -0.000677093 0.00321523 0.00213811  0.0183505  
0.00106029  0.0185623 -0.000210132  0.0047749 0.00101818    0.02083  
0.00252783  0.0174783 0.000279572 0.00452505  0.0018366  0.0164287  
-0.00170143  0.0143983 0.00164727 0.00146507 0.00177392  0.0365167  
-0.00022827  0.0174367 -1.11522e-05 0.000996544 -0.000306795  0.0265577  
-0.000521152  0.0165785 0.00172887 0.00162738 0.00213629  0.0287101  
-0.00142416  0.0151901 3.66139e-05 0.00121396 0.00029109  0.0346796  
2.64183e-05  0.0180818 -0.000323893 0.00234546 0.00111853  0.0276868  
-5.29875e-05   0.017888 -0.000135052  0.0019604 0.000918931  0.0274606  
-0.0012286  0.0153489 -0.000273598 0.00182093 0.000694422  0.0347768  
0.000113424  0.0181232 -0.000446622 0.00274106 0.00167059  0.0277686  
5.51497e-05  0.0181118 -0.000355485 0.00257509 0.00139831  0.0278088  
-0.00123926  0.0153037 -0.000399725 0.00241692 0.00114553  0.0346756  
4.59679e-05  0.0175932 -0.000240551 0.00350348 0.00288878  0.0272373  
0.000114026  0.0179824 -0.000530386 0.00318633 0.00182278  0.0274676  
-0.00130375  0.0152948 -0.00101056 0.00285509 -0.00039872  0.0350462  
-0.00021029  0.0174782 -0.000707948 0.00391512 0.000145966  0.0276118  
-0.00144336 0.00574625 0.00113645 0.000680218 0.000180322  0.0531023  
-0.00184319  0.0108511 0.000324376 0.000477848 -0.000753599  0.0422642  
-0.0015886  0.0102673 0.00148568 0.00119412 0.00114122  0.0441905  
-0.00160996 0.00632795 0.000147254 0.000305341 -0.00104616  0.0519506  
-0.00146204  0.0111283 -0.000132465 0.00109954 -0.000319118  0.0425853  
-0.00158332  0.0110422 0.000120312 0.000893373 -0.000306512  0.0427304  
-0.00146707 0.00639993 -0.000114523 0.000598905 -0.000975976  0.0518221  
-0.00138051  0.0111679 -0.000240999 0.00154904 0.000179711   0.042672  
-0.00140694  0.0111599 -0.000191519  0.0013476 -7.97554e-05  0.0426836  
-0.00146776 0.00639771 -0.00016583 0.000892191 -0.000710616  0.0518891  
-0.00152918  0.0109583 0.000123433 0.00181871 0.00086937  0.0428108  
-0.00140921  0.0111455 -0.000292236 0.00178919 0.000257556  0.0426883  
-0.0011431 0.00660026 -0.00100335 0.00100222 -0.00123695  0.0520261  
-0.00126789  0.0113143 -0.00112224 0.00203171 -0.000858243  0.0429041  
-0.000865242 0.00162255 -3.25069e-05 0.000216423 -0.00176732  0.0603542  
-0.00149349  0.0033845 0.000195343 0.000146708 -0.00168014  0.0568787  
-0.00114617 0.00306479 0.000598981 0.000589856 -0.000855891  0.0576575  
-0.00117002 0.00175276 3.2923e-05 -5.5627e-05 -0.00230416  0.0601335  
-0.00134043  0.0034758 -4.63304e-05 0.000345252 -0.00184773   0.056859  
-0.00138891 0.00343202 0.000100786 0.000298548 -0.00173867  0.0569963  
-0.00114095 0.00178694 -5.40062e-05 -6.33556e-05 -0.00244058  0.0600522  
-0.00130805 0.00348554 -8.08327e-05 0.000520508 -0.00167319  0.0568902  
-0.00130474 0.00348423 -7.78323e-05 0.000442949 -0.00177627  0.0568881  
-0.00117592   0.001757 3.63404e-05 -7.57907e-05 -0.00231191  0.0601293  
-0.00135916 0.00337423 0.000187635 0.000577913 -0.00129539   0.057101  
-0.00131631 0.00347006 -6.82982e-05 0.000584037 -0.00158312  0.0569611  
-0.000879949 0.00158338 1.72498e-05 4.24858e-05 -0.00178659  0.0602791  
-0.000997231 0.00351244 -0.000553637 0.000691641 -0.00154291  0.0570805  
-0.00136568 0.00689472 -0.00110053 0.000837101 -0.00194144  0.0508728  
-0.00142977 0.00381423 0.000161362 0.000240414 -0.00174775  0.0566624  
-0.00107362 0.00389282 -0.000603871 0.000395558 -0.0019957  0.0561732  
-0.00169602 0.00671925 -0.000168713 0.000837398 -0.00141392  0.0513452  
-0.00138397 0.00388649 -9.07082e-05 0.00019053 -0.00212463   0.056307  
-0.00139054 0.00385064 -7.15728e-05 0.000251878 -0.0020273  0.0563259  
-0.00170274 0.00674132 -0.000114612 0.000548976 -0.00167969  0.0513357  
-0.00142587 0.00388109 -5.39958e-05 4.6865e-06 -0.00231069  0.0562794  
-0.00138566 0.00387711 -7.98725e-05 9.84253e-05 -0.00223098  0.0562834  
-0.00185612 0.00665649 0.00016496 0.000221402 -0.00175632  0.0514034  
-0.00158742 0.00382526 0.000182278 -0.000115577 -0.00214484  0.0564701  
-0.00147967 0.00382086 0.000107114 -7.54809e-05 -0.00220629  0.0563549  
-0.00167459  0.0059469 0.00121889 0.000211786 -0.000533242  0.0517253  
-0.00124484 0.00336238 0.000648202 -2.0878e-05 -0.00134956  0.0565844  
-0.00119042  0.0150709 -0.00120448 0.00196169 -0.00116092  0.0338665  
-0.00156485  0.0112055 0.000100628 0.00212939 0.000541951  0.0433395  
-0.00127547  0.0113391 -0.00124043 0.00162957 -0.00131442   0.042029  
-0.00115852   0.015104 -0.000396192 0.00232588 0.000574019  0.0346238  
-0.00142042  0.0113137 -0.000253114 0.00163213 -0.000200218  0.0427847  
-0.00144328  0.0112396 -0.000287659 0.00179858 -0.000131882  0.0426779  
-0.00116621  0.0151812 -0.000271552  0.0017923 0.000156798  0.0348166  
-0.00150776  0.0112852 -0.000158453 0.00117748 -0.000715863  0.0427047  
-0.00145027  0.0112842 -0.000192251 0.00138606 -0.000465417  0.0427555  
-0.00138098  0.0150102 5.49474e-05 0.00113241 -0.000255061  0.0346467  
-0.00190646  0.0111247 0.000214505 0.000790448 -0.00121838  0.0428094  
-0.00163561   0.011154 0.000131335 0.000886375 -0.000701175  0.0427261  
 -0.001618  0.0138736 0.00181728 0.000566615 0.00148208  0.0349265  
-0.00162853  0.0102075   0.001589 0.000625746 0.00084758  0.0430554  
  0.001079  0.0183851 -0.000292943 0.00316781 0.000444191  0.0200568  
0.000149746  0.0175804 -0.000305954 0.00353767 0.00226372  0.0274598  
-0.000111116  0.0172095 -0.000774084 0.00244498 -0.000592984  0.0263099  
0.00164904  0.0196825 -0.000642181 0.00296415 0.00186746   0.021135  
0.000186039  0.0179798 -0.000442444 0.00234428 0.00102372  0.0275919  
0.000199779  0.0177952 -0.000513606 0.00264569 0.00114892  0.0271971  
0.00149711  0.0199159 -0.00042794 0.00249467 0.00153246  0.0217414  
0.000105069  0.0179526 -0.000348872 0.00195392 0.000466819  0.0275191  
0.000130978  0.0179513 -0.000352637 0.00210887 0.00075335  0.0276059  
0.00150456  0.0196295 -0.000356291 0.00188984 0.00100699  0.0211206  
-0.000179968  0.0174499 -8.56855e-05 0.00101995 -0.00101558  0.0268177  
1.46808e-05  0.0177209 -0.000134742 0.00143694 0.000255815  0.0272007  
0.000791268  0.0176265 0.00171935 8.4099e-05 0.00172821  0.0207009  
-0.000462204  0.0162414 0.00177507 0.000362162 0.00159004    0.02728  
0.00284124  0.0200791 -0.0012609 0.00357743 0.00258935  0.0173334  
0.00249032  0.0173826 0.000346654 0.00335413 0.00145082  0.0155275  
0.00226278  0.0207202 -0.00052447 0.00279487 0.00197071  0.0189841  
0.00242691  0.0203537 -0.000630478 0.00286803 0.00196112  0.0182739  
 0.0022324  0.0207169 -0.000493498 0.00260112 0.00171622  0.0189598  
0.00222934  0.0207037 -0.000470032 0.00265963  0.0018591  0.0190327  
0.00274336  0.0200484 -0.00123335 0.00222392 0.000539686  0.0168802  
0.00236497  0.0203374 -0.000507093 0.00233968 0.00153632  0.0182737  
0.00237501  0.0170521 0.00126095 0.000370882 0.00112276   0.016117  
0.00810266  0.0162574 -0.000490543 0.00286054 0.00290895 0.00962384  
0.00812739  0.0171085 -8.88526e-05 0.00226232 0.00222678   0.013203  
0.00841736  0.0174998 -0.000720956 0.00230195 0.00229426  0.0138786  
0.00933027  0.0177619 -0.00179499 0.00352504 0.00383852  0.0147245  
   0.02494 0.00251146 0.000822775 0.00189774 0.00511746 -0.00226139  
 0.0256502  0.0031944 0.000425966 0.000676559 0.00357888 0.000911337  
 0.0260411 0.00377005 -0.000473616 0.00075031 0.00367942 0.00188829  
 0.0271282 0.00460596 -0.00131269 0.00237372 0.00595527 0.00499379  
 0.0501705 -0.0177183 0.00104105 0.000767389 0.00763713  -0.016085  
 0.0503013 -0.0173825 0.000651384 -0.000242442 0.00609501 -0.0143516  
 0.0505217 -0.0169455 7.49197e-05 -0.000214917 0.00612973  -0.013469  
 0.0502386 -0.0160229 0.000798389 0.000504079 0.00772179 -0.00879666  
 0.0627827 -0.0279784  0.0015504 -0.000265627 0.00742651 -0.0187834  
 0.0632083 -0.0282481 0.000533685 -0.000374608 0.00718364 -0.0208779  
 0.0632138 -0.0282473 0.000528669 -0.000363078 0.00716264 -0.0208756  
 0.0627953 -0.0279741 0.00154384 -0.000626269 0.00696982 -0.0187445  
 0.0504022 -0.0158521 0.000730657 0.000310711 0.00534894 -0.00855926  
 0.0504603 -0.0167571 8.32874e-05 0.00123954  0.0065718 -0.0131659  
 0.0501998 -0.0171885 0.000673767 0.00121118 0.00650301 -0.0140248  
 0.0496121   -0.01747  0.0012369 -1.08903e-05 0.00466072 -0.0156048  
 0.0265372 0.00472711 -0.000854252 0.00104033 0.00248466 0.00581717  
 0.0261094 0.00384481 -0.000455181 0.00241875  0.0045877 0.00221349  
 0.0257171 0.00325899 0.000445157 0.00236989 0.00450461 0.00114445  
 0.0253042 0.00249732 0.000583572 0.000638032 0.00190469 -0.00248358  
0.00945644  0.0175823 -0.00165803 0.00177325 0.00126745  0.0148009  
0.00867822  0.0173002 -0.000709826 0.00286176 0.00283194  0.0138054  
0.00837547  0.0169038 -6.71034e-05 0.00280727 0.00278551  0.0131038  
0.00820703  0.0160677 -0.000442689 0.00184345  0.0010407 0.00942859  
0.00596564  0.0125829 0.00854905 -0.000142153 -0.000714315  0.0187975  
 0.0052487  0.0185834 -0.00114739 0.00292378 0.00221003  0.0126237  
0.00434323  0.0144011 0.00478054 0.00142805 0.000668146  0.0154721  
0.00813549    0.01651 0.000667729 0.00187593 0.00191702  0.0135035  
0.00490172  0.0191844 -0.000338238 0.00263403 0.00213476  0.0153241  
 0.0050196  0.0186357 3.71813e-05 0.00241499 0.00193206  0.0151054  
0.00826348  0.0172651 -0.000348914 0.00212209  0.0021928  0.0136063  
0.00505028  0.0193816 -0.000667329 0.00264256 0.00216566  0.0156624  
0.00496369  0.0192378 -0.000433134 0.00254847 0.00212596  0.0155829  
0.00879488  0.0173623 -0.00154977 0.00198451  0.0018837  0.0124698  
0.00594963  0.0192847 -0.00185509 0.00345163 0.00288495  0.0150763  
0.00535681  0.0190581 -0.00108812 0.00244994 0.00189511  0.0145687  
 0.0130459  0.0139422 -0.0073181 -0.00082227 -0.00250632 0.00112653  
0.00784505  0.0151747 -0.00329647 0.000378255 -0.00100019 0.00702596  
 0.0212089 0.00157452  0.0116767 -0.00312607 -0.00143186  0.0145845  
 0.0158481 0.00970265 6.06741e-05 0.00246326 0.00395028 0.00377673  
 0.0126786 0.00737463  0.0104953 -0.00178687 -0.00133585  0.0172474  
 0.0254214 0.00281981 0.00154841 0.000124162 0.00319687 0.00216114  
 0.0161435  0.0104756 0.000154498 0.00148715 0.00276715 0.00724412  
 0.0160112 0.00997121 0.00117482 0.000983462 0.00237115 0.00809452  
 0.0258276 0.00347859 -1.00603e-05 0.000485504 0.00353485 0.00138706  
 0.0164911  0.0109678 -0.000624253 0.00154234 0.00284738 0.00810549  
 0.0163006  0.0106891 -0.000184522 0.00131171 0.00270569 0.00771466  
 0.0263125 0.00409649 -0.00160972 0.000297975 0.00317772 0.000626218  
 0.0174557  0.0115512 -0.00154087 0.00292727 0.00479501  0.0101806  
 0.0168381  0.0110385 -0.00164315 0.00115144 0.00236766 0.00671661  
 0.0308805 0.00425129 -0.0116053 -0.00327609 -0.00289459  -0.012356  
 0.0214916 0.00934882 -0.0098424 -0.00208786 -0.0030042 -0.00597791  
   0.04445 -0.0142522 0.00879329 -0.00253391 0.00293224 0.000902781  
 0.0375065 -0.00734825 0.000697537 0.00155219 0.00650632 -0.00928127  
   0.03178 -0.0057345  0.0109832 -0.00222616 0.00146559 0.00933021  
 0.0499235 -0.0172824 0.00155956 -0.000662248 0.00563038 -0.0125923  
 0.0376862 -0.00674238 0.000536411 0.000514942 0.00496673 -0.00641966  
 0.0373529 -0.00686419 0.00165278 4.92192e-05 0.00450048 -0.00477532  
 0.0503879 -0.0171258 0.000326183 -0.000421551 0.00591019 -0.0139632  
 0.0380004 -0.00623174 -0.000177946 0.00056883   0.005045 -0.00537926  
 0.0378225 -0.00646661 0.000165903 0.00031997 0.00479508 -0.00595481  
 0.0505725  -0.016321 -0.000817233 -0.000511909 0.00566268 -0.0139838  
 0.0380822 -0.00527543 4.52064e-05    0.00163  0.0070739 -0.00099933  
 0.0381798 -0.0057415 -0.00130405 0.000172614 0.00445771 -0.00646332  
 0.0536466 -0.0123922 -0.0098618 -0.00162105 0.00284565  -0.021449  
 0.0426544 -0.00371655 -0.0114978 -0.00175729  0.0005487 -0.0173329  
 0.0610594 -0.0223209 -0.000724919 -0.000924494  0.0064575 -0.0154714  
 0.0576956 -0.0234105  0.0013318 0.000191111  0.0079508 -0.0182249  
 0.0537421 -0.0187097 0.00444952 -0.00177378 0.00505865 -0.00707218  
 0.0629884 -0.0277144 0.000519965 -0.000412273  0.0071167 -0.0200357  
 0.0580018 -0.0233042 0.000616752 -0.000415239 0.00696316 -0.0181438  
 0.0577002 -0.0229765 0.00110803 -0.000650219 0.00668007 -0.0167539  
 0.0631965 -0.0281837 0.00045551 -0.000365086  0.0071704  -0.020971  
 0.0581352 -0.0230739 0.000313826 -0.000392374 0.00697116 -0.0176592  
 0.0580485 -0.0231271 0.000402874 -0.000504659 0.00685369  -0.017974  
 0.0629802 -0.0277132 0.000523162 -0.000328623 0.00722632 -0.0200273  
 0.0578533 -0.0225105 0.00121906 -0.000117718 0.00777992 -0.0141642  
 0.0580359 -0.0224685 -0.000185477 -0.000530745 0.00675596 -0.0175468  
 0.0611364 -0.0223455 -0.000773718 0.000629749 0.00798559 -0.0154407  
 0.0588159 -0.0176912 -0.00577495 -0.000641494 0.00564229  -0.019367  
 0.0533059 -0.0121864 -0.00972937 0.00312727  0.0092385 -0.0210922  
 0.0579246 -0.0227956 0.00123765 -0.00017014 0.00656356 -0.0143935  
 0.0586468 -0.0179937 -0.00535682 0.000997777 0.00793366 -0.0190136  
 0.0505117 -0.0161279 -0.000828766 0.00157669 0.00690213 -0.0136863  
  0.058245 -0.0233634 0.000335908 0.000245193 0.00700461 -0.0177633  
 0.0581663 -0.0227656 -0.00015227 0.000401608 0.00715347 -0.0176163  
 0.0503338 -0.0169357 0.000321165 0.00141449 0.00669932 -0.0136643  
 0.0581327 -0.0235826 0.000615104 0.000233971 0.00695625 -0.0182147  
 0.0581802 -0.0234118 0.000405912 0.000342378 0.00707596 -0.0180704  
 0.0499121 -0.0171025 0.00154249 0.00156195 0.00701457 -0.0123157  
 0.0577478 -0.0236785 0.00141376 -0.00048639 0.00594987 -0.0181066  
 0.0578398 -0.0232433 0.00107635 0.000440612 0.00726891 -0.0168679  
 0.0448834  -0.014172 0.00869448 0.00409788  0.0109713 0.00109672  
 0.0541784 -0.0189045 0.00402683 0.00211655 0.00956757 -0.0075429  
 0.0320621 0.00436661 -0.0123701 0.00554204 0.00954636 -0.0127612  
 0.0378246 -0.00497805 0.000117741 0.000401758 0.00362895 -0.000772839  
 0.0425969 -0.00348195 -0.0117368 0.00395847 0.00889288 -0.0175126  
 0.0264494 0.00416652 -0.00164642 0.00295779 0.00506225 0.000798386  
 0.0377136 -0.0059304 -0.000174061 0.00156585  0.0053172 -0.00517875  
 0.0379454 -0.00544905 -0.0013478 0.00199613 0.00574808 -0.00628783  
 0.0259258 0.00354881 -9.05485e-06 0.00266704  0.0047474 0.00164314  
 0.0373841 -0.00644487 0.000538922 0.00153091 0.00524789 -0.00623986  
 0.0375558 -0.00617096 0.000158022 0.00178203 0.00549477 -0.00574952  
 0.0255166 0.00290561 0.00157036 0.00282532 0.00509937  0.0025009  
 0.0369724 -0.00704876 0.000689388 8.64686e-05 0.00297716 -0.00921644  
 0.0371097 -0.00658316 0.00166406 0.00193369 0.00584018 -0.00455289  
 0.0204485 0.00183905  0.0124552 0.00580695  0.0106083  0.0159181  
 0.0317144 -0.00557455  0.0112625  0.0045121  0.0103904 0.00967336  
 0.0136846  0.0137348 -0.00762566 0.00539244 0.00659038 0.00072748  
 0.0171908  0.0115493 -0.0013243 0.00131087 0.00178331  0.0105649  
 0.0220396 0.00928539 -0.0101726 0.00547533 0.00799017 -0.00621528  
0.00909272  0.0171665 -0.00157385 0.00321735  0.0030701  0.0123885  
 0.0164735  0.0109709 -0.000611076 0.00259221 0.00361828 0.00830015  
 0.0168561  0.0110402 -0.00165398 0.00303549 0.00395213 0.00688292  
0.00853853  0.0170618 -0.000344245  0.0029962 0.00289991  0.0135291  
  0.016108  0.0104817 0.000178297 0.00253947 0.00355611 0.00741774  
 0.0163018  0.0106955 -0.000187257 0.00278189 0.00371186  0.0079022  
0.00841581  0.0163004 0.000694171 0.00302925 0.00299867   0.013466  
 0.0157284 0.00974403 4.58287e-05 0.00122752 0.00146146 0.00378958  
 0.0160353 0.00997502 0.00116449 0.00287337 0.00392806 0.00830912  
 0.0061916  0.0123627 0.00884958  0.0037915 0.00622509  0.0189934  
 0.0125341 0.00726762  0.0108494 0.00466335  0.0082683  0.0176891  
0.00587763  0.0192985 -0.00181095 0.00223881  0.0013308  0.0151211  
0.00798933  0.0151405 -0.00333941 0.00445546 0.00457095 0.00704321  
0.00504028  0.0193917 -0.000662484 0.00286002 0.00238353  0.0156878  
0.00536908  0.0190666 -0.0010955 0.00304203 0.00245425  0.0146003  
0.00488714  0.0191958 -0.00033291 0.00281321 0.00235733  0.0153477  
0.00496286  0.0192485 -0.000434158 0.00292318 0.00241805  0.0156112  
0.00515648   0.018595 -0.00111578 0.00244108 0.00138898  0.0126248  
0.00502385  0.0186445 3.74706e-05  0.0029285 0.00238893   0.015135  
0.00437044  0.0143957  0.0048316 0.00266179 0.00338593  0.0154466  
0.00181469  0.0192327 -0.000633245 0.00418001  0.0037653  0.0202368  
0.00158612  0.0200206 -0.000500765 0.00313977 0.00217377  0.0216353  
0.00151342   0.019983 -0.000399619 0.00282728 0.00170578   0.021564  
0.00160053  0.0190834 -0.000410794 0.00120551 -0.000143309  0.0195627  
-0.00146239  0.0152259 3.14989e-05 0.00253695 0.00185338  0.0347328  
-0.00122815  0.0155287 -0.000353037  0.0020716 0.000944543  0.0347188  
-0.00132104  0.0154848 -0.000221727 0.00156453 0.000336381  0.0346302  
-0.00177707  0.0150059 0.000313066 0.000549584 -0.000603707  0.0340577  
-0.00185456 0.00678468 0.000207962 0.000683535 -0.00065877  0.0514919  
-0.00178018 0.00693974 -0.000138777 0.000539287 -0.00112732  0.0512808  
-0.00184385 0.00691498 -6.6791e-05 0.000179686 -0.00149429  0.0512136  
-0.00212132 0.00678295 0.000260274 -0.000168905 -0.00151382  0.0510357  
-0.000906519 0.00162037 0.000167749 -0.000284515 -0.00231512  0.0595584  
-0.000853669 0.00169519 -4.51686e-05 -0.00025659 -0.00264733    0.05938  
-0.000846472 0.00168793 -4.48178e-05 -0.000254941 -0.00264718  0.0593765  
-0.000894451 0.00161145 0.000166475 -0.000335968 -0.00232998  0.0595423  
-0.00196073 0.00680031 0.00024783 -2.75428e-05 -0.00210394  0.0513626  
-0.00167642 0.00688262 -7.73921e-05 0.00016275 -0.00209998  0.0511601  
-0.00159927 0.00689851 -0.000156221 0.000528803 -0.00173254   0.051213  
-0.00167134  0.0068665 0.000110904 0.00073831 -0.0012615  0.0517531  
-0.00172558  0.0150431 0.00023711 0.000705017 -0.00141122  0.0344731  
-0.00121534  0.0153007 -0.000240721 0.00130888 -0.000450657  0.0344708  
-0.00111519  0.0153289 -0.000355983 0.00181406 0.000170464  0.0345461  
-0.00133199  0.0151494 -3.06734e-05 0.00267501 0.00115858  0.0350203  
0.00155005  0.0191122 -0.000483847 0.00108072 -0.000792995  0.0200355  
0.00150529  0.0198789 -0.000418923 0.00231387 0.00123623  0.0216596  
 0.0015733  0.0198969 -0.000494158 0.00262948 0.00171448  0.0217115  
0.00182757   0.019199 -0.000645978 0.00417578 0.00321743  0.0206211  
0.00106185  0.0185562 -0.000211377 0.00478862 0.00102592  0.0208352  
 0.0028895  0.0200444 -0.0013127 0.00338833 0.00280392  0.0170605  
0.00253218  0.0174754 0.00027904 0.00452863 0.00184024  0.0164208  
0.00169189  0.0198143 -0.000682071 0.00355973 0.00232434  0.0211035  
0.00229314  0.0207198 -0.000531666 0.00301258 0.00212796  0.0190094  
0.00246787  0.0203861 -0.000677207 0.00321911 0.00214142  0.0183434  
0.00153341  0.0200171 -0.00043097 0.00301803 0.00195627   0.021661  
0.00225582  0.0206929 -0.000471903 0.00281454 0.00187495  0.0189697  
 0.0022566  0.0207034 -0.000470282 0.00294387 0.00201547  0.0190592  
0.00153837  0.0197223 -0.000334535 0.00248421 0.00145835  0.0210744  
0.00273078  0.0199332 -0.00109014 0.00212033 0.000771618  0.0168637  
 0.0023773  0.0203228 -0.000466923 0.00267405 0.00170207  0.0183135  
0.000913445  0.0177848 0.00165895 0.00130744 0.00207792  0.0214413  
0.00239665  0.0170976 0.00133537 0.00110888 0.00137227  0.0162451  
-0.00134635   0.015484 -0.0010925 0.00285406 -0.000599408  0.0349997  
7.51002e-05  0.0175882 -0.000238361 0.00356487 0.00292257  0.0271675  
-0.000183295  0.0174792 -0.000716386 0.00397796 0.000161596   0.027556  
-0.00128278  0.0154678 -0.000399116 0.00244912 0.00106661  0.0346382  
0.000142465  0.0181191 -0.000447595 0.00280473 0.00169376  0.0277113  
0.000142854   0.017978 -0.000530104  0.0032514 0.00184761  0.0274094  
-0.00127329  0.0155211 -0.000277033 0.00184888 0.000630549   0.034754  
5.50168e-05  0.0180771 -0.000323016 0.00241175 0.00114263  0.0276299  
8.39763e-05  0.0181073 -0.000355187 0.00264057 0.00142204  0.0277514  
-0.00146905  0.0153666 2.65117e-05 0.00123826 0.000216014  0.0346525  
-0.000191968  0.0174355 -1.8757e-05 0.00106758 -0.000280267  0.0265026  
-2.35206e-05  0.0178836 -0.000134913 0.00202836 0.000944604  0.0274035  
-0.00177477  0.0145074 0.00174214 0.00143145 0.00174823  0.0364411  
-0.000494603  0.0165698 0.00173659 0.00168884 0.00216909  0.0286356  
-0.00147994 0.00716652 -0.00106004 0.000758325 -0.00160733  0.0514361  
-0.00155674  0.0109762 0.000146442 0.00169135 0.000672189  0.0429071  
-0.00127003  0.0113662 -0.0011835 0.00184632 -0.00109575   0.042985  
-0.0017915 0.00693629 -0.000178199 0.000676618 -0.00105835  0.0513422  
-0.00140434  0.0111978 -0.000238703 0.00140993 -3.41852e-05  0.0427893  
-0.00143029  0.0111748 -0.000291811 0.00164981 3.52688e-05  0.0428058  
-0.00179193  0.0069373 -0.000118123 0.000377226 -0.0013224  0.0512816  
-0.00148616  0.0111628 -0.00013626 0.000965128 -0.000536991  0.0427067  
-0.00143093  0.0111923 -0.00019146 0.00121069 -0.00029565  0.0428076  
-0.00193906 0.00685879 0.000153639 7.62926e-05 -0.00139798  0.0514095  
-0.00188182  0.0109221 0.000286139 0.000350711 -0.00100524  0.0423661  
-0.00160866  0.0110763 0.000119724 0.00075855 -0.000522595  0.0428549  
-0.0017729 0.00621138 0.00120272 0.000398145 -0.000163878  0.0524931  
-0.00159826  0.0102254 0.00154705 0.00100332 0.000986699   0.044208  
-0.000555951 0.00149345 -5.19165e-06 -0.000203627 -0.00208385  0.0595901  
-0.00151268 0.00386017 0.000181917 -0.000145411 -0.00155907   0.056523  
-0.00116221 0.00401225 -0.000590355 -4.37539e-05 -0.00188468  0.0565315  
-0.000871721 0.00166333 3.22598e-05 -0.00026177 -0.00253957  0.0594559  
-0.00146418 0.00396559 -8.5101e-05 -0.000194686 -0.00194372  0.0563451  
-0.00147354 0.00395194 -7.68192e-05 -0.000128191 -0.00185326  0.0564143  
-0.000831863 0.00169121 -5.74483e-05 -0.000250599 -0.00266348  0.0593788  
-0.00149648 0.00395047 -4.64632e-05 -0.000382603 -0.00212926  0.0563112  
-0.00146109 0.00396374 -8.14181e-05 -0.000277519 -0.00204985  0.0563461  
-0.000860911 0.00165324 3.19051e-05 -0.000246819 -0.00252839  0.0594622  
-0.00164981 0.00384888 0.000213075 -0.00060805 -0.00197566  0.0562842  
-0.00154799 0.00390797 0.000101543 -0.000430489 -0.00201818  0.0564543  
-0.000549978 0.00148318 -1.52494e-06 4.51455e-05 -0.00194874  0.0596803  
-0.0013227 0.00347736 0.000647049 -0.000131194 -0.00110189  0.0570967  
-0.00159643 0.00610258 0.00116512 -4.30232e-05 -0.000818536  0.0515066  
-0.00154649 0.00365807 0.000185498 -0.000250835 -0.00230625  0.0564635  
-0.00120248 0.00324862 0.000588335 -0.000187189 -0.00154797   0.056552  
-0.0017744 0.00679657 0.000156026 2.66333e-07 -0.00201845  0.0512407  
-0.00139013 0.00372668 -5.46362e-05 -0.000136166 -0.00248148  0.0562785  
-0.00144326  0.0036701 0.000101904 -0.000213699 -0.00238189  0.0563578  
-0.00161708 0.00687765 -0.00011697 0.000337879 -0.00192843  0.0511798  
-0.00134851 0.00372877 -8.8089e-05 4.26423e-05 -0.00230598   0.056302  
-0.0013503 0.00372188 -7.83423e-05 -4.65086e-05  -0.002408  0.0562852  
-0.00160512 0.00684873 -0.000163945 0.000631357 -0.00165116  0.0511909  
-0.00138969 0.00366394 0.000142226 9.66338e-05 -0.00193501  0.0566364  
-0.00135429 0.00369135 -6.37067e-05 9.7852e-05 -0.00220673  0.0563294  
-0.00127672 0.00696668 -0.00104023 0.000619013 -0.00215213   0.050666  
-0.00104046 0.00369288 -0.00054819 0.00023571 -0.00213382  0.0561768  
-0.00162992  0.0139977 0.00181789 0.000312296  0.0011708  0.0346576  
-0.00202301  0.0113022 0.000225851 0.000510424 -0.00168997  0.0427133  
-0.00174217  0.0104107 0.00157214 0.000322593 0.000349563  0.0429242  
-0.00138029  0.0151335 4.92205e-05 0.000867277 -0.000558978  0.0343845  
-0.00161765  0.0114678 -0.000158245 0.000890156 -0.00119408  0.0425882  
-0.00174845  0.0113397 0.000126452 0.00059447 -0.00118712  0.0426075  
-0.00116189     0.0153 -0.000272346 0.00152546 -0.000138257  0.0345535  
-0.00152583  0.0114954 -0.000254614 0.00134797 -0.000681431  0.0426673  
-0.00155839  0.0114675 -0.000193411 0.00109936 -0.000943924  0.0426409  
-0.00115209  0.0152218 -0.0003937 0.00205933 0.000280697   0.034358  
-0.00167345  0.0113944 8.09712e-05 0.00184371 4.6975e-05    0.04321  
-0.00154856   0.011424 -0.000286512 0.00151455 -0.000604579  0.0425698  
-0.00119575  0.0152048 -0.00120107 0.00168515 -0.00145532  0.0336181  
-0.0013829  0.0115218 -0.00121867 0.00134926 -0.00177725  0.0419451  
0.000812587   0.017605 0.00171746 2.22486e-05 0.00167254  0.0206884  
-0.000136299  0.0174547 -8.7315e-05 0.000888491 -0.00108127    0.02669  
-0.000427818   0.016252 0.00177479 0.000240022 0.00149985  0.0271617  
0.00153159  0.0195989 -0.000358758 0.00182613 0.00095817  0.0211064  
0.000148051    0.01796 -0.000350723 0.00183037 0.000401261  0.0273968  
5.7002e-05  0.0177283 -0.000138318 0.00131128 0.000185028  0.0270751  
0.00152353  0.0198835 -0.000427394 0.00242916 0.00148523  0.0217266  
0.000227438  0.0179854 -0.000440204 0.00221792 0.000954924  0.0274681  
0.00017312  0.0179581 -0.00035308 0.00198356 0.000686696  0.0274831  
0.00167529  0.0196499 -0.00063946  0.0028979  0.0018183  0.0211213  
0.000203108  0.0175798 -0.000308171 0.00341257 0.00219241  0.0273281  
0.00024355  0.0178018 -0.000513763 0.00251985 0.00107906  0.0270733  
 0.0011105  0.0183562 -0.000291845 0.00310743 0.000406999  0.0200557  
-7.75705e-05  0.0172219 -0.000769633 0.00232631 -0.000664823  0.0262063  
 0.0027613  0.0200397 -0.00123935 0.00220248 0.000528322  0.0168551  
0.00238993  0.0170391  0.0012602 0.000344953 0.00110337  0.0160923  
0.00224811  0.0207055 -0.000493433  0.0025791  0.0017059  0.0189401  
0.00238149   0.020327  -0.000509  0.0023182 0.00152523  0.0182548  
0.00227862  0.0207083 -0.000523766 0.00277245 0.00195981  0.0189643  
0.00224516  0.0206922 -0.000469865 0.00263747 0.00184853  0.0190129  
0.00285716  0.0200669 -0.00125789  0.0035539 0.00257294  0.0173146  
0.00244219  0.0203418 -0.00062865 0.00284512 0.00194912  0.0182544  
 0.0025068  0.0173716 0.00034732 0.00333002 0.00143695    0.01551  
0.00929494  0.0177669 -0.00176845 0.00352391 0.00385054  0.0147699  
0.00840412  0.0175004 -0.000720485 0.00230332 0.00228963   0.013896  
0.00811282  0.0171091 -8.90418e-05 0.00226283 0.00222108  0.0132152  
0.00810284  0.0162601 -0.000513845 0.00284831 0.00290928 0.00961845  
 0.0271069 0.00460534 -0.00129136 0.00239745  0.0059894 0.00502599  
 0.0260324 0.00377133 -0.000474239 0.000774744 0.00368951 0.00189631  
 0.0256393 0.00319573 0.00042606 0.000700211 0.00358924 0.000915458  
 0.0249375 0.00251268 0.000801881 0.00192384 0.00515606 -0.00228209  
 0.0502364 -0.0160196 0.00079817 0.000505728 0.00772209 -0.00879302  
 0.0505195 -0.0169432 7.48141e-05 -0.000213518 0.00612989 -0.0134666  
  0.050299 -0.0173802 0.000651274 -0.00024154  0.0060951 -0.0143495  
 0.0501689  -0.017716 0.00104065 0.000767812 0.00763689 -0.0160826  
 0.0627951 -0.0279738 0.00154385 -0.000626395  0.0069692 -0.0187441  
 0.0632136 -0.0282471 0.00052867 -0.0003632 0.00716222 -0.0208755  
 0.0632081 -0.0282479 0.000533691 -0.000374819 0.00718333 -0.0208779  
 0.0627826 -0.0279784 0.00155042 -0.000265817 0.00742616 -0.0187837  
  0.049611 -0.0174688 0.00123709 -1.22351e-05 0.00465941 -0.0156042  
 0.0501993 -0.0171883 0.000673872 0.00121027 0.00650264 -0.0140253  
 0.0504598 -0.0167568 8.33211e-05 0.00123827 0.00657146 -0.0131665  
 0.0504017 -0.0158519 0.000731013 0.000309597 0.00534832 -0.00855944  
 0.0253029 0.00249057 0.000591525 0.000636585 0.00190558 -0.0024779  
 0.0257189 0.00325638 0.00044591 0.00238078 0.00451125 0.00114653  
 0.0261111 0.00384226 -0.000455334 0.00242871 0.00459466 0.00221218  
 0.0265447 0.00472192 -0.000860463 0.00104858 0.00248803 0.00580868  
0.00820551  0.0160646 -0.000429682 0.00183419 0.00103075 0.00943168  
0.00838619  0.0168981 -6.60772e-05 0.00280396 0.00278122  0.0130975  
0.00868879  0.0172945 -0.000710843 0.00285954  0.0028283  0.0137948  
 0.0094807  0.0175775 -0.00167322 0.00175658 0.00125571  0.0147823  
 0.0130763  0.0139378 -0.00736244 -0.000772958 -0.00246223 0.00109847  
0.00593018  0.0192882 -0.00184621 0.00344717 0.00288304   0.015096  
 0.0078386  0.0151759 -0.0032956 0.000401285 -0.000982665 0.00704596  
0.00878131  0.0173635 -0.00155249 0.00198583 0.00187545  0.0124807  
0.00503775  0.0193849 -0.000666819 0.00264067 0.00215893  0.0156787  
0.00534367  0.0190613 -0.00108738   0.002448 0.00188688  0.0145835  
0.00824946  0.0172657 -0.000348775 0.00212228 0.00218551  0.0136207  
0.00488921  0.0191883 -0.000338953 0.00263218 0.00212783  0.0153399  
0.00495108  0.0192414 -0.0004332 0.00254655 0.00211868  0.0155986  
0.00812095  0.0165104 0.000670388 0.00187695 0.00190905  0.0135212  
0.00524149  0.0185902 -0.00115642  0.0029152 0.00220122  0.0126412  
0.00500716    0.01864 3.61571e-05 0.00241386 0.00192474  0.0151208  
0.00592311  0.0125789 0.00859332 -0.000119457 -0.000691882  0.0188439  
0.00432858  0.0144036 0.00478002 0.00143408 0.000675248  0.0154776  
 0.0309083 0.00425835 -0.0116533 -0.00322233 -0.00285324  -0.012387  
 0.0174268  0.0115516 -0.00151183 0.00294862 0.00482844  0.0102224  
 0.0215342 0.00934291 -0.00989754 -0.00202036 -0.00294348  -0.006024  
 0.0263018 0.00409741 -0.0016099 0.000321099 0.00318453 0.000629781  
 0.0164837  0.0109651 -0.000623936  0.0015657 0.00285714 0.00811523  
 0.0168295  0.0110355 -0.0016448 0.00117478 0.00237324 0.00672088  
 0.0258178 0.00347959 -9.9286e-06 0.000508169 0.00354268 0.00139329  
 0.0161342   0.010473 0.000154136 0.00150978 0.00277641 0.00724849  
 0.0162922  0.0106862 -0.000184373 0.00133351 0.00271203  0.0077222  
 0.0254119 0.00282093 0.00154932 0.000147278 0.00320349 0.00217094  
 0.0158556 0.00970181 3.26217e-05 0.00247868 0.00397934 0.00375565  
 0.0160026 0.00996824 0.00117702 0.00100587  0.0023762 0.00810664  
 0.0211623    0.00158  0.0117238 -0.00308154 -0.00140451  0.0146404  
 0.0126286 0.00737021  0.0105497 -0.00173243 -0.00129544  0.0172999  
 0.0536447 -0.0123908 -0.00986277 -0.00161919 0.00284665 -0.0214474  
 0.0380827 -0.0052807 4.88356e-05  0.0016307 0.00707326 -0.00100155  
 0.0426608 -0.00371648 -0.0115035 -0.00174678 0.000560504 -0.0173361  
 0.0505703 -0.0163187 -0.000817409 -0.000510586 0.00566271 -0.0139819  
 0.0380033 -0.00623461 -0.000178008 0.00057172 0.00504592 -0.00538039  
 0.0381828 -0.00574455 -0.00130414 0.000175424 0.00445888 -0.00646441  
 0.0503856 -0.0171235 0.000326106 -0.000420202  0.0059102 -0.0139612  
 0.0376891 -0.00674536 0.000536453 0.00051743 0.00496801 -0.00642156  
 0.0378254 -0.00646953 0.000165845 0.000322516  0.0047959 -0.00595614  
 0.0499212 -0.0172801 0.00155964 -0.000660754 0.00563074 -0.0125904  
 0.0375121 -0.00735198 0.000693651 0.00155648 0.00651152 -0.00928983  
 0.0373557 -0.0068671 0.00165286 5.17007e-05 0.00450124 -0.00477597  
 0.0444466 -0.0142501 0.00879443 -0.00253135 0.00293554 0.000905043  
 0.0317781 -0.00573775  0.0109889 -0.00221717 0.00147194  0.0093342  
 0.0611361 -0.0223453 -0.000773714 0.000629545 0.00798506 -0.0154405  
 0.0578538 -0.0225113 0.00121959 -0.000116711 0.00778023 -0.0141642  
 0.0588169 -0.0176916 -0.0057755 -0.000639984 0.00564369 -0.0193669  
   0.06298 -0.0277131 0.00052317 -0.000328729 0.00722588 -0.0200272  
  0.058136 -0.0230745 0.000313835 -0.000391376 0.00697142 -0.0176592  
 0.0580367 -0.0224692 -0.000185475 -0.000529669 0.00675612 -0.0175469  
 0.0631963 -0.0281835 0.000455509 -0.000365249 0.00717005 -0.0209709  
 0.0580026 -0.0233048 0.000616723 -0.000414373 0.00696352 -0.0181442  
 0.0580493 -0.0231277 0.000402854 -0.000503707 0.00685389 -0.0179742  
 0.0629882 -0.0277142 0.000519953 -0.000412491 0.00711643 -0.0200357  
 0.0576968  -0.023411 0.00133122 0.000191807 0.00795154  -0.018226  
  0.057701 -0.0229771 0.00110801 -0.000649261  0.0066804 -0.0167541  
 0.0610592 -0.0223206 -0.000724917 -0.000924735 0.00645722 -0.0154714  
 0.0537422 -0.0187104 0.00445011 -0.00177124 0.00506058 -0.00707209  
 0.0448827 -0.0141722 0.00869494 0.00409646  0.0109696 0.00109614  
 0.0577473 -0.0236784 0.00141394 -0.00048709  0.0059492 -0.0181065  
 0.0541777 -0.0189035 0.00402708 0.00211621 0.00956712 -0.00754174  
 0.0499115 -0.0171023  0.0015425 0.00156084 0.00701416  -0.012316  
 0.0581323 -0.0235822 0.000615135 0.000233615 0.00695602 -0.0182146  
 0.0578393 -0.0232429 0.00107637 0.000440241 0.00726856 -0.0168677  
 0.0503332 -0.0169354 0.000321201 0.00141339 0.00669907 -0.0136648  
 0.0582446 -0.0233629 0.00033591 0.000244682 0.00700445 -0.0177633  
 0.0581797 -0.0234114 0.000405936 0.000341943 0.00707575 -0.0180704  
 0.0505112 -0.0161276 -0.000828749 0.00157554 0.00690192 -0.0136868  
 0.0579242 -0.0227952 0.00123764 -0.000170847 0.00656319 -0.0143937  
 0.0581659 -0.0227652 -0.000152254 0.000401085 0.00715329 -0.0176164  
 0.0533059 -0.0121867 -0.00972989 0.00312472 0.00923632 -0.0210943  
 0.0586465 -0.0179932 -0.00535713 0.000997187 0.00793324 -0.0190137  
 0.0204492  0.0018425  0.0124564 0.00583829  0.0106257  0.0159273  
 0.0369701 -0.00704936 0.000690682 8.45951e-05 0.00297632 -0.0092149  
 0.0317123 -0.00556789   0.011264 0.00451523  0.0103901  0.0096801  
 0.0255186  0.0029036 0.00156911 0.00283708  0.0051035 0.00249742  
  0.037383 -0.00644299 0.000538791 0.00153221 0.00524868 -0.00623869  
 0.0371086 -0.0065814 0.00166403 0.00193508 0.00583986 -0.00455311  
 0.0259275 0.00354639 -8.90126e-06 0.00267785 0.00475231 0.00164229  
 0.0377123 -0.00592864 -0.000174044 0.00156654 0.00531784 -0.00517839  
 0.0375546 -0.00616922 0.000158141 0.00178316 0.00549502 -0.00574904  
 0.0264505 0.00416435  -0.001645  0.0029694 0.00506599 0.000798651  
 0.0378253 -0.00497769 0.000117221 0.000402708 0.00362861 -0.000773388  
 0.0379441 -0.00544716 -0.00134758 0.00199745 0.00574804 -0.00628764  
 0.0320604 0.00437033 -0.0123716 0.00555196 0.00956276 -0.0127496  
  0.042595 -0.00347813 -0.0117386 0.00395678  0.0088921 -0.0175086  
0.00621345  0.0123534 0.00884443 0.00379469 0.00623584  0.0189751  
 0.0157151 0.00974877 5.92167e-05 0.00122574 0.00146371 0.00380841  
 0.0125434 0.00726791  0.0108417 0.00468689 0.00828878  0.0176834  
0.00842694  0.0162946 0.000692207 0.00302877 0.00299114  0.0134567  
 0.0161047  0.0104857 0.000179302 0.00254775 0.00356261 0.00742664  
 0.0160321 0.00997933 0.00116182 0.00288349 0.00393046 0.00831187  
0.00854915   0.017056 -0.000344162 0.00299404 0.00289336  0.0135215  
 0.0164698  0.0109749 -0.000612287  0.0026005   0.003625 0.00830397  
 0.0162981  0.0106997 -0.000187264 0.00279079 0.00371571 0.00790841  
0.00910258  0.0171606 -0.00157084 0.00321596 0.00306222  0.0123843  
 0.0171978  0.0115522 -0.00133827 0.00131052 0.00178327  0.0105563  
 0.0168516  0.0110442 -0.00165096 0.00304564 0.00395499 0.00689215  
 0.0136845  0.0137286 -0.00762164 0.00541359 0.00661261 0.000719352  
 0.0220246  0.0092904 -0.0101653 0.00549768 0.00801873 -0.00619754  
0.00515538  0.0185944  -0.001112  0.0024345 0.00138177   0.012616  
0.00437627  0.0143918 0.00483662 0.00265762 0.00338875  0.0154408  
0.00489072  0.0191949 -0.000332493 0.00280738  0.0023527  0.0153403  
0.00502768  0.0186432 3.73848e-05 0.00292423 0.00238364  0.0151279  
0.00504375  0.0193909 -0.000662781 0.00285493  0.0023792  0.0156793  
0.00496653  0.0192476 -0.000434164 0.00291799 0.00241291   0.015604  
0.00588653  0.0192995 -0.00181672 0.00222539 0.00132228  0.0151121  
0.00537284  0.0190657 -0.00109501 0.00303671 0.00244807  0.0145944  
0.00799543  0.0151357 -0.00334483 0.00446072 0.00457729 0.00702222  
-0.0649325  0.0102644 1.32656e-05 -0.0369604 -0.0306462 0.00381801  
-0.0649294  0.0102848 1.36478e-05 -0.0370049 -0.0306528    0.00386  
-0.0649618  0.0103718 -7.50801e-06 -0.0369459 -0.0306713 0.00392018  
-0.0649856  0.0104536 -1.62066e-05 -0.0369011 -0.0306732 0.00388246  
-0.0389597 -0.00351016 1.24335e-05 -0.0668368 -0.0518275 -0.00168489  
-0.0390363 -0.00344746 1.62845e-05 -0.0667619 -0.0518282 -0.00165922  
-0.0391828 -0.00328937 -7.56344e-06 -0.0666117 -0.0518765 -0.00156969  
-0.0393145 -0.00311983 -1.63851e-05 -0.0664908 -0.0519121 -0.00154209  
-0.0157635 -0.0199653 1.23772e-05 -0.0539273 -0.0504753 -0.0342697  
-0.0159693 -0.0199498 2.35107e-05 -0.0537455 -0.0503151 -0.0343978  
-0.0161744 -0.0198315 -5.95193e-06 -0.0536371 -0.0503228 -0.0343706  
-0.0164148 -0.0196411 -1.69144e-05 -0.0535647 -0.0504605 -0.0342616  
0.00045287 -0.0239914 1.09133e-05 -0.0289492 -0.0397043 -0.0582902  
0.000139404 -0.0240882 3.0651e-05 -0.0285992 -0.0392163 -0.0585446  
-1.07293e-05 -0.0240861 2.15288e-06 -0.0284656 -0.0390731 -0.0586042  
-0.000212933 -0.0239954 -1.33135e-05 -0.0284238 -0.0392533 -0.0585109  
0.00326299 -0.0183382 3.09262e-06 -0.0082058 -0.0208248 -0.0732052  
0.00292996  -0.018468 2.86988e-05 -0.00768122 -0.0201221  -0.073382  
0.00288051 -0.0185305 1.55411e-05 -0.00739339 -0.0197853 -0.0734598  
0.00291564 -0.0185677 -2.65025e-06 -0.00712491 -0.0197183 -0.0734717  
-0.0692786  0.0134056 1.41208e-05 -0.0189613 -0.0198377 0.00634697  
-0.0649465  0.0103088 5.38519e-06 -0.0369373 -0.0306485 0.00380939  
-0.0692872  0.0134482 5.58406e-06 -0.0189466 -0.0198415 0.00633898  
-0.0692764  0.0134078 1.38522e-05 -0.0190497 -0.0198391  0.0063536  
-0.0649283  0.0102691 1.4395e-05 -0.0369891 -0.0306496 0.00383863  
-0.0692758  0.0134003 1.49945e-05 -0.0190123 -0.0198381 0.00634784  
-0.0692932  0.0134785 -7.70274e-06 -0.0190488 -0.0198488 0.00639562  
-0.0649442  0.0103268 3.29655e-06 -0.0369807 -0.0306613 0.00388792  
-0.0692843  0.0134423 3.22616e-06 -0.0190528 -0.0198438 0.00637284  
 -0.069305  0.0135475 -1.66324e-05 -0.0190352 -0.0198519 0.00635494  
-0.0649761   0.010416 -1.31292e-05 -0.0369169  -0.030675 0.00391205  
-0.0693002  0.0135152 -1.33924e-05 -0.0190401 -0.0198514 0.00638397  
-0.0649759  0.0104268 -9.94756e-06 -0.0369147 -0.0306629 0.00384034  
-0.0693015  0.0135341 -1.04123e-05  -0.019009 -0.0198487 0.00633103  
-0.0536811 0.00416428 1.27885e-05 -0.0516147 -0.0406007  0.0010464  
-0.0390239 -0.00341171 3.69369e-06 -0.0667917 -0.0518104 -0.00171484  
 -0.053715 0.00423011 4.65927e-06 -0.0515808 -0.0405951 0.00102942  
  -0.05371 0.00420468 1.47321e-05 -0.0516025 -0.0406072 0.00108832  
-0.0389928 -0.00348867 1.56545e-05 -0.0668018 -0.0518333 -0.00166522  
-0.0536919 0.00417736 1.48292e-05 -0.0516133 -0.0406062  0.0010701  
-0.0537911  0.0043241 -7.44304e-06 -0.0514958  -0.040639 0.00116417  
-0.0391063 -0.00337009 4.65114e-06 -0.0666928 -0.0518429 -0.0016285  
-0.0537483 0.00426271  3.909e-06  -0.051555 -0.0406189 0.00111929  
-0.0538586 0.00444246 -1.62707e-05 -0.0514131 -0.0406525 0.00115278  
-0.0392545 -0.0032019 -1.35738e-05 -0.0665422 -0.0519064 -0.0015351  
-0.0538291 0.00438686 -1.32606e-05 -0.0514461 -0.0406524 0.00117365  
-0.0392496 -0.00316125 -1.04255e-05 -0.0665746 -0.0518591 -0.00163408  
-0.0538247 0.00440645 -1.01369e-05 -0.0514623 -0.0406243 0.00108723  
-0.0268469 -0.0127721 1.23461e-05 -0.0608588 -0.0513347 -0.0196937  
-0.0158813  -0.019825 -2.08885e-06 -0.0539434 -0.0504023 -0.0343367  
-0.0269397 -0.0126505 1.06096e-06 -0.0608394 -0.0512909 -0.0197416  
-0.0269896 -0.0127281 1.97072e-05 -0.0607289 -0.0512632 -0.0197436  
-0.0158654 -0.0199728 2.0539e-05  -0.053823 -0.0504105 -0.0343219  
-0.0269148 -0.0127628 1.79102e-05 -0.0607887 -0.0513093  -0.019709  
-0.0271717 -0.0125847 -6.93383e-06 -0.0605987 -0.0512954 -0.0196833  
-0.0160717 -0.0198898 8.81267e-06 -0.0536942 -0.0502899 -0.0344109  
-0.0270788 -0.0126568 6.57756e-06  -0.060668 -0.0512603 -0.0197343  
-0.0273615 -0.0123996 -1.66839e-05  -0.060496 -0.0513796 -0.0196111  
-0.0162921 -0.0197445 -1.33426e-05 -0.0535934 -0.0504109  -0.034296  
-0.0272688 -0.0124947 -1.35798e-05   -0.06054 -0.0513537 -0.0196263  
-0.0163225 -0.0196122 -1.39202e-05 -0.0536944 -0.0503893 -0.0343388  
-0.0272796 -0.0124091 -1.19689e-05    -0.0606 -0.0513148 -0.0196978  
-0.00769107 -0.0226576 1.19714e-05 -0.0410346 -0.0450376 -0.0472647  
0.000364995 -0.0238753 -1.30717e-05 -0.0290561 -0.0395437 -0.0583858  
-0.00780019 -0.0225247 -7.05897e-06  -0.041098 -0.0449222 -0.0473471  
-0.00795161 -0.0226971 2.71573e-05 -0.0407774 -0.0447224 -0.0474628  
0.000281334 -0.0240568 2.48511e-05 -0.0287394 -0.0394781 -0.0584087  
-0.0078276 -0.0226936 2.2843e-05  -0.040882 -0.0448973 -0.0473531  
-0.00813353 -0.0226364 -2.27359e-06 -0.0406677  -0.044661 -0.0474804  
5.92248e-05 -0.0240847 1.56313e-05 -0.0285355 -0.0391004 -0.0586007  
-0.00804513 -0.0226649 1.21097e-05 -0.0407253 -0.0446544  -0.047499  
-0.00836482 -0.0224891 -1.57796e-05 -0.0406205 -0.0448271 -0.0473721  
-0.000100548 -0.0240553 -6.75193e-06 -0.0284283 -0.0391795 -0.0585459  
-0.00824165  -0.022575 -1.05948e-05 -0.0406328 -0.0447624 -0.0474105  
-0.000119141 -0.0238799 -2.06588e-05 -0.0286781 -0.0392447 -0.0585356  
-0.00827282  -0.022414 -1.72988e-05 -0.0408045  -0.044782 -0.0474232  
0.00151885 -0.0213221 7.95118e-06 -0.0176628 -0.0301779 -0.0664212  
0.00331047 -0.0183088 -2.35702e-05 -0.00823388 -0.0205909 -0.0732849  
0.00149538 -0.0212489 -1.81687e-05 -0.0177459 -0.0299808 -0.0665109  
0.00119538 -0.0214432 3.02388e-05 -0.0172287 -0.0295727 -0.0666477  
0.00306683 -0.0184139 1.96759e-05 -0.0079042  -0.020479 -0.0732909  
0.00133453 -0.0213968 2.30925e-05 -0.0174078 -0.0298872 -0.0665292  
0.00109916 -0.0214801 8.62329e-06 -0.0170257 -0.0293346 -0.0667214  
0.00289807 -0.0184981 2.05156e-05 -0.00754117 -0.0199197 -0.0734332  
0.00114092 -0.0214598 1.82382e-05 -0.0171308 -0.0294133 -0.0667039  
 0.0010094 -0.0214585 -8.87187e-06 -0.0168931 -0.0294121 -0.0666804  
 0.0028949 -0.0185542 7.58544e-06 -0.00724941 -0.0197619 -0.0734612  
0.00106004 -0.0214797 -2.29901e-07 -0.0169442 -0.0293858 -0.0666932  
0.00304215 -0.0184744 -2.42068e-05 -0.00745341 -0.0198343 -0.0734681  
 0.0011139 -0.0213472 -2.29321e-05 -0.0171916 -0.0294638  -0.066688  
 0.0019285  -0.015551 -3.7047e-06 -0.00399235 -0.00996792 -0.0754263  
0.00203432 -0.0155408 -2.57613e-05 -0.00388388 -0.00972516 -0.0754785  
0.00162691 -0.0156338 2.37651e-05 -0.00347146 -0.00933391 -0.0755055  
0.00174881 -0.0155986 1.30287e-05 -0.00370385 -0.00965111 -0.0754628  
0.00160285 -0.0156732 2.1383e-05 -0.0031199 -0.00893795 -0.0755482  
0.00160805 -0.0156532 2.07641e-05 -0.00329861 -0.00911758 -0.0755341  
0.00176353 -0.0156994 2.58795e-06 -0.0026726 -0.00863553 -0.0755704  
0.00166555 -0.0156883 1.44993e-05 -0.00290369 -0.00879671 -0.0755557  
0.00191096 -0.0156494 -2.25308e-05 -0.00293124 -0.00880576 -0.0755779  
 0.0140043  -0.016327 -5.43981e-06  0.0081367   0.027552 -0.0665064  
 0.0135732 -0.0164978 3.27993e-05   0.007381  0.0266593 -0.0667145  
 0.0135423 -0.0165729 7.43198e-06 0.00701743  0.0262088 -0.0668232  
 0.0136376 -0.0166024 -9.00845e-06 0.00682203   0.026037 -0.0668822  
 0.0119069 -0.0227851 1.11744e-05  0.0281081  0.0463485 -0.0440909  
  0.011503 -0.0229599 3.32764e-05  0.0275735  0.0456214 -0.0444963  
 0.0113636 -0.0229923 2.51308e-07  0.0273928  0.0453593 -0.0446325  
  0.011218 -0.0228859 -1.49646e-05  0.0274311   0.045464 -0.0445774  
 -0.017654 -0.0182805 1.83344e-05  0.0436093  0.0400255 -0.0267574  
-0.0178805 -0.0183438 2.95727e-05  0.0433283  0.0397324 -0.0270302  
-0.0180546 -0.0182656 -7.00894e-06  0.0432093  0.0396581 -0.0270847  
-0.0182172 -0.0180918 -2.15524e-05  0.0432013  0.0397444 -0.0270136  
-0.0325067 -0.00350965 1.68096e-05  0.0673257  0.0439067  0.0150389  
-0.0326444 -0.00355149 2.18249e-05  0.0670753  0.0437729  0.0148209  
-0.0328161 -0.00340566 -6.97123e-06  0.0668734  0.0437599  0.0148165  
-0.0329246 -0.00322406 -1.97748e-05  0.0667913  0.0437863  0.0148563  
-0.0606629  0.0145034 1.39343e-05  0.0426913  0.0188086   0.029359  
-0.0607182  0.0144697 1.79358e-05   0.042496  0.0187704  0.0292375  
-0.0607833  0.0145795 -7.21644e-06  0.0423219  0.0187671  0.0292569  
-0.0608116  0.0146894 -1.86833e-05  0.0422626  0.0187623  0.0292368  
0.00669504 -0.0143326 1.61909e-06  0.0033781  0.0143457 -0.0725467  
 0.0140933 -0.0163044 -2.04096e-05 0.00820461  0.0272487 -0.0666026  
0.00683144 -0.0143274 -1.717e-05 0.00333713  0.0140828 -0.0726033  
0.00634243 -0.0144204 2.85803e-05 0.00267872  0.0136075 -0.0726306  
 0.0137445 -0.0164256 2.04364e-05 0.00770455   0.027113 -0.0666043  
0.00647992 -0.0143828 1.99462e-05 0.00298852  0.0139738 -0.0725847  
0.00633634 -0.0144573 1.17453e-05  0.0022858  0.0131535 -0.0726842  
 0.0135508 -0.0165351 1.80657e-05 0.00719998  0.0263935 -0.0667824  
0.00633274 -0.0144391 1.82216e-05 0.00248185  0.0133614 -0.0726648  
0.00652911 -0.0144702 -1.32073e-05 0.00193722  0.0128056 -0.0727361  
   0.01358 -0.0165939 -5.91397e-08 0.00689297  0.0261361 -0.0668455  
0.00641415 -0.0144664 8.69898e-07 0.00210387  0.0129862 -0.0727044  
 0.0138095 -0.0165009 -1.80333e-05 0.00727836  0.0262234 -0.0668547  
0.00669206 -0.0144268 -2.18677e-05  0.0023076  0.0130272 -0.0727316  
 0.0125083 -0.0196159 1.29013e-06  0.0164114  0.0365824 -0.0565868  
 0.0118522 -0.0226547 -1.1506e-05  0.0282645  0.0461047  -0.044233  
 0.0125253 -0.0195397 -1.53903e-05   0.016537  0.0363058 -0.0567054  
 0.0120892 -0.0198032 3.14935e-05  0.0157596  0.0357526 -0.0569035  
 0.0116791 -0.0228937 2.64669e-05  0.0277918  0.0460075 -0.0442833  
 0.0122632 -0.0197271 2.11536e-05  0.0160326  0.0361831 -0.0567376  
 0.0120106 -0.0198686 4.07589e-06  0.0154893  0.0353918 -0.0570325  
 0.0114275  -0.022975 1.55401e-05  0.0274831  0.0454332 -0.0445974  
 0.0120433 -0.0198352 1.62789e-05   0.015625  0.0355219 -0.0569907  
 0.0119881 -0.0198438 -1.04825e-05  0.0154274  0.0353691 -0.0570375  
 0.0112965 -0.0229585 -7.92222e-06  0.0273829  0.0454345 -0.0445919  
 0.0119977 -0.0198691 -2.91459e-06  0.0154279  0.0353988 -0.0570259  
  0.011351 -0.0227241 -2.25787e-05  0.0277859  0.0455121 -0.0445614  
 0.0121371 -0.0197015 -1.91276e-05  0.0158437  0.0354871   -0.05701  
-0.00451843 -0.0208072 1.67917e-05  0.0361734  0.0425733  -0.035287  
-0.0177386 -0.0181423 -2.01942e-06   0.043655  0.0399139 -0.0268592  
-0.00459268 -0.0206696 -6.78915e-06  0.0362708  0.0424035 -0.0354079  
-0.00482538 -0.0209164 3.29399e-05  0.0357889  0.0420933 -0.0356226  
-0.0177707 -0.0183316 2.73121e-05  0.0434473  0.0398957 -0.0268809  
-0.00468532 -0.0208817 2.9028e-05  0.0359475  0.0423531 -0.0354427  
-0.00498575 -0.0208866 -4.19136e-06   0.035652    0.04194 -0.0357135  
-0.0179693 -0.0183046 1.06717e-05  0.0432687  0.0396613 -0.0270891  
-0.00490915 -0.0209009 1.3418e-05  0.0357202   0.041972  -0.035701  
-0.00514882 -0.0207354 -1.98634e-05  0.0356719  0.0420417 -0.0356449  
-0.0181368 -0.0181897 -1.57018e-05   0.043192  0.0397198 -0.0270305  
-0.00506444 -0.0208267 -1.32508e-05  0.0356422  0.0420113 -0.0356627  
-0.0181197 -0.0180221 -2.02627e-05  0.0433747  0.0397264  -0.027035  
-0.00503626 -0.0206238 -2.2406e-05  0.0359194  0.0420491 -0.0356507  
 -0.024516  -0.012037 1.80382e-05  0.0548878  0.0418147 -0.00834885  
-0.0325705 -0.00336801 2.1892e-06  0.0673045  0.0438573   0.014965  
-0.0245928 -0.0118967 3.38652e-07  0.0548981  0.0417342 -0.00843627  
-0.0246968  -0.012086 2.59863e-05  0.0546275  0.0416063 -0.00859111  
-0.0325719 -0.00355402 2.15125e-05  0.0671917  0.0438462  0.0149371  
-0.0246057 -0.0120828 2.48455e-05  0.0547426  0.0417224 -0.00845923  
-0.0248734  -0.011972 -7.70842e-06  0.0544729  0.0415654 -0.00861973  
-0.0327297 -0.00347924 7.10405e-06  0.0669761  0.0437492  0.0147912  
-0.0247856 -0.0120293 8.66843e-06  0.0545508  0.0415602 -0.00863527  
-0.0250125 -0.0117914 -2.08658e-05  0.0544265   0.041622 -0.00856113  
-0.0328789 -0.00331623 -1.44962e-05  0.0668172  0.0437865  0.0148589  
-0.0249479 -0.0118879 -1.56701e-05  0.0544365  0.0416101 -0.00856973  
-0.0328355 -0.00319989 -1.63096e-05  0.0669561  0.0437681  0.0148246  
-0.0249189 -0.0117464 -1.81825e-05  0.0545897  0.0416014 -0.00858889  
-0.0481299 0.00619143 1.51148e-05  0.0559836  0.0311578  0.0224145  
-0.0606788  0.0145901 3.68381e-06  0.0426754  0.0187941  0.0293309  
-0.0481653 0.00630221 3.18302e-06  0.0559619  0.0311291  0.0223663  
-0.0482215 0.00615391 1.94127e-05  0.0557661  0.0310774  0.0222502  
-0.0606898  0.0144697 1.7674e-05   0.042589  0.0187899  0.0292961  
-0.0481737 0.00615261 1.92158e-05  0.0558691  0.0311196  0.0223339  
-0.0483355 0.00628187 -6.68587e-06  0.0555729  0.0310704  0.0222602  
-0.0607505  0.0145242 5.05524e-06  0.0424106  0.0187648  0.0292361  
-0.0482781 0.00621728 6.12653e-06  0.0556714  0.0310646  0.0222368  
-0.0483962 0.00642237 -1.93084e-05  0.0554984  0.0310767  0.0222667  
-0.0608019  0.0146364 -1.39672e-05  0.0422777  0.0187685  0.0292611  
-0.0483727 0.00635318 -1.40619e-05  0.0555205  0.0310813  0.0222815  
-0.0607733  0.0146946 -1.24459e-05  0.0423979  0.0187602  0.0292264  
-0.0483334 0.00643465 -1.44634e-05  0.0556476  0.0310688  0.0222464  
  -0.06788  0.0162634 1.4437e-05  0.0198698 0.00373284  0.0201857  
-0.0678887  0.0163264 5.25266e-06   0.019868 0.00372449  0.0201685  
-0.0679074  0.0162405 1.58204e-05  0.0197088  0.0037178  0.0201102  
-0.0678932    0.01624 1.64776e-05  0.0197832 0.00372599  0.0201436  
-0.0679389  0.0163231 -7.6946e-06  0.0195947 0.00371446  0.0201331  
-0.0679232  0.0162813 4.06933e-06  0.0196516 0.00371437  0.0201157  
-0.0679526  0.0164051 -1.83401e-05  0.0195618 0.00370935  0.0200999  
-0.0679478  0.0163659 -1.41739e-05   0.019569 0.00371359  0.0201269  
 -0.067935  0.0164064 -1.16256e-05   0.019663 0.00370811  0.0200916  
-0.0640258  0.0143391 -1.78133e-05 -0.0408132 -0.0340308  0.0174843  
-0.0639975  0.0142411 -7.60967e-06 -0.0408632 -0.0340281  0.0175271  
-0.0639607  0.0141381 1.43373e-05 -0.0409242 -0.0340081  0.0174583  
-0.0639632  0.0141118 1.41708e-05 -0.0408679 -0.0340028  0.0174118  
-0.0413044 -0.00415518 -1.69406e-05 -0.0623476 -0.0493756 -0.00706989  
-0.0411812 -0.00431528 -6.63399e-06 -0.0624615 -0.0493417 -0.00709652  
-0.0410434 -0.00446357 1.68908e-05  -0.062602 -0.0492986 -0.00717972  
-0.0409709 -0.00452069 1.30172e-05 -0.0626716 -0.0493006 -0.00720271  
-0.00575949 -0.0208734 -1.59664e-05 -0.0628635  -0.058448  -0.026491  
-0.00547549 -0.0210965 -5.60289e-06 -0.0629489 -0.0582894 -0.0266238  
-0.00523263 -0.0212333 2.40546e-05 -0.0630767 -0.0582797 -0.0266538  
-0.00499033 -0.0212504  1.186e-05 -0.0632931 -0.0584668 -0.0264986  
0.00609473 -0.0249178 -1.25499e-05 -0.0305301 -0.0419153 -0.0570045  
0.00631433 -0.0250142 2.21654e-06 -0.0305742 -0.0417211 -0.0571067  
0.00647738  -0.025015 3.10027e-05 -0.0307183 -0.0418755 -0.0570409  
0.00681695 -0.0249103 1.04116e-05 -0.0310982 -0.0424033 -0.0567636  
0.00351605  -0.018607 -2.66249e-06 -0.00714367 -0.0197967 -0.0734554  
0.00348083 -0.0185693 1.54719e-05 -0.00741411 -0.0198641 -0.0734433  
0.00353069 -0.0185063 2.87508e-05 -0.00770409 -0.0202034 -0.0733648  
0.00386647 -0.0183757 3.09101e-06 -0.00823287 -0.0209117 -0.0731867  
-0.0693654  0.0170612 -1.73681e-05  -0.020331 -0.0213744  0.0169507  
-0.0640161  0.0143085 -1.06421e-05 -0.0408238 -0.0340173   0.017435  
-0.0693625  0.0170452 -1.03005e-05 -0.0203008  -0.021369  0.0169225  
-0.0693523  0.0169828 -7.48374e-06 -0.0203447 -0.0213707  0.0169979  
-0.0640141  0.0142938 -1.40224e-05 -0.0408314 -0.0340326   0.017518  
-0.0693599  0.0170244 -1.36629e-05 -0.0203362 -0.0213739  0.0169841  
-0.0693345  0.0169034 1.39855e-05 -0.0203411 -0.0213597  0.0169514  
-0.0639776   0.014188 3.66159e-06 -0.0408998 -0.0340169  0.0174903  
-0.0693429   0.016942 3.48029e-06  -0.020347 -0.0213649  0.0169727  
-0.0693363  0.0168987 1.3436e-05 -0.0202404 -0.0213598  0.0169419  
-0.0639589  0.0141184 1.50514e-05 -0.0409031 -0.0340055  0.0174343  
-0.0693337  0.0168941 1.46583e-05 -0.0202978 -0.0213593  0.0169442  
-0.0639808  0.0141673 5.95152e-06 -0.0408433  -0.034003  0.0174018  
-0.0693464   0.016946 5.82479e-06 -0.0202276 -0.0213628  0.0169309  
-0.0537662 0.00550452 -1.76625e-05 -0.0526103 -0.0418669 0.00462897  
-0.0412438 -0.00419183 -1.15934e-05  -0.062425  -0.049327 -0.00715661  
-0.0537332 0.00546884 -1.14382e-05 -0.0526567 -0.0418385 0.00456096  
 -0.053699 0.00538104 -6.88457e-06 -0.0526952 -0.0418537 0.00464147  
-0.0412482 -0.0042329 -1.32748e-05 -0.0623961   -0.04937 -0.00706375  
-0.0537369  0.0054464 -1.36668e-05 -0.0526445 -0.0418669 0.00465069  
-0.0536173 0.00525716 1.5567e-05  -0.052802 -0.0418233 0.00456361  
-0.0411093 -0.00439094 5.39407e-06 -0.0625374 -0.0493111 -0.00715154  
-0.0536558  0.0053174 4.64407e-06 -0.0527547 -0.0418342  0.0045955  
-0.0535891 0.00521574 1.38861e-05 -0.0528092 -0.0418183 0.00452079  
-0.0410023 -0.00450171 1.62458e-05 -0.0626392  -0.049305 -0.00718484  
-0.0535993 0.00522879 1.57397e-05 -0.0528106 -0.0418231 0.00454461  
-0.0410318 -0.00442583 3.22841e-06 -0.0626286 -0.0492836 -0.00723143  
-0.0536239 0.00528672 4.72122e-06 -0.0527736 -0.0418111 0.00450321  
 -0.025112 -0.0121829 -1.6369e-05 -0.0634687  -0.053779 -0.0162735  
-0.00565013 -0.0208374 -1.39753e-05 -0.0630166 -0.0583637 -0.0265805  
-0.0250264 -0.0121917 -1.21908e-05 -0.0635767 -0.0537112 -0.0163638  
-0.0249139 -0.0123767 -6.61342e-06 -0.0635769 -0.0536932   -0.01635  
-0.00561469 -0.0209949 -1.27218e-05 -0.0628976 -0.0583917 -0.0265339  
-0.0250155 -0.0122826 -1.32282e-05 -0.0635152 -0.0537532 -0.0162899  
-0.0247232 -0.0125266 1.98972e-05 -0.0637133 -0.0536595 -0.0164131  
-0.00535385 -0.0211639 9.19109e-06 -0.0630161 -0.0582504 -0.0266705  
-0.0248166 -0.0124521 6.79575e-06 -0.0636496 -0.0536565 -0.0164034  
-0.0245749 -0.0125717 1.22942e-05  -0.063848 -0.0537328 -0.0163606  
-0.00511028   -0.02126 2.07591e-05 -0.0631689 -0.0583913 -0.0265619  
-0.0246454 -0.0125626 1.80317e-05 -0.0637753 -0.0537071 -0.0163767  
-0.00512944  -0.021085 -3.25309e-06 -0.0633118 -0.0583801  -0.026577  
 -0.024672 -0.0124435 5.9152e-07 -0.0638269 -0.0536867 -0.0164102  
0.000609565 -0.0237339 -1.47891e-05 -0.0458192 -0.0499839 -0.0432421  
0.00619665 -0.0247926 -2.04624e-05 -0.0308056 -0.0419056 -0.0570299  
0.000714303 -0.0236483 -1.7147e-05 -0.0460277 -0.0499322 -0.0432984  
0.000872468  -0.023899 -2.08652e-06 -0.0458719 -0.0497979 -0.0433674  
0.00621672 -0.0249817 -6.39937e-06 -0.0305344  -0.041836 -0.0570433  
0.000749437 -0.0238305 -1.00654e-05 -0.0458328 -0.0499119  -0.043287  
0.00107948 -0.0239661 2.76604e-05 -0.0459958 -0.0498663 -0.0433459  
0.00639034 -0.0250119 1.5802e-05 -0.0306495 -0.0417502 -0.0571023  
0.000973141 -0.0239305 1.23974e-05 -0.0459368 -0.0497899 -0.0433876  
0.00137436 -0.0239212 1.13633e-05 -0.0462881 -0.0502212 -0.0431189  
0.00663114  -0.024981 2.49378e-05 -0.0308704 -0.0421587 -0.0568928  
0.00121989 -0.0239621 2.30061e-05 -0.0461147 -0.0500634 -0.0432201  
0.00672154 -0.0247855 -1.3878e-05 -0.0312145 -0.0422293 -0.0568667  
0.00125038 -0.0237714 -8.19103e-06   -0.04636 -0.0500906 -0.0432115  
0.00443118 -0.0218339 -8.4365e-06 -0.0175011 -0.0303868 -0.0662341  
 0.0036436 -0.0185132 -2.41865e-05 -0.00747483 -0.0199135 -0.0734516  
0.00454049 -0.0217178 -2.28615e-05  -0.017813 -0.0304405 -0.0662413  
0.00452538 -0.0218553 8.72553e-06  -0.017639 -0.0303059 -0.0662774  
0.00349524 -0.0185933 7.5333e-06 -0.00726905 -0.0198406 -0.0734447  
 0.0044843 -0.0218554 2.30464e-08 -0.0175542 -0.0303594 -0.0662478  
0.00462612 -0.0218162 3.04223e-05 -0.0178505 -0.0305543 -0.0661998  
0.00349853 -0.0185367 2.05057e-05  -0.007563 -0.0199994 -0.0734165  
0.00456913 -0.0218337 1.83549e-05 -0.0177484  -0.030388 -0.0662587  
0.00496411 -0.0216899 7.65365e-06 -0.0183043  -0.031186 -0.0659625  
0.00366869 -0.0184519 1.97185e-05 -0.00792883 -0.0205631  -0.073273  
0.00477153 -0.0217678 2.31199e-05 -0.0180377 -0.0308826 -0.0660756  
 0.0039143 -0.0183463 -2.35711e-05 -0.00826136 -0.0206759 -0.0732669  
0.00493944 -0.0216142 -1.86364e-05 -0.0183914 -0.0309802 -0.0660558  
0.00130717 -0.0156848 2.52612e-06 -0.00268711 -0.00863935 -0.0755708  
0.00145381  -0.015635 -2.25709e-05 -0.00294434 -0.00880863 -0.0755783  
0.00114747  -0.015659 2.13602e-05  -0.003132 -0.00894001 -0.0755487  
0.00120979 -0.0156739 1.44515e-05 -0.00291696 -0.00879961 -0.0755561  
 0.0011714   -0.01562 2.37993e-05 -0.00348155 -0.00933371 -0.0755063  
0.00115265 -0.0156392 2.07696e-05 -0.00330969 -0.00911861 -0.0755348  
0.00147139 -0.0155374 -3.62695e-06 -0.00399956 -0.00996427 -0.0754276  
0.00129265 -0.0155848 1.30885e-05 -0.00371264 -0.00964917 -0.0754639  
0.00157664 -0.0155271 -2.57387e-05 -0.00389176 -0.00972287 -0.0754795  
 0.0156905 -0.0166786 -8.84461e-06 0.00710441  0.0268903 -0.0666679  
  0.015593 -0.0166476 7.35538e-06 0.00730375  0.0270658 -0.0666076  
 0.0156246 -0.0165704 3.28094e-05  0.0076755  0.0275265 -0.0664962  
 0.0160655 -0.0163961 -5.98426e-06 0.00844838  0.0284394 -0.0662835  
 0.0155202 -0.0233716 -1.43377e-05   0.029122  0.0483166 -0.0429471  
 0.0156731 -0.0234821 2.94122e-07  0.0290811   0.048207 -0.0430054  
 0.0158195 -0.0234471 3.33489e-05  0.0292705  0.0484817  -0.042862  
 0.0162428 -0.0232636 1.04871e-05  0.0298317   0.049244 -0.0424361  
-0.0128652 -0.0185249 -2.11287e-05  0.0481148  0.0446917 -0.0219405  
-0.0126872 -0.0187143 -7.0524e-06  0.0481232  0.0445979 -0.0220197  
-0.0124964 -0.0187985 2.99854e-05  0.0482536  0.0446782 -0.0219595  
-0.0122492 -0.0187287 1.80607e-05  0.0485623  0.0449984 -0.0216592  
 -0.039959 -0.00480277 -2.07355e-05  0.0538922  0.0339632 -0.00100374  
-0.0398682 -0.0049534 -8.50984e-06   0.053959  0.0339383 -0.00103476  
-0.0397269 -0.00507726 2.22059e-05  0.0541253  0.0339487 -0.00103358  
-0.0396125 -0.00504404 1.84059e-05  0.0543311  0.0340609 -0.00085243  
-0.0626234  0.0102376 -1.89109e-05  0.0354017  0.0143704  0.0117454  
-0.0626003  0.0101477 -7.91163e-06  0.0354529  0.0143734  0.0117633  
 -0.062545  0.0100558 1.68362e-05  0.0356019  0.0143748  0.0117469  
-0.0624991  0.0100823 1.64004e-05  0.0357688  0.0144097  0.0118579  
 0.0082488 -0.0144935 -1.33056e-05 0.00208861  0.0132952  -0.072667  
 0.0158662 -0.0165751 -1.77099e-05 0.00757121   0.027081 -0.0666395  
0.00841505 -0.0144495 -2.16995e-05 0.00246673  0.0135215 -0.0726622  
0.00805206 -0.0144796 1.16486e-05 0.00244409  0.0136501  -0.072614  
 0.0156315 -0.0166694 -2.308e-08 0.00717666  0.0269915 -0.0666305  
0.00813148 -0.0144892 7.70597e-07 0.00225852  0.0134794 -0.0726347  
0.00805828 -0.0144418 2.8565e-05 0.00284507  0.0141135 -0.0725593  
 0.0156017 -0.0166088 1.80186e-05  0.0074904  0.0272548 -0.0665658  
0.00804837 -0.0144609 1.81589e-05 0.00264416  0.0138624 -0.0725942  
0.00841813 -0.0143526 1.41874e-06  0.0035588  0.0148669 -0.0724738  
 0.0157998 -0.0164967 2.02562e-05 0.00800639  0.0279904 -0.0663836  
0.00819859 -0.0144036 1.98798e-05 0.00316122  0.0144873 -0.0725125  
 0.0161564 -0.0163735 -2.05418e-05 0.00851803  0.0281294 -0.0663816  
0.00855729 -0.0143478 -1.71098e-05 0.00351714  0.0145987 -0.0725312  
 0.0151341 -0.0200861 -1.00087e-05  0.0162052  0.0370608 -0.0563239  
 0.0156596 -0.0232018 -2.22447e-05  0.0294943   0.048367 -0.0429296  
 0.0152883 -0.0199388 -1.86938e-05  0.0166363   0.037183 -0.0562949  
 0.0151575 -0.0201107 4.08307e-06  0.0162686  0.0370843  -0.056319  
 0.0156026 -0.0234472 -7.59425e-06  0.0290711  0.0482859 -0.0429626  
  0.015144 -0.0201117 -2.66711e-06  0.0162053  0.0370915 -0.0563121  
 0.0152389 -0.0200423 3.14444e-05  0.0165484  0.0374577  -0.056185  
 0.0157401 -0.0234635 1.55737e-05  0.0291757  0.0482844 -0.0429682  
 0.0151914 -0.0200758 1.62423e-05  0.0164091  0.0372189 -0.0562754  
 0.0156727 -0.0198485 4.93066e-07  0.0172235  0.0383167 -0.0558569  
  0.016004 -0.0233775 2.62403e-05  0.0294996  0.0488865 -0.0426382  
 0.0154191 -0.0199635 2.0797e-05  0.0168312  0.0379034 -0.0560131  
 0.0161852 -0.0231275 -1.19751e-05  0.0299961  0.0489885 -0.0425847  
 0.0156901 -0.0197703 -1.56784e-05  0.0173538  0.0380305 -0.0559794  
0.000292637  -0.021339 -1.92691e-05  0.0390074  0.0462564  -0.032354  
-0.0127586  -0.018448 -2.01976e-05  0.0483052  0.0446716 -0.0219635  
0.000413762 -0.0212181 -2.22265e-05   0.039274  0.0462641 -0.0323597  
0.00046846 -0.0215005 -4.12762e-06  0.0389853  0.0461475 -0.0324291  
-0.0127772 -0.0186316 -1.55635e-05  0.0481044  0.0446651 -0.0219598  
0.000383595 -0.0214367 -1.29506e-05  0.0389751  0.0462241  -0.032374  
0.000641435 -0.0215311 3.32089e-05  0.0391323   0.046312 -0.0323304  
-0.0125937 -0.0187562 1.08081e-05  0.0481882   0.044601 -0.0220243  
0.000551091 -0.0215151 1.35429e-05  0.0390584  0.0461816 -0.0324152  
0.000971413  -0.021413 1.62704e-05   0.039547  0.0468285 -0.0319675  
-0.0123765 -0.0187848 2.75526e-05  0.0483842  0.0448565 -0.0217952  
0.00079203 -0.0214934 2.90457e-05  0.0393033  0.0465915 -0.0321358  
-0.0123419 -0.0185779 -2.59962e-06  0.0486124  0.0448764 -0.0217704  
0.000891201 -0.0212655 -7.41147e-06  0.0396522  0.0466457 -0.0320976  
-0.0270835 -0.0119453 -2.12402e-05  0.0516466  0.0391942 -0.0118571  
-0.0398856 -0.00478446 -1.62931e-05  0.0540289  0.0339469 -0.00103015  
-0.0269938 -0.0119031 -1.81396e-05   0.051803  0.0391741 -0.0118841  
-0.0269501 -0.0121181 -8.09207e-06  0.0516906  0.0391387 -0.0119128  
-0.0399206 -0.00487882 -1.59599e-05   0.053913  0.0339619 -0.0010004  
-0.0270214 -0.0120375 -1.6101e-05  0.0516559  0.0391821 -0.0118651  
-0.0267813 -0.0122278 2.59071e-05  0.0518383  0.0391779 -0.0118859  
-0.0397971 -0.00501591 6.55668e-06  0.0540436   0.033929 -0.00105661  
-0.0268662 -0.0121733 8.46692e-06  0.0517651  0.0391336 -0.0119279  
-0.0266077 -0.0121818 1.8481e-05  0.0520874  0.0393787 -0.0116535  
-0.0396667 -0.00508024 2.25221e-05  0.0542208    0.03401 -0.000937703  
-0.0266939 -0.0122252 2.49925e-05  0.0519484  0.0392897 -0.0117596  
-0.0396653 -0.00492623 3.17421e-06  0.0543153   0.034019 -0.000912664  
-0.0266812 -0.0120476 7.81134e-07   0.052098  0.0393013 -0.0117376  
-0.0519838 0.00276483 -1.99426e-05  0.0452899  0.0241111 0.00494604  
  -0.06259  0.0102416 -1.31072e-05  0.0355191  0.0143681  0.0117371  
-0.0519311 0.00277414 -1.4716e-05   0.045416  0.0241028 0.00492889  
 -0.051931 0.00264764 -8.28543e-06  0.0453509  0.0241029 0.00494089  
-0.0626158  0.0101949 -1.45646e-05  0.0354148  0.0143751  0.0117665  
-0.0519631 0.00270752 -1.53614e-05  0.0453076  0.0241138 0.00495881  
-0.0518348 0.00253869 1.9352e-05  0.0455113  0.0241076 0.00493118  
-0.0625724  0.0101013 4.36829e-06  0.0355289  0.0143709  0.0117457  
-0.0518825  0.0025926 5.34874e-06  0.0454328  0.0240971 0.00492064  
-0.0517581 0.00256816 1.76501e-05  0.0456927  0.0241778 0.00507401  
-0.0625214  0.0100551 1.81082e-05  0.0356808  0.0143919  0.0117984  
-0.0517947 0.00253664 2.03083e-05  0.0455968  0.0241445 0.00500271  
-0.0625115  0.0101556 5.1953e-06  0.0357576   0.014399  0.0118339  
-0.0517884  0.0026622 4.42038e-06  0.0456771  0.0241537 0.00503418  
-0.0681554  0.0144025 -1.78674e-05  0.0180244 0.00263439  0.0134551  
-0.0681378  0.0144025 -1.16783e-05  0.0181201  0.0026337  0.0134476  
-0.0681429  0.0143266 -7.69611e-06  0.0180575 0.00263895  0.0134872  
-0.0681511  0.0143663 -1.39159e-05  0.0180324 0.00263806   0.013481  
-0.0681131    0.01425 1.53147e-05  0.0181659 0.00264255  0.0134663  
 -0.068128  0.0142878 3.80871e-06  0.0181117 0.00263916  0.0134712  
-0.0680869  0.0142694 1.48971e-05  0.0183187 0.00265896  0.0135396  
-0.0680997  0.0142489 1.63959e-05  0.0182364 0.00265084  0.0134985  
 -0.068094  0.0143272 5.38957e-06  0.0183167  0.0026513  0.0135229  
 0.0204552 0.00219072 -8.99705e-05  0.0587529  0.0580502   0.020562  
 0.0134407 0.00244795 0.000111605 -0.0568792 -0.0552435  0.0141184  
 0.0132426 0.00282914 -1.1063e-05 -0.0560729 -0.0542224   0.014209  
 0.0209318 0.00209283 -0.000250454  0.0585806  0.0580792  0.0201757  
 0.0645515 -0.0217666 -0.000389974 -0.0412428 -0.0275426 -0.0389968  
-0.0156001  0.0140658 -8.01201e-05  0.0259252  0.0251301  0.0718845  
-0.0190306  0.0159974 -9.42542e-05  0.0400227  0.0336473  0.0758054  
 0.0648509 -0.0218509 -0.000606037 -0.0416168 -0.0277688 -0.0388045  
 0.0716844 -0.0241771 -0.00110856  0.0306342  0.0302792 -0.0334652  
-0.0199652  0.0136556 2.22292e-05 -0.0179973 -0.0262243  0.0723894  
-0.0266577  0.0178766 2.90466e-05 -0.0361679 -0.0384722  0.0751768  
 0.0713956 -0.0240936 -0.000918761   0.030139  0.0296484 -0.0338167  
 0.0132422  0.0109826 -0.00145161 -0.0144861 -0.00763184 0.00802401  
0.00297617  0.0160741 0.000835708  0.0164302  0.0167629   0.025776  
0.00311889  0.0163615 -9.28508e-06   0.015357  0.0151598  0.0259976  
  0.010764  0.0111765 0.00385372 -0.0154597 -0.00906753  0.0129008  
 0.0403886 -0.00566272 -5.94117e-06  0.0277155  0.0184772 -0.00757659  
-0.00330107 0.00743455 0.000135459 -0.00414081 -0.0122317  0.0509692  
-0.00238215 0.00994984 0.000494685 -0.00556971  -0.012747   0.042963  
 0.0426194 -0.0060544 -0.00274425  0.0282495  0.0208868 -0.00418224  
0.00018863  0.0099865 -0.000132533  0.0515311   0.050627  0.0488801  
-0.00773576   0.011981 -0.000163935  0.0152154  0.0203145  0.0591063  
-0.0092962 0.00733104 -0.000156785  0.0052262 0.00495223  0.0682753  
  0.013841 0.00993123 -0.000200802  0.0366467  0.0340445  0.0192807  
   0.03733 -0.00828293 -0.000271469 -0.0560237 -0.0458848 -0.0139415  
 0.0515567 -0.0141939 -0.00099621 -0.0355888 -0.0158869  -0.020709  
 0.0682503  -0.025099 -0.00174082 -0.0157326 -0.0017417 -0.0284959  
0.00815167    0.01049 0.00025734 -0.0299025 -0.0297127  0.0169824  
 0.0371711 -0.00830478 -5.72113e-05 -0.0558841 -0.0460467 -0.0141645  
 0.0509039  -0.013996 -0.000654818 -0.0350608  -0.015404 -0.0217648  
  0.067876 -0.0249859 -0.00163449 -0.0147592 -0.000370918 -0.0291376  
 0.0079448  0.0104278 0.000427169   -0.03078 -0.0309116  0.0169017  
-0.0341318  0.0217811 -3.65039e-05 -0.000868549 -0.00686233  0.0899919  
-0.000773218  0.0108728 -4.63506e-05  0.0493892  0.0486322  0.0488311  
 0.0134873 0.00996089 5.57938e-05  0.0369683  0.0344833  0.0189426  
-0.0066947 0.00949362 9.53353e-05 -0.0525045 -0.0546236   0.045022  
 0.0459009 -0.00971459 -0.000544811  0.0553847  0.0543034 -0.0093676  
 0.0455947 -0.00966492 -0.000300325   0.055186  0.0542203 -0.00957684  
 -0.007209  0.0104881 6.86618e-05 -0.0475362  -0.050813   0.044875  
-0.0117368 0.00735175 -5.23036e-05 -0.00279642 -0.00787052  0.0700734  
 0.0175714  0.0079541 0.00171692  0.0220879  0.0157753 0.00800392  
-7.40872e-05  0.0145348 0.000844453 -0.00890759 -0.0118415  0.0286478  
0.000438652  0.0145131 0.00104901 -0.00837584 -0.0106117  0.0268769  
 0.0199865 0.00760835 -0.00115501  0.0216788  0.0156552  0.0091161  
-0.00348728 0.00528551 0.000393312 -0.00293884 -0.0108618   0.056501  
 0.0600913 -0.0177828 -0.00512416  0.0182197  0.0157383   -0.01879  
 0.0576167 -0.0175392 0.000100496  0.0164722   0.011582 -0.0156018  
-0.00708781 0.00744361 -0.000195361 0.00385532 0.00598869  0.0651372  
-0.00976371 0.00967095 0.000109391 -0.0137178 -0.0243907  0.0579472  
 0.0809979 -0.0284768 -0.000891693 -0.00933052 0.00108058 -0.0489803  
 -0.030657  0.0197206 -6.42253e-05  0.0113154 0.00299552  0.0882405  
 0.0809066 -0.0284485 -0.000826793 -0.00886519 0.00161976  -0.048993  
  0.068029 -0.0246091 -0.00246163 0.00862638   0.010203 -0.0250344  
 0.0682976 -0.0246963 -0.00233801  0.0100565  0.0133027 -0.0233512  
-0.00549896 0.00453804 -7.65191e-05 -0.000137895 -0.00662992  0.0637631  
-0.00216896  0.0117497 0.000285923 -0.0234685 -0.0312242  0.0362047  
 0.0306632 0.000384613 -0.000263073  0.0395286   0.032668 0.00145486  
 0.0313205 0.000223528 -0.000798945  0.0396363   0.032974  0.0022074  
-0.00128299  0.0119916 0.000280129 -0.0202519 -0.0275303  0.0344672  
 0.0323112 -0.00273524 0.00241093 -0.0225915 -0.00674872 -0.00571504  
-0.00256641   0.013975 -0.000482721 0.00872332  0.0113427  0.0440383  
-0.00317487  0.0124392 9.73915e-05  0.0115774  0.0165618  0.0470009  
 0.0351747 -0.00310431 -0.00273627 -0.0236285 -0.00703244 -0.00668242  
0.00458027  0.0149032 0.00299317  0.0117925 0.00985691  0.0179613  
 0.0021294  0.0152944 0.00352408 -0.00664367 -0.00475448  0.0191337  
0.00394482  0.0148897 0.00072971 -0.00572059 -0.00251951  0.0163103  
0.00633607  0.0148799 -0.000144399  0.0106607 0.00756091  0.0167857  
-0.00299166 0.00310951 3.24693e-05 -0.00126199 -0.00644868  0.0601922  
 0.0212397 0.00491581 8.21198e-05 -0.0329021 -0.0223661  0.0026679  
0.00156174  0.0144603 5.95062e-05  0.0254257  0.0276873  0.0353262  
0.00194266  0.0146605 -3.99223e-05  0.0234609  0.0263583  0.0346087  
 0.0206424 0.00507451 0.000406096 -0.0328623 -0.0228428 0.00147382  
 0.0612855 -0.0203363 -0.0030581 -0.0153334 -0.000520755  -0.023747  
-0.00335511 0.00544508 -0.000182949 0.00271191 0.00315973  0.0613485  
 0.0616756 -0.0205982 -0.00156024  -0.017117 -0.00353842 -0.0178809  
0.00605568  0.0128033 0.000990997   -0.01995 -0.0189496  0.0180673  
 0.0112257  0.0122948 -5.73063e-05  0.0246686  0.0223689  0.0185349  
 0.0108182  0.0123252 0.000548077  0.0253744  0.0228647  0.0181825  
0.00649243  0.0127237 0.000593189 -0.0190129  -0.017701  0.0180981  
-0.00433256 0.00880239 0.000168401 -0.00954477 -0.0189986  0.0494893  
  0.049108 -0.0114925 -0.00137386  0.0327964    0.02504 -0.0128106  
 0.0499735 -0.0117205 -0.00147966  0.0334432  0.0265782 -0.0101633  
 0.0475741 -0.0115053 -8.97508e-05 -0.0211079 -0.00371298 -0.0153745  
-0.00318768 0.00954414 -0.000462846 0.00528003 0.00834812  0.0536223  
 0.0498811 -0.0118691 -0.00264786  -0.022181 -0.00456477 -0.0133875  
-0.00359138 0.00900411 -4.48227e-05 0.00565725 0.00837192  0.0539593  
 -0.003312 0.00410584 -5.79293e-05 0.00199395  0.0016582  0.0616361  
-0.000546192  0.0131592 0.000612345 -0.0155538 -0.0206021  0.0318558  
-0.00580374  0.0106913 0.000191224 -0.0192173 -0.0285426  0.0474583  
-0.00602617  0.0085717 0.000198881 -0.00833894 -0.0177432  0.0542399  
-0.00169467  0.0113297 0.000450131 -0.00705855 -0.0124234  0.0392945  
-0.00311348  0.0110477 0.000408263  -0.012363 -0.0194215  0.0427267  
 0.0652006 -0.0218147 -0.00350722  0.0138355  0.0146032 -0.0213592  
 0.0544746 -0.0144286 -0.00218337  0.0268097  0.0223605 -0.0128271  
  0.060229 -0.0180807 -0.00138202  0.0325399  0.0288015 -0.0211625  
  0.069629  -0.024435 -0.00168531   0.019234  0.0208071  -0.028186  
 0.0619139 -0.0194886 -0.00166882  0.0242653  0.0225366  -0.020392  
-0.00463429 0.00478053 0.000123041 -0.00161283 -0.00852666  0.0605105  
-0.00397573 0.00708772 0.000144702 -0.00616359 -0.0149686  0.0527128  
-0.0110521  0.0108346 9.00518e-05 -0.0140269 -0.0232441  0.0601677  
 -0.012416 0.00900809 -1.85789e-05 -0.0080444  -0.015358   0.068171  
-0.00823172 0.00794934 1.94177e-05 -0.00748936 -0.0156725  0.0602384  
 0.0638612 -0.0215715 -0.00141864  0.0124239  0.0110655 -0.0209206  
 0.0533688 -0.0142268 -0.00165664  0.0257319  0.0198145 -0.0153463  
 0.0596655 -0.0179264 -0.0011258   0.031948  0.0277683 -0.0223291  
 0.0693389 -0.0243466 -0.00162697   0.018407  0.0193503 -0.0289876  
 0.0614271 -0.0192995 -0.00190135  0.0233445  0.0206741 -0.0225799  
 0.0250174 0.00437947 -0.00665827  0.0344767  0.0277485 -0.0104725  
 0.0276109 0.00177254 0.00112371  0.0248218  0.0170652 0.00101743  
 0.0457118 -0.00616499 -0.00899299   0.032608  0.0257686 -0.0218748  
 0.0348355 -0.000473485 -0.0082795    0.03504  0.0280008 -0.0165257  
-0.000721631  0.0132226 0.00157952 -0.0060374 -0.00420003  0.0311106  
-0.00168344  0.0058143 0.000875661 -0.00274807 -0.0053223  0.0502977  
-0.00122897 0.00989169 0.00122258 -0.00476468 -0.00497183  0.0401392  
-0.000467848  0.0134375 -7.20168e-05 -0.00570385 -0.00711137  0.0281465  
-0.000865614   0.012606 0.000840146 -0.00734378 -0.0117579  0.0340066  
-0.00142528 0.00730457 -0.000674721 -0.00302253 -0.00733798  0.0446849  
-0.000942223   0.010665 -0.000427279 -0.00467856 -0.00733203  0.0358028  
 0.0235377 0.00383351 0.00710071  0.0343044  0.0298243  0.0188097  
 0.0302067 0.00136187 -0.00205787  0.0248639  0.0180218  0.0028937  
 0.0446586 -0.00676974 0.00481255  0.0336025   0.030322 0.00768017  
  0.033352 -0.00100858 0.00649145  0.0353256  0.0314643  0.0147419  
 0.0110755 0.00669975 0.000107551 -0.0421435 -0.0411864  0.0161743  
 0.0150154 0.00777447 0.000139886 -0.0310537 -0.0255971 0.00968016  
 0.0284308 -0.000920555 -0.000150271 -0.0433067 -0.0327112 -0.00438057  
 0.0259934 -0.00275416 -0.000132182 -0.0563553 -0.0500661 2.35187e-05  
 0.0205282 0.00271494 -1.44628e-05 -0.0428913 -0.0367909 0.00541922  
 0.0173643  0.0061975 -3.43131e-05  0.0472929  0.0457175  0.0200145  
0.00731165  0.0123357 8.2662e-05  0.0308365  0.0310867   0.027672  
0.000760468  0.0131473 1.01233e-05  0.0364011  0.0378069  0.0420267  
0.00993723 0.00668038 -6.07483e-05  0.0539267  0.0536568  0.0356941  
 0.0090011 0.00980762 -4.41726e-06  0.0418297   0.041992  0.0317448  
  0.017878 0.00609791 -0.00025191  0.0471346   0.045533  0.0199091  
0.00757628  0.0124719 -0.000110626  0.0296378  0.0298309  0.0273071  
0.00156381  0.0129428 -0.000106116  0.0358284  0.0375599  0.0410579  
 0.0105526 0.00624245 -0.000181016  0.0550989  0.0546874  0.0355308  
0.00936638 0.00980937 -0.000162277  0.0414628  0.0416957  0.0315262  
 0.0109453 0.00651403 0.000261376 -0.0429976 -0.0422019  0.0161353  
 0.0146003 0.00783749 0.000460073 -0.0314478 -0.0262385 0.00908638  
   0.02802 -0.000831748 0.000146034 -0.0432055 -0.0329083 -0.0049638  
  0.026064 -0.00300027 3.7777e-05 -0.0567169 -0.0506052 -0.000259566  
 0.0202984 0.00264695 0.000217685  -0.043273 -0.0373096 0.00504634  
 0.0531357 -0.0208812 -0.000174778 -0.0568054 -0.0567147 -0.0261565  
 0.0243003 -0.0097385 -2.59297e-05 -0.0764251 -0.0705465  0.0102702  
  0.039627 -0.0159285 -9.47086e-05 -0.0670424 -0.0641978 -0.00811981  
-0.00216433  0.0077839 -7.76708e-05  0.0789194  0.0639023  0.0612662  
 0.0301305 -0.00871066 -0.000150815  0.0755077  0.0746523  0.0235902  
 0.0143923 -0.00079317 -0.000108406  0.0783686  0.0700812  0.0430463  
-0.00244041 0.00830523 -3.51199e-05  0.0766938  0.0625803  0.0606758  
 0.0299336 -0.00867454 -6.01861e-05  0.0755509  0.0746573  0.0235956  
 0.0138012 -0.000298691 -4.36987e-05  0.0772449  0.0692974  0.0431793  
  0.052974 -0.0209159 -4.63066e-05 -0.0566691 -0.0568073 -0.0263021  
 0.0243393 -0.0100446 4.79747e-05 -0.0770388 -0.0711613  0.0103234  
 0.0396632 -0.0161442 6.71657e-06  -0.067215 -0.0644853 -0.00834911  
 0.0623572 -0.0173333 -0.00298539 0.00567493  0.0118881 -0.0159545  
 0.0520154 -0.0102982 0.00325206  0.0289005  0.0284047 0.00282559  
  0.057867 -0.0137646 1.9628e-05  0.0174596  0.0205959 -0.00654481  
-0.00211777 0.00282242 -0.000207871 -8.43845e-05 -0.0035056  0.0610328  
-0.00137581 0.00503643 -0.00067676 -0.00198765 -0.00631258  0.0506559  
-0.00167408 0.00343677 -0.000463063 -0.00112386 -0.0047658  0.0565375  
   0.06227 -0.0172586 -0.00372774 0.00404244 0.00763318  -0.018366  
 0.0532285 -0.00983245 -0.00882811  0.0279734  0.0233824 -0.0229377  
 0.0585572 -0.0135436 -0.00644529  0.0160155  0.0156897  -0.020933  
-0.00162066 0.00826773 -0.00108871 0.00396826 0.00216824  0.0537252  
-0.00142875 0.00593234 -0.00102251 0.00250914 0.000354876  0.0569841  
-0.00515001 0.00575412 -0.000206212 0.00362196 0.00401255  0.0632323  
-0.00530266 0.00822687 -0.000238511  0.0050925 0.00702316  0.0593976  
-0.00315944  0.0070377 -0.000515459 0.00395763 0.00350902  0.0574435  
-0.00334125  0.0107964 8.12037e-05 0.00885041  0.0131887  0.0501045  
-0.00166387  0.0144868 -0.000679824 0.00831865 0.00647371  0.0414424  
-0.0016088  0.0117653 -0.000987866 0.00649727  0.0041532  0.0471696  
 0.0012799  0.0171713 0.00195494 0.00941281 0.00405051  0.0208741  
0.00986913  0.0103789 -0.00162044  0.0207666  0.0179243 0.00396635  
0.00486637  0.0124147 0.000903238  0.0130035 0.00901064  0.0108937  
0.00705718  0.0107946 -0.000529706 -0.0161198 -0.0135015 0.00500292  
0.000376948   0.015693 0.00340462 -0.00558086 -0.000341025  0.0199319  
0.00367679  0.0116667 0.00188333 -0.00969957 -0.00574938  0.0102285  
0.00641243  0.0103553 0.00624218 -0.0151355 -0.00920815  0.0192192  
0.00124197   0.015669 0.00105777 -0.00473078 -0.00241952  0.0172987  
0.00340849  0.0115044 0.00465128 -0.00853581 -0.00429822  0.0160988  
0.00204116  0.0170098 0.00147002 0.00822927 0.00547545  0.0215665  
0.00911982  0.0101545 0.00588724  0.0194352   0.016693  0.0201627  
0.00453284  0.0122437 0.00470225  0.0114792 0.00868834  0.0183821  
 0.0289708 0.00204361 -0.0072763 -0.0324737 -0.0208542 -0.0157542  
 0.0475018 -0.00814649 -0.00907254 -0.0295809 -0.0159417  -0.024689  
 0.0394422 -0.00654193 0.000974118 -0.0219762 -0.00539206 -0.0103885  
 0.0379029 -0.00304228 -0.00874179  -0.032752 -0.0204106 -0.0216844  
-0.00131682  0.0149959 0.000852509 0.00728196 0.00741518  0.0427896  
 -0.001683 0.00849712 0.000509355 0.00433096 0.00435368  0.0558631  
-0.00284257  0.0120062 -0.000448863 0.00721603  0.0099463  0.0487707  
-0.0014146  0.0119292 0.000708698 0.00624889 0.00606852   0.049269  
 0.0279629 0.00135095 0.00757602 -0.0322762 -0.0182962   0.016165  
 0.0458555 -0.00862519 0.00511393 -0.0306814 -0.0158965 0.00455726  
 0.0421866 -0.00701962 -0.00245881 -0.0229436 -0.00584296 -0.00911784  
 0.0361588 -0.00351222 0.00694493 -0.0333573  -0.018761  0.0112203  
 0.0028403  0.0137402 0.000716272  -0.013016 -0.0137249   0.022844  
0.00765949  0.0114769 0.000447073 -0.0247807 -0.0238288  0.0175135  
0.00324506    0.01136 0.000269988 -0.0251614 -0.0288891  0.0263128  
8.93309e-06  0.0131973 0.000532357 -0.0142126 -0.0188115  0.0305316  
0.00330841  0.0125429 0.000534562  -0.018901 -0.0212374  0.0249097  
 0.0149863  0.0100479 0.000169854  0.0250278  0.0205562  0.0112232  
 0.0123432   0.011058 0.00023057  0.0313572  0.0289366  0.0187772  
 0.0226095 0.00507846 -0.000103669  0.0386798  0.0338127 0.00993024  
 0.0244353 0.00443561 -0.000266899  0.0315332  0.0250743 0.00427527  
 0.0190438 0.00748006 5.65675e-05  0.0315334  0.0266457   0.010924  
 0.0156829 0.00986239 0.000435019  0.0245523  0.0204164  0.0143636  
 0.0126663  0.0110562 -8.31624e-05  0.0307241  0.0284376  0.0192643  
 0.0230708 0.00498815 -0.000472324  0.0385408  0.0337591   0.010522  
 0.0252855 0.00419069 -0.000162428  0.0314362  0.0253936 0.00722324  
 0.0196432 0.00734802 -0.00015659  0.0312274  0.0266265   0.012453  
 0.0023536  0.0137178 0.00104236 -0.0136864  -0.014627  0.0239076  
0.00733696  0.0114831 0.000647319 -0.0256478 -0.0249257  0.0173913  
0.00279511  0.0111774 0.000365956 -0.0270618 -0.0310739  0.0271218  
0.00286006  0.0124783 0.000621035 -0.0200259 -0.0227075  0.0257286  
 0.0407511 -0.00555057 -0.0011557  0.0371118  0.0296871 -0.00407677  
 0.0385051 -0.00475268 -0.000633537  0.0478331  0.0433186 -0.00284678  
 0.0601318  -0.016996 -0.000824125  0.0435154   0.042821 -0.0223474  
 0.0503952 -0.0116362 -0.000991962  0.0409164  0.0360683 -0.0127373  
 0.0399688 -0.00534913 -0.000705659  0.0367482  0.0288338 -0.00552615  
 0.0380439 -0.00464274 -0.000329775  0.0477073   0.043156 -0.00338084  
 0.0598223 -0.0169238 -0.000590419   0.043151  0.0424627 -0.0226527  
 0.0498912 -0.0115044 -0.000715909  0.0405533  0.0354894 -0.0136083  
-0.00295267  0.0104505 0.000240498 -0.0147528 -0.0236706  0.0421899  
-0.00358866  0.0115129 0.000165318 -0.0330462 -0.0390778  0.0397268  
-0.0145323  0.0128009 5.05458e-05 -0.0333004 -0.0391961  0.0606117  
-0.00794878  0.0115461 0.000130243 -0.0234851 -0.0317731   0.051245  
3.9173e-05  0.0163867 -0.000171188  0.0103601 0.00683439  0.0318642  
0.00436525  0.0155864 0.00108761  0.0153802  0.0146268  0.0204361  
0.00110114  0.0169961 0.000404005  0.0107368 0.00592651   0.025641  
 0.0188192 0.00541981 -0.00308394 -0.0265264 -0.0185726 -0.00605173  
0.00576745  0.0133553 0.00404167 -0.0107034 -0.00605017  0.0164046  
 0.0127046 0.00819658 -0.00211122 -0.0225333  -0.016906 -0.0012225  
 0.0184352 0.00488418 0.00559094 -0.0266735 -0.0156135  0.0140301  
  0.008265  0.0130467 -0.000740478 -0.00975545 -0.00465192  0.0118402  
 0.0119355 0.00778804 0.00628097  -0.022007 -0.0133426  0.0174919  
0.000113119  0.0164239 0.000768454  0.0100486 0.00912532  0.0339539  
0.00471387  0.0157414 0.000715204  0.0144256  0.0130272  0.0218948  
0.00120844  0.0168785 0.00146039 0.00998869 0.00822643  0.0280167  
 0.0334936 -0.00382027 -0.000188913  0.0571648  0.0563776 0.00612706  
 0.0573702 -0.0186372 -0.000180265  0.0548969   0.068456 -0.0146203  
   0.04454 -0.0143269 -0.000114199  0.0654394  0.0721934 0.00469989  
0.00424378 0.00569432 0.000105294 -0.0549058 -0.0551147  0.0295693  
-0.00902306 0.00778795 4.60209e-05 -0.0809303 -0.0690866  0.0510311  
0.00868334 -0.00186043 4.86355e-05 -0.0803062 -0.0708926  0.0304126  
0.00381688 0.00645221 3.30061e-05 -0.0517204 -0.0527899  0.0298235  
-0.00888796  0.0082922 2.94524e-05  -0.076828 -0.0667575   0.050533  
0.00830172 -0.00112801 5.42996e-06 -0.0779315 -0.0694127  0.0307653  
 0.0337584 -0.0038365 -0.000387708  0.0572179  0.0563811  0.0061735  
 0.0575989 -0.0186503 -0.000319702  0.0550754  0.0685524 -0.0144724  
   0.04476 -0.0143483 -0.000228201  0.0655404  0.0722403 0.00473379  
-0.00368827 0.00966063 0.000248441 -0.00722809 -0.0156308  0.0464974  
-0.00254843 0.00725128 -7.36712e-05 -0.00414862 -0.0104572  0.0487369  
  0.046074 -0.00863144 -0.0015133  0.0306421  0.0240217 -0.00686384  
 0.0494822 -0.0099772 -0.000137106  0.0282348  0.0243683 -0.0039782  
 0.0448109 -0.00833317 -0.00134315   0.029961  0.0220021 -0.0109965  
 0.0490489 -0.00954074 -0.00405962  0.0273099  0.0207667 -0.0160125  
-0.00394568  0.0110145 0.000199462 -0.0367793 -0.0421799  0.0407981  
-0.0160728  0.0135445 6.13075e-05 -0.0455405 -0.0472009  0.0608695  
-0.0168108  0.0136679 7.42764e-05 -0.0236419 -0.0310336  0.0659448  
-0.0100743   0.012334 0.000136362 -0.0308524  -0.037068  0.0539737  
0.00967447  0.0114395 0.00118525 -0.0194549 -0.0153305  0.0147137  
0.00235298  0.0146665 0.00183991 -0.00903703 -0.00838759  0.0221001  
0.00544564  0.0131859  0.0014161 -0.0140058 -0.0118776  0.0184859  
0.00651824  0.0142324 0.000501728  0.0206607  0.0190716   0.022496  
 0.0102528  0.0116476 0.00270889   0.016446  0.0118453  0.0140659  
0.00919267  0.0129383 0.000505831  0.0203867  0.0172658  0.0163159  
0.00680712   0.014248 0.000209584  0.0199059  0.0186823  0.0229545  
 0.0125963  0.0113833 -0.000886368  0.0156555  0.0111712  0.0130924  
0.00969445  0.0128022 0.000833957  0.0196459  0.0169431  0.0187689  
0.00919099  0.0116795 0.000683677 -0.0201854 -0.0165243  0.0126937  
0.00195582  0.0149373 0.00119627 -0.00968202 -0.00975092  0.0219853  
0.00499786  0.0133774 0.00107302 -0.0146725 -0.0127882  0.0175067  
-0.0305895   0.020465 -4.7601e-06 -0.0189852 -0.0231817  0.0839382  
-0.0218052  0.0142607 -4.27282e-05 -0.00197198 -0.00785114  0.0797062  
-0.0108636 0.00851723 2.93964e-05 -0.00846922 -0.0164944  0.0648232  
-0.0194022  0.0142091 1.37261e-05 -0.0131327 -0.0198952  0.0739119  
 0.0779056 -0.0267199 -0.000925687  0.0114447  0.0171705 -0.0417832  
   0.07635 -0.0227751 -0.000494595  0.0261688  0.0411418 -0.0451015  
  0.082847 -0.0231502 -0.000506435 -0.0035966 0.00642222 -0.0615236  
 0.0805408  -0.022931 -0.000515208  0.0113253  0.0256514 -0.0532857  
-0.0399033  0.0280392 1.23978e-05 -0.0541414  -0.046962  0.0869928  
-0.0509477  0.0362936 -2.29418e-05 0.000380295 -0.00860605    0.10408  
-0.0461937  0.0334197 -5.76375e-06 -0.0270493 -0.0278783   0.096934  
-0.0257366  0.0168982 -2.34413e-05 -0.00607783 -0.0130372  0.0816951  
-0.0357328  0.0251833 1.17745e-05 -0.0410295 -0.0388574    0.08478  
 -0.048681  0.0348311 -3.46173e-05 0.00958567 -0.00116799   0.103055  
-0.0425058  0.0305595 -1.24138e-05 -0.0187014 -0.0214053  0.0949281  
 0.0780207 -0.0267538 -0.000978974  0.0119197   0.017768 -0.0415788  
 0.0765625 -0.0228072 -0.000617422    0.02655  0.0415549 -0.0449037  
  0.082797  -0.023141 -0.000478984 -0.00317983 0.00685626 -0.0615319  
 0.0806275 -0.0229402 -0.000565011  0.0117321  0.0261006 -0.0531834  
 0.0737486 -0.0250352 -0.000607611 -0.0244783 -0.0125304 -0.0439029  
 0.0735573 -0.0240585 -0.000248845 -0.0294311 -0.0296108   -0.05302  
 0.0788678  -0.023303 -0.000363258 -0.0153162 -0.0107248 -0.0577653  
 0.0739577  -0.025093 -0.000753045 -0.0248961 -0.0129178 -0.0437931  
 0.0737769 -0.0240839 -0.0003673 -0.0297588 -0.0298263 -0.0528859  
 0.0790048 -0.0233151 -0.000438334 -0.0156973 -0.0110609 -0.0576823  
-0.0247966  0.0182452 -8.04663e-05  0.0261015  0.0185797  0.0831848  
-0.0328052  0.0255855 -5.60123e-05  0.0584608  0.0378908  0.0915355  
-0.0414381  0.0312115 -4.55463e-05  0.0344654  0.0183645  0.0986768  
 -0.024266  0.0180132 2.9161e-05 -0.0695568 -0.0589303  0.0696257  
 0.0682573  -0.020952 -0.000467505  0.0401474  0.0552812 -0.0304081  
 0.0680315 -0.0209303 -0.000329467  0.0398506  0.0550196 -0.0306033  
-0.0231316  0.0178092 2.41635e-05 -0.0599299 -0.0532708  0.0695903  
0.00396146  0.0086645  0.0002309 -0.0402856 -0.0423234  0.0285035  
 0.0280676 0.000776807 -0.000171615  0.0475752  0.0446568 0.00862287  
 0.0284267 0.000725839 -0.000431189   0.047506  0.0446132 0.00895331  
0.00411512 0.00905135 0.000142177 -0.0378496 -0.0403129  0.0281697  
-0.0249175  0.0177953 -6.73112e-05  0.0163035  0.0108787  0.0826955  
-0.0305138  0.0240877 -5.1708e-05  0.0484153  0.0325189  0.0886852  
-0.0406175  0.0304969 -4.00541e-05  0.0282556  0.0137865  0.0978142  
 0.0741895 -0.0272452 -0.0013164 -0.0135916 -0.000200043 -0.0379898  
 0.0688018 -0.0248499 -0.00221058 -0.00250659 0.00532578 -0.0266448  
 0.0730111 -0.0261536 -0.00149262 0.00322254  0.0109895 -0.0338516  
-0.0186753  0.0132801 -0.000107357 0.00754812 0.00446719  0.0777245  
-0.00722353 0.00546235 -0.000125536 0.00182625 -0.00139993  0.0662313  
-0.0157811   0.011022 -6.36385e-05 -0.00175749 -0.00619302  0.0737145  
 0.0739724 -0.0271751 -0.00123528 -0.0128744 0.000744723 -0.0382718  
 0.0687178 -0.0248399  -0.002026 -0.00125597 0.00767987 -0.0261095  
 0.0730635 -0.0261731 -0.00151944 0.00401279  0.0122503  -0.033649  
  -0.01171  0.0111061 -0.000124776  0.0139317  0.0147979  0.0687134  
-0.00940362 0.00713198 -0.000119766 0.00107292 -0.000751149  0.0680864  
-0.0169485  0.0125905 -9.30284e-05 0.00796377 0.00433599  0.0752579  
  0.016625 0.00763896 -0.00416861  0.0279879   0.022699 -0.00313165  
0.000385975  0.0145771 0.00204025 -0.00676234 -0.00271816   0.024208  
0.000609143  0.0146559 0.000856089 -0.00623848 -0.00568584  0.0223667  
 0.0155788 0.00718984  0.0066943  0.0271967  0.0234069  0.0199113  
 0.0518473 -0.0152689 -0.000431753 -0.0496334 -0.0374842 -0.0260061  
 0.0645253 -0.0229913 -0.000267992 -0.0430332 -0.0436091 -0.0398223  
-0.00880056  0.0129218 -6.44567e-05  0.0378014  0.0370825  0.0620093  
-0.0171391  0.0169597 -4.30895e-05   0.063406  0.0478438  0.0763618  
-0.00861616  0.0126496 -0.000110263  0.0467503  0.0431213  0.0630708  
-0.0173279  0.0167109 -6.527e-05  0.0702641   0.051717  0.0773376  
 0.0516131 -0.0152415 -0.000210704  -0.049375 -0.0374378 -0.0262191  
 0.0643468 -0.0230023 -0.000142174 -0.0427822  -0.043518 -0.0400058  
 0.0574153 -0.0176429 -0.000798876 -0.0388336 -0.0212174 -0.0288128  
 0.0604232 -0.0195382 -0.00137543 -0.0257889 -0.00864443 -0.0245476  
 0.0666745 -0.0223945 -0.00106548 -0.0260552 -0.0105081 -0.0333958  
 -0.012634    0.01435 -0.000126602  0.0257906  0.0265004  0.0671225  
-0.00859049 0.00970795 -0.0001635  0.0102211  0.0125777  0.0641673  
-0.0157018  0.0139921 -0.000119766  0.0170406  0.0156342  0.0733172  
 0.0569706 -0.0175156 -0.000561321 -0.0383719  -0.020884 -0.0294491  
 0.0598892 -0.0193772 -0.00114091 -0.0250276 -0.00773529 -0.0254494  
 0.0663257 -0.0222935 -0.00089318 -0.0254688 -0.00988508  -0.033868  
-0.00702926 0.00546428 -4.04952e-05 -0.00193739 -0.00738693   0.064951  
-0.00299339 0.00519509 7.38479e-05 -0.0027874 -0.00927191  0.0555547  
-0.00654091 0.00695405 8.66651e-05 -0.0054515  -0.012865  0.0600967  
 0.0358909 -0.00420936 -0.000475079 -0.0354193 -0.0202216 -0.0087091  
 0.0425959 -0.00873758 -0.000450778  -0.041792 -0.0278786 -0.0156963  
-0.00119123  0.0134635 9.42439e-06  0.0178333  0.0219413   0.042036  
-0.0081139  0.0132099 -0.000132084  0.0182035  0.0210473  0.0586666  
-0.00422437  0.0134647 -5.55734e-05  0.0270517  0.0296436   0.051478  
-0.00264164  0.0134884 -0.000112455  0.0201746  0.0242108  0.0467679  
-0.0048338  0.0135343 -0.000116593  0.0316168  0.0327758  0.0539985  
 0.0351932 -0.00402349 -2.12381e-05 -0.0351471 -0.0203094 -0.00964302  
 0.0421454 -0.00862593 -0.000176249 -0.0415287 -0.0278664 -0.0163065  
-0.00129322 0.00224932 -9.15218e-06 -0.000436888 -0.00302225  0.0601264  
-0.00138221 0.00370853 0.000492957 -0.00162242 -0.00409448  0.0555026  
-0.00709947  0.0108162 -0.000203762   0.011511  0.0141889  0.0592709  
 0.0492521 -0.0123916 -0.00138012 -0.0293334 -0.0113813  -0.019151  
  0.027142 0.000870963 0.000467211 -0.0288759 -0.0164456 -0.00318883  
 0.0376442 -0.00521687 -0.000677295 -0.0303068 -0.0153296 -0.0112553  
 0.0499935 -0.0126634 -0.000820514 -0.0300817 -0.0119587 -0.0154739  
 0.0282951 0.000600423 -0.00022038  -0.029086 -0.0159112 -0.00160064  
 0.0384553 -0.00552118 -0.000215917 -0.0307724 -0.0152964 -0.00775035  
-0.0054455  0.0108626 -0.000163524  0.0102837  0.0142061  0.0567652  
-0.000712996  0.0143718 -8.71329e-05  0.0162635   0.019398  0.0398158  
-0.0029937  0.0129187 -9.17484e-05  0.0139657  0.0172593   0.048168  
 0.0642401 -0.0222734 -0.00220597 -0.0148789 -0.000201095 -0.0258164  
 0.0592089 -0.0141195 -0.00483418 -0.00683731  0.0041409 -0.0177063  
  0.063752 -0.0196675 -0.0030107 -0.00391163 0.00662728 -0.0212814  
-0.00638336 0.00671815 -0.000180828 0.00391382 0.00416512  0.0649966  
-0.00121496 0.00304817 -9.81303e-05   0.001307 0.000120808  0.0604569  
-0.0040957 0.00441972 -0.000162977 0.00122393 -0.000405328  0.0628894  
 0.0647082 -0.0224736 -0.00179055 -0.0161786 -0.00207175 -0.0233798  
 0.0591882 -0.0142557 -0.0020535 -0.00838645 0.000769763 -0.0115167  
 0.0638369 -0.0197202 -0.00256877 -0.00538359 0.00331315 -0.0200255  
 0.0345745 -0.00138127 -0.000561794  0.0318194  0.0252886 0.00131181  
 0.0336106 -0.00108994  -0.000901  0.0316033   0.024335 -0.00270078  
-0.00171094  0.0116807 0.000374045 -0.0112413 -0.0176425  0.0377672  
  0.015869 0.00806268 0.00150611 -0.0234551 -0.0160386 0.00659876  
 0.0223887  0.0038239 -0.000331827 -0.0259606 -0.0153564 -0.00219697  
0.00279562  0.0155037 8.39633e-05   0.019256  0.0203293  0.0302861  
5.70021e-06  0.0153961 0.000221585  0.0124795  0.0134526  0.0363089  
0.00261475  0.0153103 0.000334241  0.0207689  0.0220198  0.0302319  
-0.000254822  0.0149981 2.38866e-07  0.0134453  0.0140771  0.0364053  
 0.0170982 0.00795769 -0.000105724 -0.0230776  -0.015196 0.00630183  
 0.0231997 0.00337681 0.00165095 -0.0260016  -0.013886 0.00565103  
-0.0031534 0.00319216 -2.65212e-05 0.000268996 -0.00268331  0.0616235  
-0.0062222  0.0054058 -0.000146014 0.000875176 -0.0021595  0.0648326  
-0.00138526 0.00371775 -0.000562381 0.000936392 -0.00136604   0.059455  
  0.012048 0.00955956 0.000647257 -0.0258146 -0.0210441  0.0111281  
0.00718934  0.0131877 0.00023001  0.0258087  0.0253335  0.0250934  
0.00751019  0.0132441 7.62853e-05  0.0249176   0.024548  0.0252478  
 0.0125856 0.00940536 0.000534377 -0.0252766 -0.0202264  0.0122274  
 0.0545452 -0.0156735 -0.00134761  -0.018553 -0.00234146 -0.0189982  
  0.056739 -0.0169404 -0.00173314 -0.0221829 -0.00583903 -0.0220461  
-0.00326655 0.00755311 -0.000354792 0.00429115 0.00606398  0.0574762  
-0.00587441 0.00883402 -0.000183595 0.00737314 0.00946267  0.0610413  
 0.0559095 -0.0159407 -0.00232459 -0.0198997 -0.00422447 -0.0156575  
 0.0573916 -0.0171526 -0.00138356 -0.0231739 -0.00699167  -0.019171  
 0.0538165 -0.0110153 -0.00737165 -0.0190501 -0.00655198 -0.0218342  
-0.00152743 0.00564023 0.000241617 0.00291265 0.00223853  0.0588917  
 0.0529624 -0.0113623 0.00181594 -0.0203449 -0.0082635 -0.00278753  
  -0.07116  -0.013422 -2.10361e-05 -0.00465021 -0.00913155 -0.0757438  
-0.0711699 -0.0134128 -2.08463e-05 -0.0046411 -0.00912032  -0.075737  
-0.0712622 -0.0134222 -1.19048e-05 -0.0047977 -0.00933082 -0.0756359  
-0.0712968  -0.013402 -1.07436e-05 -0.00481374 -0.00935191  -0.075619  
-0.0712766 -0.0134226 -8.05678e-06 -0.00469645 -0.00916813 -0.0755968  
-0.0712854 -0.0134198 -7.74767e-06 -0.00468937 -0.00916286  -0.075593  
-0.0711428 -0.0134208 -2.76309e-05 -0.00481791 -0.00929612  -0.075788  
-0.0711438 -0.0134179 -2.79267e-05 -0.00481589 -0.0092976 -0.0757857  
-0.0711869 -0.0134033 -2.35465e-05 -0.00484675 -0.00934002 -0.0757631  
-0.0711582 -0.0134576 -1.96834e-05 -0.00479119 -0.00928278 -0.0757286  
-0.0711276  -0.013473 -2.1093e-05 -0.00474869 -0.00923093   -0.07574  
-0.0711404 -0.0134899 -1.69494e-05 -0.00475372 -0.00924262 -0.0757072  
-0.0711409 -0.0134857 -1.68777e-05 -0.00472669 -0.00920944 -0.0757046  
-0.0711363 -0.0134993 -1.58495e-05 -0.00474296 -0.00922963 -0.0756982  
-0.0711488 -0.0134976 -1.46558e-05 -0.00474126 -0.00922972 -0.0756858  
-0.0711361 -0.0134984 -1.6042e-05 -0.0047453 -0.00923358 -0.0756998  
-0.0711567 -0.0134938 -1.41395e-05 -0.00474223 -0.00923124 -0.0756783  
-0.0711532 -0.0134866 -1.5299e-05 -0.00472375 -0.00920939 -0.0756907  
-0.0711355 -0.0134857 -1.76555e-05 -0.00472917 -0.00921386 -0.0757128  
-0.0712066 -0.0134697 -1.17294e-05 -0.00473473 -0.0092282  -0.075643  
-0.0711619 -0.0134822 -1.55537e-05 -0.00476501 -0.00925771 -0.0756912  
-0.0711633 -0.0134835 -1.43733e-05 -0.00472262 -0.00920795 -0.0756796  
 -0.071216 -0.0134646 -1.10819e-05 -0.00473649 -0.00922909 -0.0756341  
-0.0711851 -0.0134703 -1.4375e-05 -0.0047712 -0.0092737  -0.075674  
-0.0711439 -0.0134857 -1.71032e-05 -0.00475915 -0.00925053  -0.075708  
-0.0711664 -0.0134547 -1.69132e-05 -0.00468691 -0.00916514 -0.0757031  
-0.0711672 -0.0134485 -1.97762e-05 -0.00479713 -0.0092956 -0.0757263  
-0.0711439 -0.0134616 -1.92139e-05 -0.00469827 -0.00917969 -0.0757253  
-0.0711913 -0.0134612 -1.32567e-05 -0.00469722 -0.00917761 -0.0756676  
-0.0712887 -0.0134322 -8.04761e-06 -0.00473167 -0.00923475 -0.0755762  
-0.0712273  -0.013412 -1.28206e-05 -0.00464342 -0.00911653 -0.0756734  
 -0.071108 -0.0134329 -3.07536e-05 -0.00475351 -0.00922841 -0.0758019  
-0.0711281 -0.0134678 -2.1909e-05 -0.00475613 -0.00924141 -0.0757456  
-0.0711074 -0.0134309 -3.11567e-05 -0.00475268 -0.00923048 -0.0758039  
-0.0712238 -0.0134116 -1.72732e-05 -0.00482879 -0.00934665 -0.0757024  
-0.0712257 -0.0134226 -1.585e-05 -0.00482154 -0.00933568 -0.0756904  
-0.0711982 -0.0134647 -1.22712e-05 -0.00471046 -0.00919079 -0.0756538  
-0.0712875 -0.0134331 -7.67786e-06 -0.00473222 -0.00923374 -0.0755739  
-0.0712483 -0.0134124 -1.06669e-05 -0.0046504 -0.00912035 -0.0756451  
-0.0711288 -0.0134551 -2.27202e-05 -0.00470762 -0.00918674 -0.0757497  
-0.0711242 -0.0134552 -2.35202e-05 -0.00471374 -0.00919451 -0.0757575  
-0.0711849  -0.013399 -2.42108e-05 -0.00484636 -0.00934038 -0.0757628  
-0.0712169 -0.0134572 -1.26639e-05 -0.00477152 -0.00928001 -0.0756503  
-0.0711202 -0.0134281 -2.79375e-05 -0.00468514 -0.00916508  -0.075783  
-0.0711164  -0.013429 -2.82469e-05 -0.00468699 -0.00916982  -0.075789  
-0.0712289 -0.0134577 -1.10083e-05 -0.00475769 -0.00926513 -0.0756278  
-0.0712843 -0.0134296 -9.07932e-06 -0.00476373 -0.00929268 -0.0755906  
-0.0712291 -0.0133955 -1.38626e-05 -0.0046239 -0.0090943 -0.0756847  
-0.0712865 -0.0133994 -7.99105e-06 -0.00465236 -0.00911748 -0.0756143  
-0.0712958 -0.0134177 -9.40706e-06 -0.00477119 -0.00930659 -0.0755929  
-0.0712873 -0.0134283 -7.83761e-06 -0.00471065 -0.00919871 -0.0755824  
-0.0712354 -0.0134411 -1.06382e-05 -0.00469265 -0.00916979 -0.0756319  
-0.0711993 -0.0134672 -1.23103e-05 -0.0047164 -0.00920336 -0.0756534  
-0.0712466  -0.013451 -9.9497e-06 -0.00473327 -0.0092317  -0.075609  
-0.0712409 -0.0134476 -1.01692e-05 -0.00471291 -0.00920019 -0.0756188  
 -0.071346 -0.0133943 -5.46369e-06 -0.00468725 -0.00915411 -0.0755426  
-0.0713536 -0.0134068 -6.47202e-06 -0.00473399 -0.00924327  -0.075522  
-0.0713483 -0.0133996 -5.93503e-06 -0.00471227 -0.00919973 -0.0755303  
-0.0712814   -0.01343 -7.80991e-06 -0.00471578 -0.00920024 -0.0755836  
-0.0712359 -0.0134447 -1.01819e-05 -0.00470207 -0.00918028 -0.0756244  
-0.0712066 -0.0134656 -1.16491e-05 -0.00472309 -0.00921049 -0.0756436  
-0.0712536 -0.0134475 -9.29496e-06 -0.00473538 -0.00923209 -0.0756015  
-0.0712447 -0.0134465 -9.68683e-06 -0.00471783 -0.00920539 -0.0756124  
-0.0712226 -0.0134459 -1.32046e-05 -0.00478467 -0.00930155  -0.075656  
-0.0711768 -0.0134604 -1.6845e-05 -0.00478435 -0.00928521  -0.075699  
-0.0711937 -0.0134297 -1.86732e-05 -0.00481385 -0.0093203 -0.0757157  
 -0.071245 -0.0134171 -1.42749e-05 -0.00481376 -0.00933932 -0.0756673  
-0.0712091 -0.0134391 -1.56031e-05 -0.00479918 -0.00931059 -0.0756837  
-0.0713362 -0.0133752 -1.05114e-05 -0.00482419 -0.00938603 -0.0756088  
-0.0712587 -0.0134127 -1.34268e-05 -0.00481773 -0.00934376 -0.0756581  
-0.0712624 -0.0133828 -1.65481e-05 -0.00485316 -0.00937717 -0.0757001  
-0.0712965 -0.0133793 -1.3497e-05 -0.00483939 -0.00938135 -0.0756594  
-0.0711943 -0.0134169 -1.67915e-05 -0.00464499 -0.00912254 -0.0757092  
-0.0712635 -0.0133757 -1.13093e-05 -0.00460786 -0.0090791 -0.0756701  
-0.0711797 -0.0133858 -2.21442e-05 -0.0046048 -0.00909457 -0.0757568  
-0.0712221 -0.0133805 -1.65878e-05 -0.00460727 -0.00908573 -0.0757159  
-0.0713345 -0.0133975 -4.77739e-06 -0.00469146 -0.00915705 -0.0755428  
-0.0713539 -0.0134064 -5.23205e-06 -0.00473135 -0.00924366 -0.0755179  
-0.0713429 -0.0134016 -4.97043e-06 -0.00470918 -0.00920038 -0.0755289  
-0.0711248 -0.0133916 -3.52873e-05 -0.00483096 -0.00929435 -0.0758249  
-0.0711221 -0.0134248 -2.98969e-05 -0.00478502 -0.00926368  -0.075796  
-0.0710866  -0.013402 -3.97958e-05 -0.00474196 -0.00921547 -0.0758452  
-0.0711016 -0.0133985 -3.80537e-05 -0.00478459 -0.00925401 -0.0758344  
-0.0711403 -0.0134921 -1.65601e-05 -0.0047519 -0.00924156 -0.0757039  
-0.0711647 -0.0134772 -1.57292e-05 -0.00476625 -0.00926345 -0.0756906  
 -0.071171 -0.0134833 -1.4118e-05 -0.0047553 -0.00925015  -0.075675  
-0.0711466 -0.0134967 -1.50654e-05 -0.00474492 -0.00923415 -0.0756892  
-0.0711563 -0.0134875 -1.53216e-05 -0.00475398 -0.00924733 -0.0756895  
-0.0712633 -0.0134185 -9.20434e-06 -0.00467061 -0.00914429 -0.0756195  
 -0.071308 -0.0133811 -6.50554e-06 -0.0046366 -0.00909387  -0.075605  
-0.0713217  -0.013387 -5.4636e-06 -0.00466637 -0.00912709 -0.0755722  
-0.0711368 -0.0134922 -1.67981e-05 -0.00473802 -0.00922423 -0.0757064  
-0.0711419 -0.0134982 -1.53533e-05 -0.00474187 -0.0092296 -0.0756933  
-0.0711513 -0.0134932 -1.48452e-05 -0.00473342 -0.00922063 -0.0756874  
-0.0711447 -0.0134858 -1.64777e-05 -0.00472685 -0.00921142 -0.0757021  
-0.0711446 -0.0134923 -1.57634e-05 -0.00473528 -0.00922106 -0.0756967  
-0.0711457 -0.0134969 -1.502e-05 -0.00474124 -0.00922868 -0.0756892  
-0.0711428 -0.0134988 -1.5243e-05 -0.00474341 -0.0092314 -0.0756921  
-0.0711439 -0.0134983 -1.52046e-05 -0.00474338 -0.00923084 -0.0756922  
-0.0711606 -0.0134895 -1.41656e-05 -0.0047334 -0.00922107 -0.0756784  
-0.0711514 -0.0134847 -1.57147e-05 -0.00472528 -0.00920887 -0.0756935  
-0.0711398 -0.0134925 -1.63053e-05 -0.0047354 -0.00921988 -0.0757013  
-0.0711499  -0.013491 -1.52244e-05 -0.00473432 -0.00921935 -0.0756903  
-0.0711559  -0.013491 -1.49244e-05 -0.00475175 -0.0092427 -0.0756869  
-0.0711387 -0.0134946 -1.63874e-05 -0.00474804 -0.00923544 -0.0757028  
-0.0711517 -0.0134855 -1.62248e-05 -0.00475949 -0.00925104 -0.0756983  
-0.0711478 -0.0134924 -1.5645e-05 -0.00474993 -0.00924011 -0.0756947  
-0.0711341 -0.0134797 -1.89324e-05 -0.00473594 -0.00921837 -0.0757221  
-0.0711339 -0.0134812 -1.90854e-05 -0.00475183 -0.00923681 -0.0757243  
-0.0711375 -0.0134865 -1.76307e-05 -0.00474272 -0.00922726 -0.0757126  
-0.0711409 -0.0134655 -2.05414e-05 -0.00477032 -0.00925723 -0.0757348  
-0.0711596 -0.0134706 -1.7562e-05 -0.00477744 -0.00927037 -0.0757096  
-0.0711459 -0.0134754 -1.84317e-05 -0.00476577 -0.00925476 -0.0757171  
-0.0711877 -0.0134701 -1.41774e-05 -0.00476836 -0.00926945 -0.0756711  
-0.0711904 -0.0134392 -1.7976e-05 -0.00480745 -0.00930945 -0.0757109  
-0.0712227 -0.0134406 -1.40979e-05 -0.00479542 -0.00930771 -0.0756681  
-0.0711898 -0.0134556 -1.58794e-05 -0.00478691 -0.00928963  -0.075689  
-0.0711264 -0.0133926 -3.56934e-05 -0.00483715 -0.00929925 -0.0758295  
 -0.071122 -0.0134273 -2.95336e-05 -0.00478642 -0.00926221 -0.0757961  
-0.0710871 -0.0134033 -3.97172e-05 -0.00474868 -0.0092213 -0.0758444  
-0.0711027 -0.0133996 -3.81904e-05 -0.00479125 -0.00925995 -0.0758364  
-0.0711761 -0.0134833 -1.33143e-05 -0.00473788 -0.00922896 -0.0756654  
-0.0711723 -0.0134732 -1.43159e-05 -0.00470968 -0.00919259 -0.0756788  
-0.0711748 -0.0134796 -1.36307e-05 -0.00472492 -0.00921261 -0.0756699  
-0.0711839 -0.0134795 -1.27858e-05 -0.00473968 -0.00923042 -0.0756581  
-0.0711813 -0.0134734 -1.32819e-05 -0.00471584 -0.00919899 -0.0756657  
-0.0711828 -0.0134773 -1.29645e-05 -0.00472861 -0.0092165 -0.0756608  
-0.0711365 -0.0134769 -1.94658e-05 -0.00475877 -0.00924643 -0.0757266  
-0.0711455 -0.0134585 -2.09914e-05 -0.0047771 -0.00926876 -0.0757365  
 -0.071155 -0.0134685 -1.82674e-05 -0.00477281 -0.00926675 -0.0757133  
-0.0713143 -0.0133859 -9.81392e-06 -0.00481727 -0.00937395 -0.0756153  
-0.0712592 -0.0133767 -1.62384e-05 -0.00485754 -0.00938278 -0.0757036  
-0.0712887 -0.0133806 -1.26507e-05 -0.00483739 -0.0093784 -0.0756592  
-0.0711527 -0.0134414 -2.02645e-05 -0.00467431 -0.00915577 -0.0757354  
-0.0711676 -0.0134619 -1.60846e-05 -0.00469729 -0.00917772 -0.0756965  
-0.0712097 -0.0134378 -1.30637e-05 -0.00467204 -0.00914889 -0.0756696  
-0.0711821 -0.0134398 -1.64021e-05 -0.00467253 -0.00915077 -0.0757021  
-0.0711185 -0.0134532 -2.56994e-05 -0.0047511 -0.00922951 -0.0757702  
-0.0711507 -0.0134404 -2.3375e-05 -0.00480453 -0.00928977 -0.0757563  
-0.0711314 -0.0134475 -2.47822e-05 -0.00477763 -0.00925935  -0.075764  
-0.0711316 -0.0134771 -1.9732e-05 -0.00474093 -0.00922571  -0.075729  
-0.0711372 -0.0134841 -1.80878e-05 -0.00474738 -0.00923425 -0.0757163  
-0.0711405 -0.0134737 -1.8427e-05 -0.00471432 -0.00919737 -0.0757192  
-0.0711568 -0.0134731 -1.63525e-05 -0.0047113  -0.009194    -0.0757  
-0.0712863 -0.0134109 -7.82515e-06 -0.00467233 -0.00914251 -0.0756021  
-0.0712543 -0.0134062 -1.05881e-05 -0.00464752 -0.00911627 -0.0756469  
-0.0712449 -0.0134251 -1.06175e-05 -0.00467273 -0.00914503 -0.0756383  
-0.0711185 -0.0134493 -2.63869e-05 -0.00475541 -0.00923605 -0.0757744  
-0.0711555 -0.0134341 -2.35816e-05 -0.00480712 -0.00929653 -0.0757547  
-0.0711338 -0.0134424 -2.52222e-05 -0.00478118 -0.00926577 -0.0757652  
-0.0711273  -0.013465 -2.1917e-05 -0.00473052 -0.00921148 -0.0757446  
-0.0711247  -0.013441 -2.54308e-05 -0.0046963 -0.00917552 -0.0757669  
 -0.071112 -0.0134308 -2.96172e-05 -0.00472075 -0.00919853  -0.075793  
-0.0711199 -0.0134474 -2.57639e-05 -0.00472609 -0.00920519 -0.0757688  
-0.0712115 -0.0134649 -1.21014e-05 -0.00475156 -0.0092536 -0.0756452  
-0.0711813 -0.0134784 -1.36289e-05 -0.0047515 -0.00924836 -0.0756669  
-0.0712087 -0.0134142 -1.90673e-05 -0.00483368 -0.00933807 -0.0757234  
-0.0711959 -0.0133723 -2.71975e-05 -0.00487618 -0.00935808 -0.0757892  
-0.0712331 -0.0133778 -2.11363e-05 -0.00486353 -0.00936999 -0.0757424  
-0.0711632 -0.0134121 -2.56651e-05 -0.0048307 -0.00931686 -0.0757758  
-0.0711599 -0.0133828 -3.17447e-05 -0.00485383 -0.00932748 -0.0758095  
 -0.071148  -0.013455 -1.96779e-05 -0.00469616 -0.00917483 -0.0757256  
-0.0711533 -0.0134706 -1.69838e-05 -0.00470794 -0.00918862 -0.0757041  
-0.0711402 -0.0134682 -1.94653e-05 -0.00471766 -0.00919841  -0.075725  
-0.0711823 -0.0134604 -1.44501e-05 -0.00469749 -0.00917743 -0.0756784  
-0.0711675 -0.0134716 -1.5138e-05 -0.00471057 -0.00919279  -0.075686  
-0.0711695 -0.0134341 -1.87258e-05 -0.00466459 -0.00914346 -0.0757192  
-0.0712048 -0.0134337 -1.39941e-05 -0.00466864 -0.00914284 -0.0756755  
-0.0712401 -0.0134051 -1.20302e-05 -0.00463743 -0.00910904 -0.0756625  
 -0.071197 -0.0134046 -1.76663e-05 -0.00463201 -0.00910778 -0.0757135  
-0.0712017 -0.0134203 -1.55492e-05 -0.00465201 -0.00912667 -0.0756925  
-0.0712912 -0.0134282 -8.67774e-06 -0.00474946 -0.00926965 -0.0755824  
-0.0713461 -0.0133924 -8.25905e-06 -0.00478345 -0.00933416 -0.0755501  
-0.0713493 -0.0133983 -7.3183e-06 -0.00475743 -0.00928663  -0.075533  
-0.0712045 -0.0134647 -1.28671e-05 -0.00476544 -0.00927074 -0.0756536  
-0.0712227 -0.0134616 -1.09989e-05 -0.00474574  -0.009246 -0.0756304  
-0.0711938 -0.0134734 -1.27457e-05 -0.00475067 -0.00924959 -0.0756553  
-0.0711926 -0.0133706 -2.62926e-05 -0.00487295 -0.00935588 -0.0757843  
-0.0711625 -0.0134087 -2.61745e-05 -0.0048288 -0.00931733 -0.0757746  
-0.0711565 -0.0133816 -3.12359e-05 -0.00484854 -0.00932324 -0.0758051  
-0.0711779 -0.0134268 -2.14414e-05 -0.0048195 -0.00931319  -0.075741  
-0.0711139 -0.0133958 -3.36078e-05 -0.00465821 -0.00914445 -0.0758134  
-0.0711445 -0.0134203 -2.45137e-05 -0.00466364 -0.00914293 -0.0757602  
-0.0711828 -0.0133816 -2.1496e-05 -0.00460257 -0.00908988 -0.0757491  
-0.0711448 -0.0133899 -2.79163e-05 -0.00463463 -0.00911613 -0.0757835  
-0.0712204 -0.0134398 -1.1924e-05 -0.00468416 -0.00916107 -0.0756495  
-0.0711135 -0.0133954 -3.40736e-05 -0.0046534 -0.00914226 -0.0758198  
 -0.071139 -0.0134253 -2.46084e-05 -0.00466843 -0.00915068 -0.0757659  
-0.0711455 -0.0133911 -2.82034e-05 -0.00463192 -0.00911637 -0.0757896  
-0.0712861 -0.0134325 -8.36687e-06 -0.00474734 -0.00926235 -0.0755813  
-0.0713461  -0.013398 -6.81797e-06 -0.00477341 -0.00932475 -0.0755477  
-0.0713486 -0.0134016 -6.01863e-06 -0.00475147 -0.00928375 -0.0755311  
 -0.071273 -0.0134264 -1.04763e-05 -0.00478143 -0.00931184 -0.0756136  
-0.0713299 -0.0133914 -8.2012e-06 -0.00479593 -0.00934826 -0.0755808  
-0.0712632 -0.0133675 -1.09745e-05 -0.00459744 -0.00906602 -0.0756735  
-0.0712221 -0.0133742 -1.63995e-05 -0.00460241 -0.00907802 -0.0757147  
-0.0713316 -0.0133721 -5.84596e-06 -0.00463891 -0.00909172 -0.0755891  
-0.0713387 -0.0133822 -5.57734e-06  -0.004666 -0.00912634 -0.0755634  
-0.0712971 -0.0134098 -1.00265e-05 -0.00479251 -0.00932698 -0.0756045  
-0.0713395 -0.0133836 -9.30391e-06 -0.00480007 -0.00935764 -0.0755788  
-0.0712965 -0.0133727 -8.54983e-06 -0.00462343 -0.0090856 -0.0756335  
-0.0711251 -0.0134623 -2.27592e-05 -0.00473751 -0.00922102 -0.0757513  
-0.0711209  -0.013441 -2.61157e-05 -0.00470006 -0.00918135 -0.0757742  
-0.0711101 -0.0134301 -2.99534e-05 -0.00472109 -0.00920151 -0.0757969  
-0.0711177 -0.0134456 -2.64514e-05 -0.00472998 -0.00921107 -0.0757745  
-0.0710966 -0.0134001 -3.7427e-05 -0.00469772 -0.0091766 -0.0758328  
-0.0711352 -0.0134581 -2.12728e-05 -0.00470566 -0.00918677 -0.0757409  
-0.0711329 -0.0134684 -2.06005e-05 -0.0047252 -0.0092084 -0.0757357  
-0.0710964 -0.0134011 -3.72205e-05 -0.00470379 -0.00918144 -0.0758292  
-0.0712871  -0.013374 -8.40753e-06 -0.00461972 -0.0090819 -0.0756376  
-0.0712072 -0.0134057 -2.02335e-05 -0.00483762 -0.00934367 -0.0757297  
-0.0712298 -0.0133736 -2.06538e-05 -0.00486396 -0.00937161  -0.075742  
-0.0711473 -0.0134374 -2.19278e-05 -0.00468007 -0.00915826 -0.0757422  
-0.0711796 -0.0134196 -2.20431e-05 -0.00482221 -0.00931879 -0.0757432  
-0.0712533 -0.0134389 -1.11511e-05 -0.00477271 -0.00929295 -0.0756222  
-0.0712566 -0.0134261 -1.22196e-05 -0.00479376 -0.00931811 -0.0756389  
-0.0712503 -0.0134459 -1.04578e-05 -0.00475174 -0.00926168 -0.0756136  
-0.0711383 -0.0134405 -2.30125e-05 -0.00468664 -0.00916772 -0.0757537  
-0.0712584 -0.0134423 -9.94741e-06 -0.00476156 -0.00927938 -0.0756076  
-0.0712394 -0.0134443 -1.16598e-05 -0.00477453 -0.00929138 -0.0756339  
-0.0712557 -0.0134456 -9.6143e-06 -0.00474736 -0.00925456 -0.0756041  
 0.0209487 0.00168231 0.00013879  0.0584108  0.0587855  0.0206434  
 0.0204193 0.00156662 0.000253704  0.0577932  0.0579795  0.0201888  
 0.0203333 0.00179615 -0.000149356  0.0575901  0.0578648   0.020274  
 0.0199171 0.00208409 -7.46197e-05  0.0576298  0.0583416  0.0203924  
 0.0141391 0.00202665 3.21063e-05  -0.056583 -0.0556839  0.0138934  
 0.0137583  0.0020778 0.000113998 -0.0562716  -0.055276  0.0137946  
  0.013585 0.00232472 -0.000162447 -0.0561424 -0.0553108  0.0139708  
 0.0130571 0.00258326 -3.29306e-05 -0.0561231  -0.055821  0.0140905  
 0.0126931 0.00302347 -3.68809e-05 -0.0552538  -0.054824  0.0141111  
 0.0132294 0.00276278 -0.000168642 -0.0552677 -0.0542958  0.0139962  
 0.0133966 0.00251258 0.00011722 -0.0553947 -0.0542593  0.0138152  
 0.0137834 0.00245443 3.51576e-05 -0.0557087 -0.0546784  0.0139121  
  0.020211 0.00200263 -7.50281e-05  0.0573612  0.0583142  0.0198614  
 0.0206289 0.00171371 -0.000149814  0.0573229  0.0578348  0.0197422  
 0.0207132 0.00148471 0.000255968  0.0575262  0.0579513  0.0196568  
 0.0212469 0.00160126 0.00014022  0.0581476  0.0587643  0.0201136  
  0.064966 -0.0227215 0.000269465 -0.0417401 -0.0287518 -0.0383432  
 0.0641443 -0.0227888 0.000337696 -0.0405272 -0.0272289 -0.0389094  
 0.0640747 -0.0225949 3.61153e-06 -0.0400691 -0.0267754 -0.0388007  
 0.0636738 -0.0220642 -0.00011328 -0.0394267 -0.0271768 -0.0384693  
 -0.015427  0.0136472 0.000119296  0.0256362  0.0254577  0.0719782  
-0.0154698  0.0135834 4.9244e-05  0.0254496  0.0253185  0.0716206  
-0.0156195  0.0138012 -7.39803e-05   0.025495   0.025382  0.0717001  
-0.0157686  0.0139317 7.2222e-06  0.0255466  0.0253762  0.0717755  
-0.0192424  0.0158925 3.50727e-06  0.0396111  0.0338114  0.0756017  
-0.0190922  0.0157324 -6.14698e-05  0.0395801  0.0338212  0.0755365  
-0.0189296  0.0155121 5.25088e-05  0.0396026  0.0337784  0.0754713  
 -0.018858  0.0155936 8.41534e-05  0.0398068  0.0338935  0.0757871  
 0.0636674 -0.0220697 -0.000113258 -0.0394318 -0.0271617 -0.0384488  
 0.0640685 -0.0226009 3.66684e-06 -0.0400751 -0.0267603 -0.0387808  
 0.0641381 -0.0227951 0.000337981 -0.0405332 -0.0272137 -0.0388898  
 0.0649601 -0.0227279 0.000270005 -0.0417468 -0.0287374 -0.0383226  
 0.0701249 -0.0246816 -6.41993e-05  0.0278281  0.0289322 -0.0330186  
 0.0702414 -0.0252953 0.000127767  0.0285551  0.0289413 -0.0334256  
 0.0702198 -0.0254581 0.000440253  0.0289686  0.0294352  -0.033453  
 0.0709722 -0.0252983 0.000510005  0.0304205  0.0313306 -0.0324277  
-0.0202881   0.013976 6.47868e-05 -0.0183415 -0.0264067  0.0723908  
-0.0201295  0.0138472 -4.28262e-05 -0.0182069 -0.0264373  0.0724417  
-0.0199321  0.0136301 -2.63395e-05  -0.018055 -0.0262881  0.0723668  
-0.0198269  0.0135106 -2.19483e-05 -0.0178109 -0.0261015   0.072322  
-0.0264587  0.0176272 -1.10137e-05 -0.0359867 -0.0384251  0.0751105  
-0.0265592  0.0177477 -1.39223e-05 -0.0361864  -0.038557  0.0751782  
-0.0267461  0.0179733 -3.79819e-05 -0.0362731 -0.0386844  0.0752735  
-0.0269045  0.0181328 3.65834e-05 -0.0363392 -0.0386693   0.075231  
 0.0709678 -0.0252913 0.000509901  0.0304305  0.0313444 -0.0324275  
 0.0702148  -0.025451 0.000440338  0.0289779  0.0294486 -0.0334528  
 0.0702364  -0.025288 0.000127612  0.0285643  0.0289546 -0.0334254  
 0.0701196 -0.0246743 -6.42713e-05  0.0278374  0.0289459 -0.0330186  
 0.0135683  0.0123976 -0.00250127    -0.0148 -0.0148032 0.00802125  
 0.0129278  0.0120344 -0.000412943 -0.0143316 -0.0112203  0.0100715  
 0.0129812  0.0115926 4.29531e-05 -0.0143316 -0.0110905 0.00983064  
 0.0127259  0.0106663 0.00165464 -0.0145049 -0.0137557  0.0106839  
0.00375228  0.0158266 0.00071587  0.0144166  0.0165361  0.0262014  
0.00348847   0.016478 7.37342e-05  0.0150008  0.0158292    0.02573  
0.00369746  0.0167693 -0.000561675  0.0152843  0.0161906  0.0259716  
0.00315384  0.0167095 -0.000619563  0.0162447  0.0175439  0.0255879  
0.00305015  0.0168427 -0.000653078  0.0155727  0.0167446   0.025304  
0.00357088  0.0169205 -0.000567211  0.0145935  0.0153749  0.0257126  
0.00336021  0.0166368 5.44856e-05  0.0143043  0.0150076  0.0254759  
0.00360122  0.0159509 0.000736056   0.013662  0.0156798  0.0258989  
 0.0127618   0.010643 0.00160842 -0.0148763 -0.0140696  0.0107087  
 0.0129804  0.0115583 4.54617e-05 -0.0146781 -0.0114041 0.00985951  
 0.0129285  0.0119991 -0.000411856 -0.0146765 -0.0115343  0.0101051  
 0.0135123  0.0123585 -0.00243189 -0.0151743 -0.0151281 0.00809234  
  0.037842 -0.00777333 0.00390997   0.019319  0.0190338 -0.00319765  
 0.0396818  -0.007448 0.000528141  0.0194898  0.0167559 -0.00604014  
 0.0397295 -0.00694079 -0.000123987   0.019324  0.0166695 -0.00598763  
  0.041047 -0.00580273 -0.00293947  0.0180354  0.0182056 -0.00669621  
-0.0033733 0.00807677 -0.000323755 -0.00318774 -0.0121442   0.050501  
-0.00342697 0.00800955 -0.000125653 -0.00349186 -0.0124029  0.0504971  
-0.00360184 0.00812808 -0.000111197 -0.00386624  -0.012743  0.0505472  
-0.00391846 0.00803966 0.00037279 -0.00417195 -0.0125547  0.0504985  
-0.00303262  0.0110006 0.000414098 -0.00529534 -0.0128816  0.0431437  
-0.00257505  0.0111376 -0.00019196 -0.00486462 -0.0128689  0.0432643  
-0.00240866  0.0110104 -0.000169114 -0.00442353  -0.012447  0.0432024  
-0.00234953  0.0110706 -0.000434249 -0.00400885 -0.0122545   0.043159  
 0.0410489 -0.00580373 -0.00293886  0.0180371  0.0182045 -0.0066988  
  0.039732 -0.00694224 -0.000124102  0.0193244  0.0166695 -0.00598931  
 0.0396839 -0.00744927 0.000528302  0.0194901  0.0167559 -0.00604189  
 0.0378449 -0.00777442 0.00390867  0.0193189  0.0190317 -0.00320142  
-0.000199107 0.00984861 -1.2787e-05  0.0509322  0.0509263  0.0486088  
0.000101809 0.00964142 -0.000118039  0.0508314   0.050747  0.0484704  
0.000250988 0.00941658 0.000133985  0.0508767  0.0507304  0.0483843  
0.000487975  0.0095441 8.85167e-05  0.0511656  0.0510317   0.048793  
-0.00790882  0.0116621 -5.65487e-06  0.0147371  0.0205356  0.0585527  
-0.00772636  0.0116019 -0.000136316  0.0146065  0.0204911  0.0583958  
-0.00762081  0.0114082 3.56478e-05  0.0144167  0.0203217  0.0582853  
-0.00763981  0.0113995 0.000253406   0.014496  0.0204989  0.0588342  
-0.00954856 0.00719259 3.33248e-05  0.0045808 0.00496203  0.0678775  
-0.00947134 0.00714231 -6.10809e-05 0.00462078 0.00491123   0.067798  
-0.00934758 0.00697459 3.66834e-07 0.00455388 0.00486071  0.0677389  
-0.00934548 0.00691957 0.000182794 0.00472663  0.0051433  0.0680912  
 0.0130425  0.0102893 -0.000414788  0.0353019  0.0348527  0.0185453  
 0.0136453 0.00998114 -0.000368167  0.0348911  0.0335987  0.0187109  
 0.0135144 0.00961813 0.000357934  0.0349235  0.0335173  0.0184545  
 0.0141185 0.00943197 0.000495082  0.0352261  0.0347955  0.0189881  
 0.0364289 -0.00822898 -0.000123661 -0.0542628 -0.0461225 -0.0139691  
 0.0370499 -0.00866081 -0.000144952 -0.0545865 -0.0453676 -0.0141625  
 0.0371496 -0.00892868 0.000272557 -0.0549292 -0.0455587  -0.014341  
 0.0378308 -0.00892488 0.00016036 -0.0558275 -0.0466232 -0.0139816  
 0.0505152 -0.0146293 -0.000785854 -0.0316241 -0.0155116  -0.020922  
 0.0508545 -0.0155787 -8.75026e-06 -0.0323611 -0.0140755 -0.0213373  
 0.0508408 -0.0159526 0.000496762 -0.0327035 -0.0143542 -0.0216077  
 0.0512718 -0.0159319 0.00112363 -0.0339491 -0.0167868 -0.0202633  
 0.0671288 -0.0271444 -0.000108808 -0.0127957 -2.59123e-05 -0.0278523  
 0.0672196  -0.028067 0.000282366 -0.0139811 -2.32321e-05 -0.0291833  
 0.0672626 -0.0282505 0.000469379  -0.014277 -0.000367658 -0.0293233  
 0.0673013 -0.0278129   0.001045 -0.0155637 -0.00223416 -0.0276313  
0.00762107  0.0112083 -0.000238205 -0.0289767  -0.030933  0.0165064  
0.00839696  0.0109469 -0.00037647 -0.0285625 -0.0297206  0.0166838  
0.00841032  0.0106221  0.0001259 -0.0285248 -0.0295485   0.016423  
0.00891428  0.0102739 0.000133424  -0.028695 -0.0302105  0.0164173  
 0.0379407 -0.00900659 0.000157025 -0.0559073 -0.0468342 -0.0140698  
 0.0372614 -0.00901275 0.000270707 -0.0550111 -0.0457765 -0.0144274  
   0.03716 -0.00874675 -0.000143744 -0.0546688  -0.045585 -0.0142508  
 0.0365409 -0.0083176 -0.000120483 -0.0543454 -0.0463325 -0.0140567  
 0.0512826 -0.0159391 0.00112179 -0.0339678 -0.0167961 -0.0202791  
 0.0508507 -0.0159601 0.000496739 -0.0327232 -0.0143656 -0.0216209  
 0.0508645 -0.0155865 -8.71899e-06 -0.0323807 -0.0140866 -0.0213509  
 0.0505249 -0.0146372 -0.000785112 -0.0316448 -0.0155214 -0.0209368  
 0.0673022 -0.0278126 0.00104469  -0.015567 -0.00223582  -0.027634  
 0.0672633   -0.02825 0.00046932 -0.0142805 -0.000369347 -0.0293252  
 0.0672203 -0.0280665 0.000282341 -0.0139847 -2.48087e-05 -0.0291854  
 0.0671296 -0.0271439 -0.00010901 -0.0127996 -2.75858e-05 -0.0278549  
0.00896225  0.0100905 0.000117655 -0.0295915 -0.0313298  0.0165132  
0.00846528  0.0104185 0.000124692 -0.0294188 -0.0307048  0.0165165  
0.00844139  0.0107387 -0.000365058 -0.0294533  -0.030873  0.0167735  
0.00767422  0.0109967 -0.000210527 -0.0298424 -0.0320199   0.016623  
-0.0340605   0.021519 3.36022e-05 -0.000813274 -0.00665027  0.0900468  
-0.0341134  0.0215545 4.73951e-06 -0.00103371 -0.00679174  0.0899715  
 -0.034252   0.021759 -2.09332e-05 -0.00111285 -0.00684242  0.0900285  
-0.0343154  0.0218856 2.09431e-05 -0.00116768 -0.00684949  0.0899736  
-0.00039006  0.0104276 0.000101467  0.0490027  0.0490657  0.0488317  
-0.000620347  0.0103146 0.00013594  0.0487473  0.0487733  0.0484188  
-0.000758528  0.0105432 -0.000130933  0.0487226  0.0488058  0.0485147  
-0.00106817  0.0107427 -2.01107e-05  0.0488469   0.049001  0.0486448  
 0.0141069 0.00938828 0.000477701  0.0355452   0.035294  0.0191009  
 0.0135032 0.00956587 0.000355039  0.0352401   0.034046  0.0185726  
 0.0136286 0.00992478 -0.000363571  0.0352065  0.0341243  0.0188254  
 0.0130266  0.0102305 -0.000396716  0.0356077  0.0353451   0.018674  
-0.0062439 0.00918773 -2.13884e-05 -0.0522037 -0.0547952  0.0448055  
-0.00643122 0.00929875 9.61564e-06 -0.0522764 -0.0547965  0.0448546  
-0.00665583 0.00953528 -9.55804e-05 -0.0523235 -0.0549409  0.0449953  
-0.00699771 0.00972991 3.35644e-05 -0.0524007 -0.0550852  0.0450516  
 0.0446686 -0.00976642 -0.000148707  0.0531566  0.0540267 -0.0095692  
 0.0450842 -0.0102046 -9.53535e-05  0.0533564  0.0534165 -0.00966404  
 0.0451073 -0.0104348 0.000377693  0.0537321  0.0537395 -0.00972542  
 0.0459605 -0.0103727 0.00028977  0.0549067  0.0552848 -0.00912394  
 0.0459626 -0.0103815 0.000287946  0.0549576  0.0553991 -0.00908778  
 0.0451098  -0.010444 0.00037671  0.0537836  0.0538567 -0.00968799  
 0.0450858 -0.0102143 -9.53742e-05  0.0534079  0.0535336 -0.00962729  
 0.0446701 -0.0097771 -0.00014782  0.0532087  0.0541424 -0.00953261  
-0.0075948  0.0108038 3.96735e-05 -0.0474772 -0.0513007  0.0448863  
-0.00723632  0.0106169 -0.000108277 -0.0473674 -0.0511401  0.0448417  
-0.00701797  0.0103817 4.99126e-06 -0.0472893 -0.0509784  0.0446992  
-0.00682712  0.0102578 -2.80763e-05 -0.0472011 -0.0509737  0.0446373  
-0.0117291 0.00717406 2.67834e-05 -0.00278408 -0.00754571  0.0700319  
-0.0117974 0.00724676 -2.09218e-05 -0.00302455 -0.00783096  0.0699282  
-0.0119609 0.00742768 -3.73318e-05 -0.00311854 -0.0079221  0.0699792  
-0.0120569 0.00749578 8.52016e-05 -0.00325798 -0.00783892  0.0699637  
  0.017041 0.00813859 0.00293376  0.0163966  0.0173528  0.0101603  
 0.0181778 0.00896056 0.000209745  0.0169275  0.0147084 0.00877039  
 0.0182222 0.00946747 -0.000403024  0.0169843  0.0148208 0.00900145  
 0.0193575 0.00997881 -0.00302486   0.017047  0.0177415 0.00703296  
0.000828384  0.0153185 -0.000338761 -0.00644377 -0.0117879  0.0275439  
0.000610588  0.0155902 -0.000154272 -0.00694422 -0.0116526  0.0279212  
0.000586173  0.0157987 -0.000442559 -0.00733384 -0.0121011  0.0280534  
-0.000157578  0.0156732 4.80919e-05 -0.00818691 -0.0130414  0.0275193  
0.000247183  0.0160748 -2.30002e-05 -0.00770198 -0.0118415  0.0261795  
0.000989506  0.0162337 -0.000472919 -0.00677921 -0.0107331  0.0268335  
0.000987038  0.0160225 -0.00016355 -0.00640713  -0.010297  0.0266988  
0.00122311  0.0157172 -0.000345277 -0.0058533 -0.0104802  0.0262689  
 0.0193572 0.00998269 -0.00302997  0.0170299  0.0177271 0.00703011  
 0.0182133 0.00947266 -0.000403581  0.0169692  0.0148151 0.00900315  
 0.0181688 0.00896556 0.000210003   0.016912  0.0147025 0.00877303  
 0.0170234 0.00814396 0.00293836  0.0163746  0.0173361  0.0101622  
-0.0040323 0.00583075 0.000309686 -0.00365379 -0.0110964  0.0559654  
-0.00381278 0.00591067 -8.05382e-05 -0.00339909 -0.0113408  0.0560212  
-0.00365938 0.00578712 -8.75023e-05 -0.00312377  -0.011104  0.0559698  
-0.00357746 0.00584879 -0.000255378 -0.00289024 -0.0108481  0.0559765  
 0.0579614 -0.0202024 -0.00141375  0.0142058  0.0164921 -0.0175668  
 0.0572045 -0.0213308 0.00020036  0.0152987  0.0155527 -0.0179237  
 0.0572202 -0.0216392 0.000546547  0.0154932  0.0157119 -0.0178533  
 0.0555703  -0.021444 0.00317817  0.0157211  0.0177095 -0.0144413  
 0.0555672 -0.0214411 0.00317836  0.0157233  0.0177101 -0.0144388  
 0.0572172 -0.0216365 0.000546531  0.0154946  0.0157113 -0.0178519  
 0.0572014 -0.0213279 0.000200357  0.0153001  0.0155521 -0.0179222  
 0.0579582 -0.0201995 -0.00141389  0.0142067  0.0164922 -0.0175652  
-0.00718267 0.00698486 0.000239387 0.00323128 0.00643594    0.06526  
-0.00716054 0.00706148 -3.29443e-06 0.00309878 0.00613435  0.0648326  
-0.00726313 0.00721325 -7.81698e-05 0.00321534  0.0062237  0.0648962  
-0.0073429 0.00723486 2.79803e-05 0.00321055 0.00630353  0.0650092  
-0.00953926 0.00961634 -9.13878e-05 -0.0132258 -0.0242623  0.0576414  
-0.00966277 0.00975847 -5.91066e-05   -0.01349 -0.0244792   0.057753  
-0.00987438 0.00995276 -8.34283e-05 -0.0137371 -0.0247206  0.0578333  
-0.0101247  0.0100475 0.000127552 -0.0139836 -0.0246958   0.057783  
 0.0799376 -0.0291876 0.000114397 -0.00770467 0.00251986 -0.0479558  
   0.07978 -0.0296097 0.000211746 -0.00872968 0.00186009 -0.0486257  
 0.0798119  -0.029669 0.000297057 -0.00921029  0.0012464 -0.0486885  
 0.0803508 -0.0294094 0.000236225 -0.0102734 -6.6609e-06 -0.0480963  
 -0.030844  0.0197695 1.75149e-05  0.0109244 0.00301787  0.0881305  
-0.0307782  0.0196452 -2.68679e-05  0.0109699 0.00303206  0.0881599  
-0.0306399   0.019439 1.49115e-05  0.0110336 0.00305076  0.0881063  
 -0.030597  0.0194397 5.49711e-05  0.0112552  0.0031929  0.0882603  
 0.0803525 -0.0294089 0.000236141 -0.0102767 -9.65073e-06 -0.0481005  
 0.0798137 -0.0296683 0.000296991 -0.00921377 0.00124325 -0.0486922  
 0.0797817  -0.029609 0.000211671 -0.00873317 0.00185697 -0.0486296  
 0.0799394  -0.029187 0.00011424 -0.00770857 0.00251644   -0.04796  
 0.0657853 -0.0277423 0.00134778 0.00812531  0.0121412 -0.0221536  
 0.0662535 -0.0283766 0.00048259 0.00696097  0.0106215 -0.0245879  
 0.0662571 -0.0282665 0.000353909 0.00668138  0.0103414 -0.0245746  
 0.0661142 -0.0272989 0.000215681 0.00543303 0.00993407 -0.0228553  
  0.066115    -0.0273 0.000215858 0.00543025 0.00993289 -0.0228558  
 0.0662579 -0.0282674 0.000353921 0.00667847  0.0103405  -0.024575  
 0.0662543 -0.0283775 0.000482511   0.006958  0.0106206 -0.0245884  
 0.0657862 -0.0277432 0.00134744 0.00812205  0.0121399 -0.0221547  
-0.00593305 0.00478107 0.000147713 -0.000840314 -0.00663545  0.0636888  
-0.00582478 0.00477767 -4.81798e-05 -0.000640085 -0.00680599  0.0636906  
-0.00567948 0.00463505 -4.13129e-05 -0.00050591 -0.00668875  0.0636506  
-0.00561468 0.00457113 -3.76685e-07 -0.000272064 -0.00632632  0.0637824  
-0.00155438  0.0116137 -6.85783e-05 -0.0226308 -0.0313233  0.0357052  
-0.00179724  0.0118347 -2.31586e-05 -0.0227357  -0.031278  0.0358282  
-0.00196966  0.0120718 -0.000220736 -0.0229606 -0.0315629   0.035985  
-0.00250294  0.0122239 5.94956e-05 -0.0233062 -0.0319425  0.0359665  
 0.0309635 -0.000727759 0.00102526  0.0376851  0.0342596 0.00242236  
 0.0302832 -0.000510443 0.000513083  0.0368167  0.0317894 0.00140054  
 0.0304578 -9.78051e-05 -0.000257566   0.036648  0.0317307 0.00166944  
 0.0299358 0.000550537 -0.000750293  0.0366929  0.0334946 0.00148167  
 0.0299376 0.000551688 -0.000757938  0.0365954   0.033387 0.00147532  
  0.030456 -9.78232e-05 -0.000257589  0.0365492  0.0316148 0.00166711  
 0.0302815 -0.000511284 0.000513013  0.0367172  0.0316727 0.00139755  
 0.0309564 -0.000730382 0.00103424  0.0375829  0.0341506 0.00242351  
-0.00174843  0.0126579 5.26867e-05 -0.0201042 -0.0283292  0.0342305  
-0.00116589  0.0125224 -0.00025588 -0.0196833 -0.0278513  0.0343042  
-0.00101295  0.0122834 -3.27829e-05 -0.0194308 -0.0275363  0.0341437  
-0.000756065  0.0120313 -8.20205e-05 -0.0193064 -0.0276131  0.0339866  
 0.0332293 -0.00472755 0.00333838 -0.0170127 -0.00949555 -0.00403961  
 0.0345476 -0.00410045 0.000389653 -0.0174323 -0.00691579 -0.00626003  
 0.0344996 -0.00356704 -0.000164435 -0.0172774 -0.0068848 -0.00611469  
 0.0359874 -0.00260962 -0.00340087 -0.0168624 -0.00966059 -0.00762247  
-0.00249769  0.0132662 -0.000209169  0.0083742  0.0120017  0.0431106  
-0.00220652  0.0132983 -0.000312432 0.00798088  0.0117464  0.0428526  
-0.00223724  0.0131427 -3.52771e-05 0.00758221  0.0113691  0.0427213  
-0.00238542  0.0126629 0.000730982 0.00713329   0.011589  0.0432841  
-0.0028696  0.0117192 0.000499518  0.0107567  0.0167371  0.0475432  
-0.00282607  0.0119424 1.68986e-05  0.0108985  0.0164228  0.0467812  
-0.00285135  0.0121256 -0.000246728  0.0112128  0.0167149  0.0469226  
-0.0031306  0.0121436 -0.00010323  0.0115206  0.0169106  0.0471727  
 0.0360002 -0.00260515 -0.00341207 -0.0167975 -0.00961214 -0.00761072  
 0.0345026 -0.00356507 -0.000164346 -0.0172189 -0.00684042 -0.00610829  
 0.0345513 -0.0040986 0.000389251 -0.0173735 -0.00687176 -0.00625274  
 0.0332213 -0.00472728 0.00335143 -0.0169514 -0.00945334 -0.00402437  
0.00577256  0.0163143 0.00163745 0.00902338  0.0105592  0.0176832  
0.00628889  0.0174814 -0.000133608  0.0102456   0.009263  0.0177806  
0.00635614  0.0178157 -0.000571879  0.0104763 0.00951376  0.0179561  
 0.0072284  0.0175882 -0.00235996  0.0114589   0.011937  0.0157143  
0.00488226   0.016656 0.000516577 -0.00402092 -0.00658403  0.0167486  
0.00497403  0.0175722 -0.000243389 -0.00479256 -0.00523663  0.0173981  
0.00493364  0.0178617 -0.000514843 -0.00499707 -0.00549849  0.0175443  
0.00556092  0.0175575 -0.00189059 -0.00610157 -0.00833172  0.0150321  
0.00564187  0.0176105 -0.00197231 -0.00589538 -0.00814514  0.0148885  
0.00492846  0.0179212 -0.000514891 -0.00482927 -0.00533271  0.0174699  
0.00497219  0.0176312 -0.000246843 -0.00462555 -0.00507596  0.0173319  
0.00484468  0.0167055 0.000548913 -0.00383536 -0.00643004  0.0166742  
0.00721142  0.0176225 -0.00237945  0.0113814  0.0118724  0.0157032  
0.00631462  0.0178539 -0.000572768  0.0104109 0.00947393  0.0179625  
0.00624815  0.0175206 -0.000135978  0.0101794  0.0092241  0.0177913  
 0.0057172  0.0163512 0.00164231 0.00894847  0.0104963   0.017689  
-0.00327846 0.00345856 -5.79336e-05 -0.00114699 -0.00618319  0.0602853  
-0.00333215 0.00349074 -6.40158e-05 -0.00132756 -0.00655157  0.0601264  
-0.00345371 0.00359099 -4.90905e-05 -0.00150254 -0.00670028  0.0601553  
-0.00357719 0.00355668 0.000219063 -0.00170179 -0.0064408  0.0601939  
  0.020754 0.00563321 -0.000957461 -0.0301693 -0.0238638 0.00179474  
 0.0214543 0.00502953 -0.000371853 -0.0298765 -0.0214682  0.0020919  
 0.0213516 0.00459276 0.000320954 -0.0300295 -0.0214782 0.00172435  
 0.0219979 0.00414547 0.000764357 -0.0307315 -0.0235391 0.00228774  
0.00205271  0.0139503 0.000323599  0.0241828  0.0281359   0.035263  
0.00181007   0.014039 0.00017089  0.0241919  0.0276833   0.034667  
0.00183396  0.0143265 -0.000335871  0.0243761  0.0279126  0.0348875  
0.00133621  0.0144388 -0.000159887  0.0248228  0.0285488  0.0349293  
0.00159419  0.0146749 -0.000194894  0.0230117  0.0271264  0.0338241  
0.00209103  0.0145868 -0.00036028  0.0225147  0.0264402  0.0338078  
0.00205186  0.0142991 0.000159863  0.0223031  0.0261846  0.0335819  
0.00227846  0.0141619 0.00036673  0.0222322  0.0266518  0.0341913  
  0.022012 0.00414527 0.000760419 -0.0307855  -0.023592 0.00226958  
 0.0213656 0.00458995 0.000321083 -0.0300826 -0.0215382 0.00170595  
 0.0214677 0.00502624 -0.000371277 -0.0299295 -0.0215276 0.00207315  
 0.0207672 0.00562957 -0.000953494 -0.0302214 -0.0239125 0.00178122  
  0.059605 -0.0242597 0.00226499  -0.010337 0.000844366 -0.0186635  
 0.0605743 -0.0246632 0.000542201 -0.00986249 0.00214393 -0.0212787  
 0.0605664 -0.0243914 0.000235892 -0.0095633 0.00235895 -0.0211653  
 0.0608009 -0.0232143 -0.00073383 -0.00829085 0.00230365 -0.0193135  
-0.00366101 0.00498293 7.28487e-06 0.00152219 0.00306961  0.0601217  
-0.00360288 0.00498836 -9.15146e-05 0.00155487 0.00288293  0.0599621  
-0.00354263 0.00487666 -1.71048e-05 0.00140358 0.00275233  0.0599125  
-0.0036109 0.00467852 0.000379456 0.00140677 0.00312906  0.0602319  
 0.0608003  -0.023214 -0.000733572 -0.00828785 0.00230468 -0.0193114  
 0.0605657 -0.0243909 0.000235866 -0.0095602 0.00235983 -0.0211637  
 0.0605736 -0.0246628 0.000542241 -0.00985948 0.00214495 -0.0212773  
 0.0596041 -0.0242592 0.00226524 -0.0103337 0.000845979 -0.0186616  
0.00735564  0.0128355 0.000231217 -0.0176571 -0.0192183  0.0175914  
 0.0068344  0.0134382 7.27083e-05 -0.0176968 -0.0184049  0.0177797  
0.00695685  0.0137793 -0.000525943 -0.0178126 -0.0186412  0.0180282  
0.00614021  0.0139601 -0.000540763 -0.0186211 -0.0204167   0.017419  
 0.0105574   0.013174 -0.000845359   0.023617   0.023974  0.0173845  
 0.0111526  0.0129854 -0.000528805  0.0227946  0.0219329  0.0180429  
 0.0108881  0.0125761 0.000295212  0.0227044  0.0217119  0.0177274  
 0.0114631  0.0120624 0.000826072  0.0225953  0.0233329  0.0182184  
 0.0115977  0.0119677 0.000796782  0.0231615   0.023825  0.0182835  
 0.0110005  0.0124648  0.0003033  0.0232435   0.022219  0.0177909  
 0.0112671  0.0128727 -0.000524807  0.0233289  0.0224358  0.0181052  
 0.0106479  0.0130677 -0.000805718  0.0241394  0.0244396  0.0174782  
 0.0062297  0.0140781 -0.000596816 -0.0177951 -0.0195387  0.0171764  
0.00702754  0.0139037 -0.00053332 -0.0169526 -0.0176662  0.0178444  
0.00690116  0.0135598 6.61132e-05 -0.0168359  -0.017429  0.0175919  
0.00742114  0.0129298 0.000254656 -0.0167862 -0.0183006  0.0173877  
-0.00483967 0.00947868 0.00020359 -0.00976599  -0.019315  0.0495204  
-0.00449582 0.00943938 -0.000131581 -0.0094067 -0.0193039  0.0496119  
-0.00429944 0.00926747 -9.30955e-05 -0.00908017 -0.0189788  0.0495342  
-0.00417557 0.00914203 -0.000181227 -0.00880178  -0.018766  0.0493793  
 0.0483446 -0.0138337 0.00192081  0.0293916  0.0265987 -0.0100579  
 0.0483476 -0.0137953 0.000540001  0.0282521  0.0234943 -0.0120488  
 0.0483734 -0.0133997 1.81534e-05  0.0280339  0.0233291 -0.0118291  
 0.0482481   -0.01236 -0.00105203  0.0274305  0.0249843  -0.011571  
 0.0482467 -0.0123618 -0.00105314  0.0274131  0.0249724 -0.0115659  
 0.0483708 -0.0134019 1.83256e-05  0.0280163  0.0233176  -0.011824  
 0.0483453 -0.0137974 0.000539872  0.0282343  0.0234827 -0.0120437  
   0.04834 -0.0138358 0.00192269  0.0293718  0.0265855 -0.0100527  
 0.0470405 -0.0153545  0.0032342 -0.0166983 -0.00518223  -0.012114  
 0.0486179 -0.0153084 0.000504682 -0.0165132 -0.00298892 -0.0150973  
 0.0486013 -0.0148894 6.96774e-05 -0.0162405 -0.00282585 -0.0150063  
 0.0498805  -0.013681 -0.00243773 -0.0149173 -0.00402441 -0.0147578  
-0.0033749 0.00877757 -9.56241e-05 0.00432649 0.00840416  0.0526648  
-0.00323878 0.00876827 -0.00017288 0.00423314 0.00826262  0.0524176  
-0.00321132  0.0086471 -3.09484e-05 0.00393193 0.00800113  0.0523423  
-0.0033547 0.00827297 0.00061724 0.00377584  0.0083158  0.0528234  
 0.0498784 -0.0136801 -0.00243805 -0.0149026 -0.00401658 -0.0147499  
 0.0485986 -0.0148878 6.94548e-05 -0.0162268 -0.0028194 -0.0150002  
 0.0486151  -0.015307 0.000504821 -0.0164996 -0.00298214 -0.0150914  
 0.0470364 -0.0153531  0.0032359 -0.0166827 -0.0051727 -0.0121077  
-0.00364497 0.00798612 0.000597521 0.00450444 0.00886377  0.0545593  
-0.0035229 0.00836559 -2.76275e-05 0.00460336 0.00850623   0.054091  
-0.00356478 0.00849133 -0.000158718 0.00487059 0.00873661  0.0541616  
-0.00368996 0.00851909 -9.37868e-05 0.00493428 0.00884045  0.0543953  
-0.00354642  0.0036166 0.000357844 0.00132456 0.00201487  0.0620857  
-0.00351744  0.0038405 -1.7157e-05 0.00130821 0.00160685  0.0617809  
-0.00358206 0.00394166 -7.06208e-05  0.0013978 0.00167759  0.0618171  
-0.00362607 0.00395211 1.47478e-05 0.00133939 0.00185339  0.0619877  
0.000606342  0.0145906 0.000236152 -0.00765042 -0.0118986  0.0274152  
-0.00172758  0.0115753 6.56781e-05  -0.023004 -0.0312419  0.0358862  
-0.00958814 0.00955468 7.30518e-07 -0.0133706 -0.0242968  0.0576942  
-0.00324874 0.00756005 -0.000120519 -0.00349703 -0.0122566  0.0500677  
0.000171969  0.0134801 -0.000149638 -0.0137754 -0.0206912  0.0312476  
-0.00129856  0.0120815 -0.000369825 -0.00524382 -0.0123436  0.0385234  
-0.0053839  0.0105961 -8.40431e-05 -0.0185633 -0.0285217  0.0470485  
-0.00596095 0.00889628 -0.000180086 -0.0075582 -0.0176869  0.0539813  
-2.36811e-05  0.0131963 0.000139379 -0.0145003 -0.0207136  0.0313735  
-0.00134524  0.0114406 3.17118e-05 -0.00603529 -0.0124773  0.0381983  
-0.00549573  0.0105441 3.3773e-05  -0.018818 -0.0284977  0.0471682  
-0.00593589 0.00868186 -6.59901e-05 -0.00777457 -0.0177824  0.0538868  
-0.00272529  0.0114101 -0.000191919  -0.011032 -0.0194461  0.0422741  
-0.00281072  0.0111423 2.22661e-05 -0.0115277 -0.0195291  0.0422708  
0.000714207  0.0154343 -0.000170749 -0.00672086 -0.0116804  0.0277807  
-0.00168612  0.0117366 -3.20055e-05 -0.0226457 -0.0313178  0.0357616  
-0.00960349  0.0096948 -6.62908e-05 -0.0133585  -0.024373  0.0577213  
-0.00339941 0.00795898 -0.000130534 -0.00336499 -0.0122545  0.0505422  
-6.45741e-05  0.0137837 -8.13228e-05 -0.0140334 -0.0205886  0.0315128  
-0.00141672  0.0121491 -0.000155466 -0.00564176  -0.012395  0.0387021  
-0.00556592  0.0107856 -4.64782e-05 -0.0187501 -0.0286095  0.0471855  
-0.00605377 0.00896983 -8.95249e-05 -0.00784161  -0.017942  0.0540699  
3.36751e-05  0.0136596 -8.95871e-05 -0.0138793 -0.0206328  0.0314029  
-0.00136845  0.0120559 -0.000167652 -0.00546574 -0.0123106  0.0386673  
-0.00548111  0.0107023 -5.58439e-05 -0.0186376 -0.0285733  0.0471272  
-0.00600987 0.00892532 -0.00010655 -0.00770863  -0.017815  0.0540752  
-0.00288326  0.0115883 -9.63382e-05  -0.011307 -0.0195269  0.0424698  
-0.00281417  0.0115085 -0.000117147 -0.0111609   -0.01948  0.0424174  
0.000588359  0.0156971 -0.00027324 -0.00714964   -0.01183  0.0280508  
-0.00187775  0.0119499 -0.00011596 -0.0228637 -0.0313628  0.0359209  
-0.00975782 0.00985593 -7.68734e-05 -0.0136189 -0.0245868  0.0577906  
-0.00349955 0.00807003 -0.000122014 -0.00368361 -0.0125646  0.0505454  
-0.000172869  0.0140114 -0.000334124  -0.014346 -0.0209718  0.0316584  
-0.00153873  0.0123061 -0.000262042 -0.00604421 -0.0128089  0.0387931  
-0.00576349  0.0110044 -0.000146092  -0.018987 -0.0288741  0.0473063  
-0.00624892 0.00912896 -9.93442e-05 -0.00815568 -0.0182406   0.054134  
-0.000119082  0.0138978 -0.000194284 -0.0142013 -0.0207199  0.0316139  
-0.00147385  0.0122301 -0.000199442 -0.00584962 -0.0125671  0.0387904  
-0.00565613  0.0108931 -9.64029e-05 -0.0188792 -0.0287069  0.0472492  
-0.00613819 0.00905284 -0.000101457 -0.00800215  -0.018079  0.0541083  
-0.00303985  0.0117806 -0.000212688 -0.0116318  -0.019882  0.0425752  
-0.00295481   0.011687 -0.00015193 -0.0114773 -0.0196685  0.0425408  
0.000303492  0.0157594 -0.000281342 -0.00771591 -0.0126811  0.0278671  
-0.00220737  0.0121546 -0.000114077 -0.0230956  -0.031811  0.0359836  
-0.0100089  0.0100016 1.96873e-05 -0.0138457 -0.0247491  0.0578224  
-0.00375758 0.00809927 8.90369e-05 -0.00403526 -0.0127685  0.0505813  
-0.000807847  0.0140566 2.42291e-05 -0.0149611 -0.0216646  0.0313964  
-0.00205407  0.0121942 0.000264721 -0.00659207 -0.0131263  0.0385408  
-0.00615282  0.0111291 9.85359e-05 -0.0192834  -0.029037  0.0472744  
-0.00653156 0.00915134 0.000226753 -0.00844808 -0.0181464  0.0540749  
-0.00042542  0.0140376 -0.000206813 -0.0146008  -0.021366  0.0315546  
-0.00174955  0.0122678 -6.24104e-05 -0.00631372 -0.0130705  0.0387355  
-0.00594972  0.0110723 -3.98704e-05 -0.0191082 -0.0290039  0.0472994  
-0.00639546 0.00913491 5.61239e-05 -0.00829553 -0.0182617  0.0541398  
-0.00350851  0.0118087 0.000159722 -0.0120849 -0.0201516   0.042426  
-0.00324525   0.011793 -5.41512e-05 -0.0118306 -0.0200799  0.0425345  
-0.000248632  0.0152537 0.000489179 -0.00886479 -0.0125163  0.0278821  
-0.00242336  0.0120314 0.000196364 -0.0234794 -0.0315949  0.0360961  
-0.00997712 0.00990198 0.000122746 -0.0139317 -0.0245386  0.0578534  
-0.00365508 0.00790201 0.00028403 -0.00432961 -0.0123089  0.0505141  
-0.000809096  0.0137029 0.000351305 -0.0153455 -0.0211775  0.0316431  
-0.00195886  0.0119344 0.000397792 -0.00703934 -0.0127361  0.0387012  
-0.00603685  0.0109507 0.000158344 -0.0193379 -0.0287916  0.0473638  
-0.00633145 0.00896511 0.000217873 -0.00846492 -0.0179309  0.0541547  
-0.00340353  0.0115322 0.000300961 -0.0122971 -0.0197989   0.042586  
 0.0663182 -0.0255267 -0.00105977 0.00594368 0.00975562 -0.0235559  
 0.0557224 -0.0181919 -0.000920619  0.0167913  0.0173985 -0.0166009  
 0.0479939 -0.0116928 -0.00116079  0.0295066  0.0251381 -0.0122029  
 0.0705826 -0.0242673 -0.000473198  0.0287101   0.029145 -0.0334047  
 0.0625498 -0.0240817 -0.000493122 0.00956996  0.0131643 -0.0204295  
 0.0682323 -0.0262745 3.41506e-05  0.0157901  0.0189394 -0.0280289  
  0.052788 -0.0160648 -0.00108891  0.0205832  0.0204439 -0.0142623  
 0.0585709 -0.0187714 -0.000467044  0.0283706  0.0274324 -0.0214463  
 0.0616298  -0.022227 -0.000997629  0.0111895  0.0134604 -0.0205452  
 0.0685376 -0.0252246 -0.000750569   0.016535  0.0189173 -0.0284594  
 0.0520889 -0.0147372 -0.00135499  0.0228495  0.0207477 -0.0146882  
 0.0587092 -0.0181944 -0.000764054  0.0297845  0.0276314 -0.0218817  
 0.0604488  -0.021393 -0.000393765  0.0189598  0.0200926 -0.0212794  
 0.0604777 -0.0201727 -0.00108708  0.0202625  0.0201725 -0.0217934  
 0.0662708 -0.0279478 0.000249383 0.00645218   0.010141 -0.0239886  
 0.0572915 -0.0208862 -0.000223991  0.0152094  0.0154106 -0.0171714  
 0.0485099 -0.0130021 -0.00054784  0.0278484  0.0237051 -0.0115564  
 0.0702294 -0.0250618 1.58749e-05  0.0282459  0.0289242 -0.0331633  
 0.0623068  -0.025138 0.000295764  0.0108205  0.0129451 -0.0215993  
 0.0683463 -0.0270578 0.000246235  0.0167588  0.0190701  -0.028961  
 0.0526698  -0.017166 0.000120852  0.0214123  0.0190853 -0.0147762  
 0.0587212 -0.0195908 7.42172e-05  0.0290489  0.0267152 -0.0218252  
 0.0623587 -0.0247603 2.14841e-05  0.0106683   0.012794 -0.0209744  
 0.0683606 -0.0267669 0.000107046  0.0164514  0.0189765 -0.0285176  
 0.0528377 -0.0167484 -0.000434017  0.0212915  0.0192159 -0.0143665  
 0.0587551  -0.019274 -0.000223589  0.0288108   0.026914 -0.0215526  
  0.060541 -0.0223034 0.000184954  0.0198248  0.0195656 -0.0220675  
 0.0606132  -0.021947 -0.000139054   0.019597  0.0196202 -0.0216565  
 0.0662612 -0.0283287 0.000406658 0.00682053  0.0104834 -0.0246295  
 0.0572102 -0.0214871 0.000373343  0.0153839  0.0154951 -0.0178982  
 0.0483598 -0.0135974 0.000266355  0.0281126  0.0235012  -0.011965  
 0.0702438 -0.0253721 0.000248481   0.028769  0.0291946 -0.0335039  
 0.0623207 -0.0253364 0.000505376  0.0110864   0.013186 -0.0215861  
  0.068333 -0.0272029 0.000473351  0.0170707  0.0194467 -0.0289937  
 0.0527087 -0.0175233 0.00052189  0.0216297  0.0192535 -0.0149182  
 0.0586793 -0.0198691 0.000515528  0.0293711  0.0270401 -0.0219434  
 0.0623155 -0.0252453 0.000394549  0.0109409  0.0130172 -0.0216369  
 0.0683495 -0.0271242 0.000330434  0.0169165  0.0192841 -0.0290231  
 0.0526862 -0.0173463 0.000318944  0.0215025  0.0191646 -0.0148739  
 0.0587096 -0.0197272 0.000268396   0.029212  0.0269266 -0.0219406  
 0.0605412  -0.022548 0.000510539  0.0200876  0.0198407 -0.0221661  
 0.0605459 -0.0224225 0.000329275  0.0199518  0.0197393 -0.0221556  
 0.0661164  -0.028181 0.00076968 0.00726388  0.0110252 -0.0238458  
  0.056975 -0.0215601 0.00113675  0.0158241  0.0160396 -0.0172827  
 0.0481688 -0.0138594 0.00120847  0.0285992  0.0243192 -0.0114318  
 0.0704375 -0.0254323 0.000565579  0.0295128  0.0302102 -0.0330077  
 0.0612797 -0.0248399 0.00215468  0.0119609   0.015058 -0.0186479  
 0.0685603  -0.026821 0.000902434  0.0184491  0.0213073 -0.0273105  
 0.0521219 -0.0174689 0.00236678  0.0224212  0.0219536 -0.0124097  
   0.05909 -0.0197908  0.0011317  0.0306753  0.0294967 -0.0204595  
 0.0621249 -0.0252109 0.000961375  0.0113721  0.0135631 -0.0209385  
 0.0683636 -0.0270914 0.000699379  0.0175187  0.0200914 -0.0283601  
 0.0524331 -0.0175155 0.00122356  0.0219362  0.0198181 -0.0142541  
 0.0587297 -0.0198804 0.000872282  0.0298371  0.0278784 -0.0214234  
 0.0605017 -0.0223071 0.00148358  0.0212325  0.0221126 -0.0201922  
 0.0604422 -0.0224896 0.000950674  0.0204786  0.0204982 -0.0215062  
 0.0666094 -0.0259024 -0.00036595 0.00985147   0.013353 -0.0221669  
 0.0586043 -0.0192423 -0.000365485  0.0205822  0.0211835 -0.0149828  
 0.0495864 -0.0128328 0.000233803  0.0316672  0.0273078 -0.00986607  
 0.0715252 -0.0247098 -0.000356738  0.0309094  0.0311103 -0.0328606  
 0.0632124 -0.0230214 -0.00037978  0.0149101  0.0171983 -0.0190975  
 0.0692193 -0.0256491 -0.00038629  0.0193594  0.0215315 -0.0275922  
 0.0536572 -0.0158016 0.000246504  0.0256865  0.0235903 -0.0119672  
 0.0599696 -0.0189669 -0.000153036  0.0320211  0.0296999 -0.0206504  
 0.0613646 -0.0209549 -5.38197e-05  0.0230498  0.0228232 -0.0200119  
-0.00574253 0.00470456 6.03626e-05 -0.000737039 -0.00666943   0.063702  
-0.00378576 0.00580303 0.000105394 -0.00379932 -0.0110911  0.0559506  
-0.00467337 0.00927635 0.000227242 -0.00981314 -0.0190769  0.0496442  
-0.0201647  0.0138684 4.8458e-05 -0.0182529 -0.0263229   0.072394  
-0.00512086 0.00514606 0.000219168 -0.00233528 -0.00861761  0.0602079  
-0.0127997 0.00930873 0.000103283 -0.00853056 -0.0155001  0.0681113  
-0.00451558 0.00774624 0.000240913 -0.0065586 -0.0151763  0.0527232  
-0.0114769  0.0113092 0.000129359  -0.014332 -0.0235093  0.0601616  
-0.00491504  0.0050929 8.01967e-05 -0.00232022 -0.00864351  0.0602077  
-0.0126452 0.00921168 5.54665e-05 -0.0084274 -0.0154588  0.0681395  
-0.00430514 0.00757495 0.000205351 -0.0066277 -0.0150068  0.0528106  
-0.0113291  0.0111631 0.00012633 -0.0143035 -0.0233552  0.0602171  
-0.00870875 0.00841994 0.000160285 -0.00789295 -0.0158405  0.0602987  
-0.00853178 0.00827658 0.000130946 -0.00785263 -0.0157249  0.0603554  
-0.00589721 0.00478991 4.54299e-05 -0.000706945 -0.00675845   0.063717  
-0.00392662 0.00589609 7.18965e-05 -0.00352245 -0.0113334  0.0560548  
-0.00466594 0.00945292 2.58927e-05 -0.00956571 -0.0193735  0.0495971  
-0.0202232  0.0139185 1.24687e-05 -0.0182676 -0.0264407  0.0724302  
-0.00496597  0.0051821 -6.06552e-05 -0.00209655 -0.00882295  0.0602407  
-0.0126647 0.00923591 -4.53432e-05 -0.00836068  -0.015584  0.0681433  
-0.00423216 0.00774819 -0.000106619 -0.00623856 -0.0152763  0.0528027  
-0.0112277  0.0112222 -8.27384e-05  -0.014094 -0.0235248  0.0602174  
-0.00505775 0.00518194   5.98e-05 -0.0021883 -0.00879133  0.0602686  
-0.0127485 0.00927862 2.99558e-05 -0.00842863 -0.0155639  0.0681458  
-0.00437353  0.0077448 5.28772e-05 -0.00637942 -0.0153035  0.0528114  
-0.0113594  0.0112679 1.94455e-05 -0.0142001 -0.0235576  0.0602086  
-0.00850551 0.00837524 -7.13081e-05 -0.00765591 -0.0159294  0.0603425  
-0.00861642 0.00839807 4.17352e-05 -0.00775713 -0.0159277  0.0603475  
-0.00573935 0.00470805 -5.41491e-05 -0.000572483 -0.00675202   0.063672  
-0.00372266 0.00585071 -9.05997e-05 -0.00326131  -0.011215  0.0560161  
-0.00438584 0.00935633 -0.000117198 -0.00924836 -0.0191203  0.0495757  
-0.0200225  0.0137381 -3.99153e-05 -0.0181355 -0.0263603  0.0724038  
-0.00481583 0.00504644 -6.01511e-05 -0.00189351 -0.00864723  0.0601964  
-0.0124908 0.00905469 -3.40493e-05 -0.00821665 -0.0154449  0.0680856  
-0.00406083 0.00759556 -8.81858e-05 -0.00593418 -0.0149885  0.0527379  
-0.0110256  0.0110295 -5.77268e-05 -0.0138584 -0.0232928   0.060141  
-0.0048775 0.00511643 -7.01712e-05 -0.0019957 -0.00873564  0.0602272  
-0.0125668 0.00914618 -4.78816e-05 -0.00828966 -0.0155151  0.0681134  
-0.00413422 0.00767629 -0.000104719 -0.0060894 -0.0151195  0.0527801  
-0.0111166  0.0111264 -7.52857e-05 -0.0139815 -0.0233983  0.0601803  
-0.00833091 0.00820845 -5.89795e-05 -0.00743681 -0.0157202  0.0602825  
-0.00840632 0.00829395 -7.30119e-05 -0.00754851 -0.0158195  0.0603137  
-0.00565636 0.00459133 -5.17747e-06 -0.000433876 -0.00655326  0.0637152  
-0.00362935 0.00573651 -7.42894e-05 -0.00301785 -0.0109445  0.0560353  
-0.00424502 0.00921327 -0.000114967  -0.008939 -0.0188715  0.0495121  
-0.0198784  0.0135659 -1.90728e-05 -0.0179428 -0.0261984  0.0723491  
-0.00474343 0.00503792 -0.000114234 -0.00164837 -0.00831682  0.0602623  
-0.0124041 0.00896012 -1.64582e-05 -0.00797333 -0.0151833  0.0681099  
-0.00395601 0.00753222 -0.000194542  -0.005675 -0.0147453  0.0526472  
-0.0109095  0.0109057 -9.11374e-05 -0.0136001 -0.0230867  0.0600532  
-0.00478781 0.00500008 -3.94941e-05 -0.00180967 -0.00850377  0.0602596  
-0.0124502 0.00900266 -1.68635e-05 -0.00811801  -0.015329  0.0681045  
-0.00401983 0.00755196 -0.00010149 -0.00581325 -0.0148651  0.0527583  
-0.0109699  0.0109681 -6.21466e-05 -0.0137335 -0.0231938  0.0601192  
-0.00823808 0.00811586 -8.73151e-05 -0.0071871 -0.0154607   0.060253  
-0.00828836 0.00815944 -5.66616e-05 -0.00732623 -0.0156003  0.0602957  
-0.00553056 0.00452935 -4.64659e-05 -0.000108407 -0.00638615  0.0637838  
-0.00346162 0.00535144 -1.24017e-05 -0.00296199  -0.010776  0.0556879  
-0.00421215 0.00892843 -2.09688e-05   -0.00909 -0.0188521  0.0493742  
-0.0198722  0.0135558 -1.93864e-06 -0.0178569 -0.0261396  0.0723461  
-0.00463916 0.00478092 -3.03314e-05 -0.00160888 -0.00834864  0.0601361  
-0.0123905 0.00896237 -2.06772e-05 -0.00794242 -0.0152363  0.0681371  
-0.0039166 0.00724994 -5.20189e-05 -0.00586289 -0.0147984  0.0525425  
-0.0109499  0.0108336 -8.34368e-06 -0.0137522 -0.0231373  0.0600691  
-0.00820644  0.0080154 -4.30073e-05 -0.00724649 -0.0155187  0.0602373  
 0.0666088 -0.0259012 -0.000365915 0.00985528  0.0133544  -0.022166  
 0.0586014 -0.0192391 -0.000365289  0.0205844  0.0211828 -0.0149804  
 0.0495905 -0.0128314 0.000232115  0.0316846  0.0273168 -0.00987366  
 0.0715208  -0.024703 -0.000356752  0.0309195  0.0311238 -0.0328605  
  0.061277 -0.0248373 0.00215503   0.011965  0.0150597 -0.0186455  
 0.0685583 -0.0268191 0.000902563  0.0184562   0.021312 -0.0273095  
 0.0521211 -0.0174657 0.00236592  0.0224332  0.0219621 -0.0124098  
  0.059088 -0.0197849 0.00113078  0.0306928  0.0295129 -0.0204595  
 0.0632098 -0.0230186 -0.000379593  0.0149147  0.0171997 -0.0190953  
 0.0692174 -0.0256471 -0.000386325  0.0193668   0.021536 -0.0275915  
 0.0536565 -0.0157988 0.000245413  0.0256975   0.023596 -0.0119693  
 0.0599673 -0.0189614 -0.000153518  0.0320375  0.0297142 -0.0206512  
 0.0604997 -0.0223042  0.0014834  0.0212418  0.0221191 -0.0201911  
 0.0613627 -0.0209522 -5.41111e-05  0.0230589  0.0228288 -0.0200117  
 0.0661155 -0.0281801 0.000769884 0.00726698  0.0110262  -0.023845  
 0.0569717 -0.0215574 0.00113717  0.0158255  0.0160391 -0.0172808  
 0.0481716 -0.0138574 0.00120836  0.0286175  0.0243319 -0.0114367  
 0.0704327 -0.0254253 0.000565628  0.0295224  0.0302238 -0.0330075  
  0.062318 -0.0253339 0.000505446    0.01109   0.013187 -0.0215846  
 0.0683309 -0.0272009 0.000473455  0.0170773  0.0194509  -0.028993  
 0.0527069 -0.0175203 0.000521932  0.0216403  0.0192605 -0.0149191  
 0.0586759  -0.019863 0.000515639  0.0293874  0.0270555 -0.0219431  
 0.0621221 -0.0252084 0.000961679  0.0113758  0.0135642 -0.0209366  
 0.0683615 -0.0270895 0.000699544  0.0175256  0.0200958 -0.0283593  
 0.0524314 -0.0175126 0.00122371   0.021947  0.0198256 -0.0142547  
 0.0587268 -0.0198744 0.000872174  0.0298538  0.0278944  -0.021423  
 0.0605387 -0.0225452 0.000510642   0.020096  0.0198465 -0.0221655  
 0.0604398 -0.0224869 0.000950825  0.0204873  0.0205043 -0.0215054  
 0.0662604 -0.0283277 0.000406682 0.00682347  0.0104844 -0.0246291  
 0.0572071 -0.0214842 0.000373365  0.0153853  0.0154946 -0.0178967  
 0.0483622 -0.0135953 0.000266305  0.0281303   0.023513   -0.01197  
 0.0702388 -0.0253649 0.000248433  0.0287783  0.0292079 -0.0335037  
 0.0623041 -0.0251354 0.000295731   0.010824  0.0129462 -0.0215978  
 0.0683442 -0.0270558 0.000246172  0.0167653  0.0190743 -0.0289604  
  0.052668 -0.0171629 0.00012079  0.0214228  0.0190923 -0.0147771  
  0.058718 -0.0195845 7.3989e-05   0.029065  0.0267306 -0.0218249  
 0.0623128 -0.0252427 0.000394563  0.0109445  0.0130183 -0.0216353  
 0.0683474 -0.0271222 0.000330439   0.016923  0.0192883 -0.0290226  
 0.0526845 -0.0173433 0.000318934   0.021513  0.0191718 -0.0148748  
 0.0587063  -0.019721 0.00026831  0.0292282   0.026942 -0.0219403  
 0.0605385 -0.0223005 0.000184867  0.0198331  0.0195714  -0.022067  
 0.0605434 -0.0224196 0.000329267  0.0199602  0.0197451  -0.022155  
   0.06627 -0.0279467 0.000249304 0.00645505   0.010142 -0.0239881  
 0.0572886 -0.0208833 -0.000224239  0.0152106  0.0154102   -0.01717  
 0.0485122     -0.013 -0.000547714  0.0278654  0.0237171 -0.0115615  
 0.0702243 -0.0250545 1.57347e-05  0.0282551  0.0289377 -0.0331632  
 0.0625471  -0.024079 -0.000493378 0.00957327  0.0131658  -0.020428  
 0.0682301 -0.0262724 3.40162e-05  0.0157965  0.0189439 -0.0280284  
 0.0527857 -0.0160618 -0.00108846  0.0205932  0.0204513  -0.014263  
  0.058567 -0.0187654 -0.000466701  0.0283868  0.0274482 -0.0214464  
 0.0623561 -0.0247577 2.12963e-05  0.0106718  0.0127951 -0.0209729  
 0.0683585 -0.0267648 0.000106945  0.0164579  0.0189808 -0.0285171  
  0.052836 -0.0167454 -0.000434059  0.0213016  0.0192232 -0.0143674  
 0.0587516 -0.0192678 -0.000223635  0.0288267  0.0269297 -0.0215524  
 0.0604461   -0.02139 -0.000393769  0.0189678  0.0200987 -0.0212789  
 0.0606107  -0.021944 -0.000139147  0.0196052  0.0196261  -0.021656  
 0.0663174 -0.0255255 -0.00105995  0.0059468  0.0097568 -0.0235557  
 0.0557196  -0.018189 -0.000921006  0.0167922  0.0173977 -0.0166001  
 0.0479964  -0.011692 -0.00115906  0.0295221  0.0251478 -0.0122071  
 0.0705774 -0.0242603 -0.000473044    0.02872  0.0291587 -0.0334049  
 0.0616272 -0.0222243 -0.000997945  0.0111932  0.0134618 -0.0205442  
 0.0685353 -0.0252226 -0.000750602  0.0165419  0.0189217 -0.0284591  
 0.0520872  -0.014735  -0.001354  0.0228586  0.0207537 -0.0146887  
 0.0587057 -0.0181892 -0.000763331  0.0298004  0.0276465 -0.0218816  
 0.0604752 -0.0201701 -0.00108683  0.0202707  0.0201781 -0.0217931  
 0.0199946 0.00770743 0.00113245  0.0203014  0.0194222  0.0101892  
 0.0409409 -0.00684222 0.00127498  0.0248755  0.0234149 -0.00254668  
 0.0435791 -0.0126229 0.00328937 0.00846545  0.0110266 -0.00892312  
 0.0212309 0.00508212 0.00311458 0.00830122 0.00955994 0.00469743  
 0.0259648 0.00103958 0.00353597  0.0178845  0.0183847 0.00425905  
 0.0429882 -0.0104293 0.00464297  0.0138537  0.0168391 -0.00100722  
 0.0209301 0.00440418 0.00564997   0.013188  0.0152966  0.0112316  
 0.0293259 0.00121083 0.00122127  0.0229029  0.0218658 0.00453842  
  0.031714 -0.00341809 0.00325947  0.0084405  0.0103865 -0.00192928  
 0.0310931 -0.00266811 0.00544233  0.0134962  0.0162232 0.00571443  
 0.0178296 0.00861222 0.00118264  0.0169394  0.0150181 0.00878154  
 0.0393653 -0.00761119  0.0013921  0.0197748  0.0170393 -0.00576308  
 0.0449858 -0.0123169 0.000671052 0.00943059  0.0109345 -0.0100686  
 0.0223968 0.00589819 0.000438138 0.00956773 0.00947377 0.00465848  
 0.0275984 0.00162876 0.000364007  0.0183121  0.0158918 0.00210983  
 0.0447333 -0.0123637 0.00138842 0.00978793   0.011239 -0.00923737  
 0.0221826 0.00553293 0.00123187 0.00982968  0.0096657 0.00497336  
 0.0272703 0.00136046 0.00131012  0.0184712  0.0161902 0.00224841  
 0.0329768 -0.00282157 0.000570112  0.0095034  0.0102952 -0.0024517  
 0.0327355 -0.00303331 0.00134988 0.00981694  0.0105575 -0.00183425  
 0.0181866 0.00921415 -7.82664e-05  0.0169256  0.0147418 0.00888927  
 0.0397025 -0.00720487 0.000204719  0.0194271  0.0165447 -0.00607226  
 0.0451852 -0.0118509 -9.74353e-05 0.00938625  0.0109396 -0.00979331  
 0.0226522 0.00645504 -0.000515302 0.00961543 0.00955111 0.00497065  
 0.0276531 0.00213425 -0.000278431  0.0182731  0.0159125 0.00224018  
 0.0450866 -0.0120746 0.000269067 0.00952678  0.0108611 -0.0099752  
 0.0225286 0.00617287 -4.80884e-05   0.009721 0.00942243 0.00481619  
 0.0276187 0.00187764 5.33274e-05  0.0182832   0.015798 0.00215785  
 0.0332158 -0.00230243 -0.000324471  0.0094973  0.0103327 -0.00214898  
  0.033099 -0.00256007 0.00010803 0.00962668  0.0102322 -0.00230776  
 0.0186424 0.00968622 -0.00136942  0.0171561  0.0153203  0.0088181  
 0.0400018 -0.00653095 -0.00091418  0.0194675  0.0167939 -0.00570496  
 0.0459642 -0.0108549 -0.00177271 0.00833494   0.011084 -0.00833941  
  0.023813 0.00722909 -0.00325962 0.00870289 0.00998505 0.00457866  
 0.0290201 0.00293123 -0.00315581  0.0176679  0.0182029 0.000719925  
 0.0452979 -0.0113186 -0.000784176 0.00962968  0.0110439 -0.00968238  
 0.0229943   0.006718 -0.00139487 0.00998771 0.00979319  0.0045763  
 0.0280074 0.00245282 -0.00119392  0.0184343  0.0162291 0.00229072  
 0.0341789 -0.0013737 -0.0026109 0.00844904  0.0106378 -0.00159549  
 0.0334561 -0.00190674 -0.00114011 0.00981402  0.0105103 -0.00231876  
 0.0170806 0.00924073 -0.000867411  0.0213263  0.0195518 0.00696432  
 0.0389013 -0.00516868 -0.00195762  0.0232415   0.021204 -0.00750979  
 0.0461055 -0.00850607 -0.00551628  0.0120991  0.0146111 -0.0140126  
 0.0248317 0.00644658 -0.00543888  0.0136574  0.0148575 -0.0024004  
 0.0265685 0.00286819 -0.00139079  0.0227025  0.0209065 0.000414959  
 0.0349669 -0.000711313 -0.00576014  0.0130068  0.0148461 -0.00836479  
-0.00235922 0.00742159 -0.000200856 -0.00104546 -0.00623085  0.0512028  
-0.000494459   0.015244 -0.000403462 -0.00144039 -0.00534724  0.0316024  
-0.00207819  0.0071997 -0.000523386 -0.00125349 -0.00664565  0.0504662  
-0.000538522   0.014769 -0.000309568 -0.00259754 -0.00639158  0.0308718  
-0.00145738  0.0117538 -0.000325372 -0.00149334 -0.00600006  0.0408668  
-0.00133925  0.0113899 -0.000442979 -0.00219203 -0.00674852  0.0400976  
-0.00234624  0.0073925 -0.000157642 -0.00130048 -0.0065598  0.0509401  
-0.000487039  0.0154138 -0.000288863 -0.0021594 -0.00565758  0.0316219  
-0.00233821 0.00733597 -0.000128164 -0.0011889 -0.00642919  0.0509775  
-0.000454802  0.0152717 -0.000273624 -0.00191851 -0.00555237  0.0314974  
-0.00144741     0.0118 -0.000231149 -0.00196624 -0.00629557  0.0407331  
-0.00143662  0.0117055 -0.000207087 -0.00179249 -0.00617251  0.0407004  
-0.00246919 0.00743632 -9.22264e-05 -0.00166851 -0.0069022  0.0509447  
-0.000553577  0.0154978 -0.000345768 -0.00261302 -0.00616517  0.0316607  
-0.00238981 0.00740644 -0.000117624 -0.00149137 -0.00673266  0.0509616  
-0.000525148  0.0154472 -0.000276846 -0.00240821 -0.0058869  0.0317159  
-0.00155572  0.0118613 -0.000211535 -0.00239904 -0.0067371  0.0407531  
-0.00149398  0.0118224 -0.000198301 -0.00219535 -0.00650003  0.0407876  
-0.00277539 0.00734273 0.000381364 -0.00190226  -0.006756  0.0510445  
-0.00118914  0.0152649 0.000272569 -0.00333416 -0.00695092  0.0313897  
-0.00259585 0.00737784 0.00011979 -0.00183296 -0.00688484  0.0510119  
-0.000784162  0.0153884 -0.000112823 -0.0030329 -0.00655366  0.0315333  
-0.00201578  0.0116983 0.000358253 -0.00286476 -0.00703711  0.0406866  
-0.00172874  0.0117768 2.39104e-05 -0.00268635 -0.00689881  0.0407393  
-0.00244454 0.00693459 0.000649384 -0.00201498 -0.00608731  0.0510684  
-0.00116983  0.0145933 0.00097286 -0.00392006 -0.00573162  0.0315943  
-0.00183224  0.0111672 0.000824457 -0.00322307 -0.00608242  0.0407938  
8.70934e-05  0.0156069 0.000511223 -0.00848973 -0.0113131   0.026582  
-0.00282602  0.0108174 0.000388354 -0.00561835 -0.0125007  0.0431855  
-0.00255701 0.00881265 0.000404226 -0.0020566 -0.0067859  0.0473651  
-0.00105981   0.015479 0.000256859 -0.00301929 -0.00636206  0.0307968  
-0.00124744     0.0139 0.000221594 -0.00679581 -0.0123612  0.0336609  
-0.00224371 0.00838105 0.00072592 -0.00229354 -0.00600506  0.0473995  
-0.00107365  0.0147663 0.00102083 -0.00363049 -0.00508441  0.0310094  
-0.00123149  0.0135981 0.000449224 -0.0074038 -0.0119097  0.0338631  
-0.00182872  0.0124707 0.000350927 -0.00270842 -0.00658194  0.0386603  
-0.00166839  0.0118988 0.000901035 -0.00312249 -0.0055154  0.0387826  
0.000722385   0.016181 -0.000337609 -0.00718803 -0.0113798  0.0266025  
-0.00278183  0.0110899 4.25316e-05 -0.00510398 -0.0130169  0.0432757  
-0.00218558 0.00894111 -0.000128805 -0.00177756 -0.00682324  0.0473069  
-0.000428364  0.0157265 -0.00035402 -0.00227358 -0.00550538  0.0310964  
-0.000659449  0.0140584 -0.00033244 -0.0061306  -0.011813   0.034036  
-0.00233586 0.00887303 0.000102365 -0.00197994 -0.00686119  0.0473605  
-0.000652535  0.0156096 -0.000127663 -0.00270672 -0.00591117  0.0309538  
-0.000886453   0.014005 -0.000138496 -0.00645546 -0.0121883  0.0339306  
-0.00134101  0.0126577 -0.000235156 -0.00220079 -0.00617985  0.0387544  
-0.00151888  0.0125643 2.3668e-06 -0.0025157 -0.00637522  0.0387229  
0.00097485  0.0161306 -0.0002902 -0.00660443 -0.0104791  0.0268346  
-0.00248245  0.0110749 -0.000173243 -0.00465375 -0.0126386  0.0432772  
-0.00206463 0.00889185 -0.000184142 -0.00137595 -0.00643611  0.0472956  
-0.0003691  0.0156466 -0.000300928 -0.00182662 -0.00500068   0.031059  
-0.000564202  0.0138924 -0.000177845 -0.00571299 -0.0113721  0.0339356  
-0.00210936  0.0089079 -0.00014417 -0.00158599 -0.00662682   0.047329  
-0.000404979  0.0156772 -0.000284703 -0.00207372 -0.00523157  0.0311545  
-0.000613245  0.0139768 -0.000237767 -0.00592969 -0.0115515  0.0340431  
-0.00123833  0.0125988 -0.000250632 -0.00175845 -0.00571974  0.0387355  
-0.00128429   0.012619 -0.000215306 -0.00199385 -0.00593156  0.0387949  
0.00109414  0.0158505 -0.000171749 -0.00617056 -0.0103441  0.0265334  
-0.00238028  0.0109421 -0.000176467 -0.0042711  -0.012318   0.043224  
-0.00209434 0.00892767 -0.000251196 -0.00107008 -0.00613065   0.047539  
-0.000377311  0.0154612 -0.000409791 -0.00105881 -0.00466242  0.0310335  
-0.000429049  0.0137958 -0.000417885 -0.00522868  -0.011396  0.0337035  
-0.00205733 0.00882315 -0.000157526 -0.00124449 -0.00630914  0.0473145  
-0.00033729  0.0154972 -0.000282351 -0.00157917 -0.00489308  0.0309197  
-0.000510987  0.0137739 -0.000184183 -0.00551259 -0.0113059  0.0338693  
-0.00125689  0.0125328 -0.000339167 -0.00123465 -0.00541134  0.0388587  
-0.00123012  0.0124939 -0.000223753 -0.00157046 -0.00559543   0.038684  
0.000976906  0.0149085 0.000288335 -0.00716859 -0.0105988  0.0261339  
-0.00230597  0.0104161 -8.11753e-05 -0.00468008 -0.0124759   0.042627  
-0.00182568 0.00860669 -0.000526589 -0.00142332 -0.0066316  0.0467178  
-0.000439023  0.0149789 -0.000326116 -0.00226829 -0.00579973  0.0302699  
-0.000533672  0.0130203 0.000111223 -0.00627605  -0.011553  0.0333366  
-0.00115365  0.0121475 -0.000464343 -0.00202134 -0.00626633  0.0380517  
 0.0170719 0.00924234 -0.000868129  0.0213221  0.0195533 0.00696066  
 0.0389034 -0.00517062 -0.00195638  0.0232428   0.021204 -0.00751179  
 0.0459673 -0.0108577 -0.00177252 0.00833502  0.0110836 -0.00834158  
 0.0238019 0.00723592 -0.00325648 0.00870565  0.0099843 0.00458625  
 0.0290295 0.00292466 -0.00315546    0.01767  0.0182016 0.00071345  
  0.046109 -0.00850897 -0.00551594  0.0120999  0.0146122 -0.0140142  
 0.0248235 0.00644913 -0.00543377  0.0136583  0.0148515 -0.00239243  
 0.0265766 0.00286204 -0.00138988  0.0227062  0.0209088 0.000410106  
 0.0341802 -0.00137543 -0.00260956 0.00845032  0.0106372 -0.00159648  
 0.0349701 -0.000714974 -0.00575881  0.0130086   0.014846 -0.0083673  
 0.0186331 0.00969125 -0.00136926  0.0171414  0.0153099 0.00882066  
 0.0400038 -0.00653237 -0.000913847   0.019468  0.0167938 -0.00570657  
 0.0451888 -0.0118541 -9.74457e-05 0.00938597  0.0109398 -0.00979499  
 0.0226437 0.00646197 -0.000515829 0.00961456  0.0095498 0.00497865  
 0.0276614 0.00212838 -0.000278758  0.0182741  0.0159153 0.00223529  
 0.0453013 -0.0113217 -0.000783978 0.00962934  0.0110439 -0.00968409  
 0.0229852 0.00672482 -0.00139494 0.00998607 0.00979324 0.00458375  
 0.0280148 0.00244695 -0.00119323  0.0184356  0.0162308 0.00228589  
 0.0332184 -0.00230463 -0.000324674 0.00949734  0.0103329 -0.00214979  
 0.0334584 -0.00190895 -0.00113996 0.00981375  0.0105106 -0.00231968  
 0.0181776 0.00921932 -7.85267e-05  0.0169106  0.0147331  0.0088914  
 0.0397048 -0.00720617 0.000204658  0.0194275  0.0165446 -0.00607408  
 0.0449892   -0.01232 0.000671192 0.00943002  0.0109347 -0.0100705  
 0.0223878 0.00590515 0.000438135 0.00956603 0.00947238 0.00466573  
 0.0276061 0.00162294 0.000364477   0.018313  0.0158946 0.00210524  
 0.0450902 -0.0120777 0.000269025 0.00952639  0.0108612 -0.0099771  
 0.0225198 0.00617987 -4.83084e-05 0.00971964 0.00942151 0.00482376  
 0.0276268 0.00187182 5.33095e-05  0.0182844  0.0157999 0.00215273  
 0.0329791 -0.00282381 0.000570426 0.00950299  0.0102952 -0.0024529  
 0.0331015 -0.0025622 0.000107949 0.00962654  0.0102324 -0.00230886  
 0.0178213 0.00861737  0.0011815  0.0169246  0.0150081 0.00878321  
 0.0393679 -0.00761224 0.00139146  0.0197752  0.0170395 -0.00576505  
 0.0435835 -0.0126262 0.00328868 0.00846524  0.0110259 -0.00892711  
 0.0212235 0.00509033 0.00311056 0.00830323  0.0095603 0.00470302  
  0.025972 0.00103403 0.00353538  0.0178836  0.0183827 0.00425249  
  0.044737 -0.0123665 0.00138805 0.00978756  0.0112394 -0.00923928  
 0.0221741 0.00553989 0.00123143 0.00982783  0.0096653  0.0049812  
  0.027279 0.00135492 0.00130918  0.0184727  0.0161924  0.0022431  
 0.0317177 -0.00341949 0.00325749 0.00844131  0.0103858 -0.00193233  
 0.0327382 -0.0030353  0.0013495 0.00981676  0.0105581 -0.00183505  
 0.0199872 0.00770954 0.00113443  0.0202919  0.0194245  0.0101915  
 0.0409429 -0.00684444 0.00127411  0.0248729   0.023414 -0.00255257  
 0.0429911 -0.0104333 0.00464284  0.0138516  0.0168397 -0.00101071  
 0.0209233 0.00440997 0.00564559  0.0131779  0.0152882  0.0112307  
 0.0293331 0.00120538 0.00122062  0.0229026  0.0218681 0.00453151  
 0.0310949 -0.00267177 0.00544132  0.0134933  0.0162222 0.00570906  
 0.0127723 0.00298802 6.87165e-05 -0.0556384 -0.0545402  0.0141457  
0.00753816  0.0109695 0.000165173 -0.0295846 -0.0304418  0.0166666  
 0.0203394 0.00539558 -0.000189526 -0.0315011  -0.023563 0.00164726  
 0.0365672 -0.0081542 -5.29114e-05 -0.0549676 -0.0459893 -0.0140064  
 0.0105225 0.00715871 -0.000127254 -0.0412921 -0.0420969  0.0159102  
 0.0252719 -0.00262855 -8.48595e-05 -0.0550529 -0.0505056 -4.69403e-05  
 0.0144997 0.00855258 -0.000582836 -0.0291074 -0.0269569 0.00899657  
  0.027737 -0.000571089 -0.000509382  -0.040994 -0.0335164 -0.00478441  
 0.0105279 0.00702292 0.000116146   -0.04177  -0.041709  0.0160001  
 0.0253783 -0.00261165 1.15196e-05 -0.0556036 -0.0502939 -4.61582e-05  
 0.0141996 0.00831798 1.25694e-05 -0.0301159 -0.0265751 0.00903272  
 0.0275779 -0.000608152 -0.000123064  -0.042026 -0.0333069 -0.00484562  
 0.0198866 0.00314233 -0.000305809 -0.0413251 -0.0376684  0.0050986  
 0.0198152 0.00304648 1.20136e-05 -0.0420723 -0.0373527 0.00511801  
  0.013002 0.00289344 -0.000142936 -0.0552179 -0.0545902  0.0140745  
0.00811829  0.0110912 -0.000392436 -0.0286813 -0.0303139  0.0166421  
 0.0213729 0.00530526 -0.000784256   -0.02988 -0.0223487 0.00204695  
 0.0368123 -0.00846528 -0.000186882 -0.0543921 -0.0457395 -0.0140216  
 0.0111796 0.00688986 -0.000271829 -0.0410939 -0.0412493  0.0159284  
 0.0258552 -0.00297489 -0.000162018  -0.055223  -0.049847 -0.000203683  
 0.0152223 0.00812997 -0.000390729 -0.0287862 -0.0251897 0.00925252  
 0.0283808 -0.00108868 -0.000267457 -0.0410435  -0.032021 -0.00475141  
 0.0109244 0.00703011 -0.000261244 -0.0411284 -0.0416858  0.0159511  
 0.0256212 -0.00281129 -0.000170658 -0.0550995 -0.0501877 -9.34944e-05  
 0.0150222 0.00833816 -0.000583289 -0.0288499 -0.0259214 0.00921929  
 0.0282049 -0.00084794 -0.000468161 -0.0409591 -0.0326274 -0.00468573  
 0.0205533  0.0027496 -0.000278584 -0.0412513 -0.0364889 0.00512116  
 0.0203306  0.0029393 -0.000366538 -0.0412218 -0.0370192  0.0051661  
 0.0133139 0.00263553 -2.39653e-05 -0.0553497 -0.0542026  0.0139001  
0.00839785  0.0107791 -0.000110247 -0.0285663 -0.0295515  0.0165734  
 0.0213995 0.00480736 -2.32521e-05 -0.0299632 -0.0215307 0.00191794  
 0.0370997 -0.00879505 5.63377e-05 -0.0547737   -0.04539  -0.014278  
 0.0112745 0.00659772 0.000126191 -0.0411353 -0.0411448   0.015704  
   0.02599 -0.00323497 0.000195694 -0.0554676 -0.0499258 -0.000386392  
 0.0151661 0.00774879 0.000229443 -0.0288394 -0.0251063 0.00894463  
 0.0283648 -0.00144992 0.000320015 -0.0412975 -0.0321202 -0.00503096  
 0.0112249 0.00674012 -6.50086e-05 -0.0411349 -0.0411172  0.0158243  
 0.0259228 -0.00310628 1.44852e-05 -0.0553625 -0.0498104 -0.000311315  
 0.0151875 0.00793665 -7.10859e-05 -0.0288324 -0.0251119 0.00911135  
   0.02837  -0.001271 2.3437e-05 -0.0411861 -0.0320351 -0.00490104  
 0.0205888 0.00242329 0.000226061 -0.0414047 -0.0364896 0.00486807  
 0.0205681 0.00258391 -2.30824e-05 -0.0413464 -0.0364278 0.00499283  
 0.0135638  0.0024639 0.00011153 -0.0555051 -0.0545019  0.0138368  
0.00859524   0.010464 0.000178545 -0.0285501  -0.029886  0.0163639  
 0.0214422 0.00437846 0.000673511 -0.0302353 -0.0222509 0.00184879  
 0.0374102 -0.00896262 0.000289661 -0.0552822 -0.0460949 -0.0142017  
 0.0117237 0.00638784 8.16546e-05 -0.0413752 -0.0416753  0.0157506  
 0.0265271 -0.00326227 9.69326e-05 -0.0560791 -0.0506717 -0.000159084  
 0.0157229 0.00734956 0.000437252 -0.0292288 -0.0263686 0.00918282  
 0.0290145 -0.00167303 0.000458675 -0.0420424 -0.0336128 -0.00456797  
 0.0114537 0.00649148 0.000145858  -0.041203 -0.0414333  0.0156854  
  0.026205 -0.00327626 0.000200835  -0.055702  -0.050318 -0.000307163  
 0.0153185 0.00756792 0.000406602  -0.028963 -0.0256447 0.00896515  
 0.0285504 -0.00157278 0.00048204 -0.0415687 -0.0327618 -0.0049062  
  0.021153 0.00220527 0.000253219  -0.041906 -0.0374894 0.00510464  
 0.0207793 0.00230915 0.000307449 -0.0415812 -0.0369579 0.00491794  
 0.0136103 0.00262597 -1.33448e-05 -0.0559576 -0.0544487  0.0140536  
0.00870019  0.0103061 0.000158966 -0.0293219 -0.0299483  0.0166737  
 0.0220872 0.00437698 0.000323523 -0.0319107 -0.0230338 0.00251706  
 0.0377567 -0.00860996 -0.000106205 -0.0561275 -0.0463258 -0.0139542  
  0.011533 0.00649506 6.42478e-05 -0.0418053 -0.0414288  0.0159459  
 0.0263997 -0.00301986 -5.61822e-05 -0.0563525 -0.0504026 -6.74973e-05  
 0.0156793 0.00745733 0.000235204 -0.0301919 -0.0260976 0.00943462  
 0.0290287 -0.00136839 8.57486e-05 -0.0428303 -0.0332803 -0.00445381  
 0.0210561 0.00240027 7.01572e-05 -0.0424952 -0.0371943 0.00526016  
 0.0209143 0.00194309 -9.71273e-05  0.0587392  0.0584881  0.0207024  
  0.014184 0.00960522 7.62691e-05  0.0362678  0.0349951  0.0192822  
0.00196626  0.0141968 0.00010633  0.0247248  0.0279992  0.0355265  
-0.0004882  0.0106702 -3.48512e-05  0.0492587  0.0488687  0.0489269  
 0.0179215 0.00562486 0.000301495  0.0464448  0.0465155  0.0201293  
 0.0103759  0.0062106 0.000112789  0.0535676  0.0542306  0.0357231  
0.00786674  0.0118125 0.000391155  0.0295428  0.0316752  0.0277207  
0.00119628  0.0126761 0.000209222  0.0356169  0.0382456  0.0420086  
 0.0179444 0.00587597 -2.68049e-05  0.0469648  0.0462098  0.0202434  
 0.0103045 0.00645879 -6.43222e-05  0.0538507  0.0539863  0.0358012  
0.00785277  0.0120458 9.16712e-05  0.0301758   0.031462  0.0279563  
0.00110259  0.0129279 2.56709e-05  0.0360223  0.0380595  0.0421903  
0.00949555 0.00929777 0.000243143  0.0410227  0.0425873  0.0317713  
0.00945255 0.00954176 1.36442e-06   0.041472  0.0423468  0.0319212  
 0.0206259  0.0015813 0.000260545  0.0580325  0.0584056  0.0203813  
 0.0136781 0.00945581 0.000509383  0.0353287  0.0346117  0.0187323  
0.00189393   0.013954 0.000292736  0.0241332  0.0279217  0.0348404  
-0.000517757  0.0103255 0.000154397  0.0488302  0.0489454  0.0485874  
  0.017346 0.00566076 0.000316604  0.0459774  0.0454894  0.0196334  
 0.0100043 0.00610044 0.000190162  0.0531491  0.0537026  0.0353017  
0.00745671  0.0119561 0.000256738  0.0294212  0.0308671  0.0271779  
0.000958313  0.0126727 0.000159428  0.0354967  0.0378716  0.0415159  
 0.0175413 0.00561058 0.00038946  0.0461432  0.0459887  0.0198111  
 0.0101568 0.00611186 0.000199973  0.0533034  0.0539932  0.0354777  
0.00758451  0.0118573 0.000388552  0.0294299  0.0312531  0.0273372  
0.00105192  0.0126349 0.00022517  0.0355094  0.0380732  0.0416799  
0.00909827 0.00931569 0.000233707  0.0407454  0.0419201  0.0312921  
0.00924145 0.00927102 0.000297566  0.0408291  0.0422585  0.0314581  
 0.0203805 0.00168216 3.98299e-05  0.0577063  0.0578392  0.0202066  
 0.0135704 0.00974626 -1.087e-05  0.0352416  0.0340175  0.0186978  
0.00182733  0.0141862 -8.20539e-05  0.0243015   0.027724  0.0348051  
-0.000684739  0.0104317 -5.9903e-06  0.0487486  0.0487303   0.048454  
 0.0173653 0.00596064 -0.000254241  0.0458578  0.0454679   0.019809  
0.00988844 0.00633034 -0.000140377  0.0530367  0.0536649  0.0353942  
0.00752975  0.0122774 -0.000354366  0.0295018   0.031026  0.0274132  
0.000897659  0.0129324 -0.000231754  0.0355743  0.0379982  0.0416771  
 0.0173603 0.00581149 2.0657e-05  0.0459342  0.0454026  0.0197094  
0.00995073 0.00621711 1.48518e-05   0.053107  0.0536124  0.0353291  
0.00749808  0.0121188 -5.11649e-05  0.0294793  0.0308753  0.0273084  
0.000932819  0.0128055 -4.09049e-05  0.0355508  0.0378667  0.0416018  
0.00907433 0.00959607 -0.000245351  0.0407264  0.0419769  0.0314615  
0.00909101 0.00945769 -1.30868e-05  0.0407517  0.0418746  0.0313734  
 0.0201594 0.00193177 -0.000147947  0.0575539  0.0581312  0.0203661  
 0.0134417  0.0100846 -0.000465852  0.0353079   0.034697  0.0188296  
0.00163839  0.0144086 -0.000310392  0.0245365  0.0282756   0.034943  
-0.000902692  0.0106437 -9.69015e-05  0.0487487  0.0489463   0.048601  
 0.0168531  0.0062708 -0.000222445  0.0460653  0.0462944   0.019813  
0.00952672 0.00657397 -4.31106e-05  0.0531218  0.0539935  0.0355227  
0.00698382  0.0124828 -0.000271792  0.0299271   0.031934   0.027366  
0.000499746  0.0130917 -8.84934e-05  0.0358555  0.0383998  0.0417619  
 0.0171822 0.00611363 -0.000298308  0.0458872  0.0458821  0.0198649  
0.00972893 0.00644844 -0.000119724  0.0530333  0.0538659   0.035485  
0.00733841  0.0123962 -0.000386179  0.0296352  0.0314913  0.0274428  
0.000729101  0.0130242 -0.000199735  0.0356676  0.0382438  0.0417445  
0.00862019 0.00982822 -0.000147518  0.0409731  0.0425784  0.0315115  
0.00889751 0.00971759 -0.00024609  0.0407889  0.0423029  0.0315242  
 0.0200798 0.00217037 -5.53003e-05  0.0581915  0.0581829  0.0204765  
 0.0130382  0.0101368 -0.00010893  0.0363805  0.0349832  0.0187921  
0.00133817  0.0144428 -6.62011e-06  0.0251758  0.0281413   0.035096  
-0.000975055  0.0108221 -1.66544e-05  0.0491382  0.0488041  0.0487295  
 0.0169467 0.00627497 -8.50039e-05  0.0467222  0.0460347  0.0199109  
0.00965327 0.00665187 -3.0779e-05  0.0535363  0.0538122  0.0356056  
 0.0069871  0.0124224 -4.28787e-05  0.0304773  0.0315592  0.0275129  
0.000552223  0.0131226 -1.02004e-05  0.0361848  0.0381068   0.041889  
0.00869264 0.00983937 -3.97538e-05  0.0414499   0.042299  0.0316239  
 0.0203752 0.00209018 -5.64358e-05  0.0579246  0.0581559  0.0199453  
 0.0130462  0.0101883 -0.000114519  0.0360947   0.034491  0.0186621  
0.00157586  0.0146528 -1.07334e-06  0.0233856  0.0267135  0.0339952  
-9.85788e-05   0.009934 -1.68251e-05  0.0512306  0.0507441  0.0486854  
 0.0171028 0.00622925 -0.000231409  0.0458548  0.0460535  0.0194217  
 0.0100113 0.00613719 -3.92916e-05  0.0542297   0.054966  0.0352472  
0.00701711  0.0126826 -0.000302863  0.0287716  0.0306425  0.0265641  
0.00118327  0.0128828 -9.74843e-05  0.0352882  0.0380991  0.0405376  
 0.0171943 0.00623009 -8.87391e-05  0.0465234  0.0457935  0.0195188  
 0.0101408 0.00622021 -3.11736e-05  0.0546459   0.054791  0.0353264  
0.00700537  0.0126036 -4.54984e-05  0.0293461  0.0302559   0.026717  
0.00123362  0.0129117 -1.2831e-05  0.0356256  0.0378019   0.040663  
0.00880389 0.00986122 -0.000157065  0.0406034  0.0422394  0.0310343  
0.00887274 0.00986801 -4.1143e-05  0.0410865   0.041956  0.0311479  
 0.0204545 0.00184966 -0.000148653   0.057286  0.0581026   0.019835  
 0.0134614  0.0101423 -0.000478595  0.0349958  0.0341822  0.0187113  
0.00189998  0.0146636 -0.000345597  0.0226947   0.026826  0.0338503  
-4.02975e-05 0.00974415 -8.46544e-05  0.0508464  0.0508787  0.0485609  
 0.0176167 0.00591614 -0.000257095  0.0456443  0.0452076   0.019424  
 0.0103711 0.00589006 -0.000135218  0.0541551  0.0546463  0.0351135  
 0.0075721  0.0124841 -0.000372387  0.0283121  0.0296672  0.0266399  
0.00158578   0.012726 -0.000239266  0.0350005  0.0376775  0.0404516  
 0.0174347 0.00607053 -0.000305226  0.0456743  0.0456286  0.0194784  
 0.0102117 0.00600918 -0.000114502  0.0541468  0.0548433  0.0352068  
0.00738257  0.0126017 -0.000415044  0.0284585  0.0301592  0.0266585  
0.00141741  0.0128181 -0.00021092  0.0350966  0.0379326  0.0405188  
0.00926272 0.00962981 -0.000251766  0.0403467  0.0416165  0.0309917  
0.00908587 0.00975158 -0.000255818   0.040413  0.0419515  0.0310517  
 0.0206753 0.00159998 4.06272e-05  0.0574392  0.0578098  0.0196746  
 0.0135843 0.00980055 -1.15084e-05  0.0349256  0.0334931  0.0185816  
0.00207593  0.0144454 -9.65609e-05  0.0224257  0.0262401  0.0337277  
0.000180921 0.00953166 -7.64409e-07  0.0508674  0.0506801  0.0484117  
 0.0175934 0.00561364 0.000320762  0.0457648  0.0452293   0.019246  
 0.0104911 0.00566272 0.000189615   0.054276  0.0546907  0.0350255  
0.00748345  0.0121563 0.000258758  0.0282205  0.0294943  0.0263966  
0.00163947  0.0124661 0.000161448  0.0349185  0.0375463  0.0402882  
 0.0176097 0.00576565 2.12986e-05  0.0457212  0.0451433  0.0193231  
 0.0104354 0.00577807 1.7078e-05  0.0542295  0.0545971  0.0350493  
0.00753233  0.0123221 -5.81033e-05  0.0282843  0.0295117  0.0265332  
0.00161768  0.0125986 -4.32072e-05  0.0349746  0.0375435  0.0403766  
0.00928079 0.00934709 0.000236611  0.0403626  0.0415561  0.0308191  
0.00927641 0.00949018 -1.45759e-05  0.0403705  0.0415125  0.0309027  
 0.0209212 0.00149978 0.000262878  0.0577668  0.0583807  0.0198501  
 0.0136862 0.00950431 0.000520592  0.0350107  0.0340915  0.0186143  
0.00212544  0.0141937 0.000306065  0.0222184  0.0264167  0.0337428  
0.000357882 0.00943384 0.000146423  0.0509749  0.0509082  0.0485554  
 0.0181742 0.00557222 0.000310818  0.0462351  0.0462772  0.0197446  
 0.0108661 0.00578086 0.000107564  0.0547081  0.0552214  0.0354489  
0.00789782  0.0119842 0.000420572  0.0283158  0.0303396  0.0269405  
0.00187878  0.0124584 0.000223853  0.0350316  0.0379361  0.0407887  
 0.0177889 0.00556123 0.000397268  0.0459313  0.0457362  0.0194239  
 0.0106458 0.00567748 0.000196895  0.0544367  0.0549835  0.0352043  
0.00760813  0.0120464 0.000404981  0.0282176   0.029891  0.0265512  
0.00173283  0.0124233 0.000233214   0.034928  0.0377546  0.0404529  
0.00968176 0.00932071 0.000253397  0.0406315  0.0422371  0.0313005  
0.00942398 0.00929896 0.000304685  0.0404427  0.0418996  0.0309845  
 0.0212139 0.00186288 -9.84168e-05  0.0584776  0.0584653  0.0201727  
 0.0142069 0.00964458 8.40303e-05    0.03597  0.0345007  0.0191666  
0.00219206  0.0144145 0.000137166  0.0228253  0.0265107  0.0344784  
0.000389414 0.00978944 -4.41792e-05  0.0514026  0.0508353  0.0488724  
 0.0182037 0.00582249 -2.46023e-05  0.0467659  0.0459708   0.019858  
 0.0107938 0.00603113 -6.82975e-05  0.0549823  0.0549768  0.0355205  
0.00789129  0.0122091 0.000113665  0.0289867  0.0301298  0.0271902  
0.00178949  0.0127108 3.37442e-05  0.0354517  0.0377528  0.0409838  
0.00964208  0.0095634 6.85238e-06  0.0410924  0.0419956  0.0314557  
 0.0139653 0.00220014 -1.51966e-05 -0.0568236 -0.0554572  0.0140305  
  0.008745   0.010133 0.000143396 -0.0301806 -0.0310682  0.0167644  
 0.0220989  0.0043785 0.000321061 -0.0319586 -0.0230839  0.0024966  
 0.0378651 -0.00869301 -0.000106651 -0.0562037 -0.0465379 -0.0140427  
 0.0118019 0.00611701 7.29413e-05 -0.0422733 -0.0426487  0.0158314  
  0.026813 -0.00356082 9.38006e-05 -0.0565875 -0.0512193 -0.000332165  
 0.0157768 0.00725903 0.000424859 -0.0296851 -0.0268561 0.00918135  
 0.0290512 -0.0017052 0.000454867 -0.0421126 -0.0337118 -0.00460703  
 0.0116094 0.00622909 5.67878e-05 -0.0426821 -0.0424051   0.016023  
 0.0266847 -0.00331805 -5.74705e-05 -0.0568546 -0.0509519 -0.000243112  
 0.0157292 0.00737195 0.000224747 -0.0306259 -0.0265841 0.00942955  
 0.0290629 -0.00139987 8.39024e-05 -0.0428954 -0.0333784 -0.00449389  
 0.0212517 0.00203435 0.000246548  -0.042392 -0.0379469 0.00504161  
 0.0211529 0.00223141 6.51787e-05 -0.0429686  -0.037653 0.00519434  
 0.0139241 0.00203193 0.000107433 -0.0563819 -0.0555135  0.0138186  
0.00865155  0.0102679 0.000168514 -0.0294463 -0.0310299  0.0164609  
 0.0214576 0.00437647 0.000671258 -0.0302891  -0.022309 0.00183076  
  0.037522 -0.0090456 0.000286526 -0.0553636 -0.0463104 -0.0142881  
 0.0113599  0.0063143 0.000123484 -0.0420334 -0.0421413  0.0157837  
 0.0262787 -0.00353822 0.00019335 -0.0559763 -0.0504803 -0.000559981  
 0.0152203 0.00764825 0.000229429 -0.0292921 -0.0256142 0.00894578  
 0.0284014 -0.00148411 0.000319287 -0.0413676 -0.0322251 -0.00506883  
 0.0115386 0.00621294 0.000138874 -0.0421021 -0.0424211  0.0157676  
 0.0264934 -0.00357758 0.000197376 -0.0562112 -0.0508698 -0.00047934  
 0.0153748 0.00747135 0.000399951  -0.029418 -0.0261468 0.00896748  
 0.0285876 -0.00160623 0.000479672 -0.0416387 -0.0328651 -0.00494413  
 0.0206895 0.00224564 0.000224869 -0.0418889 -0.0369596 0.00480603  
 0.0208805 0.00213418 0.00030293 -0.0420667 -0.0374239 0.00485691  
 0.0136726 0.00219921 -2.26511e-05 -0.0562253 -0.0552191  0.0138761  
0.00844812  0.0105733 -0.000105891 -0.0294587 -0.0307034  0.0166636  
 0.0214132 0.00480436 -2.30582e-05 -0.0300163 -0.0215891 0.00189974  
 0.0372106 -0.00888004 5.60698e-05 -0.0548557 -0.0456073 -0.0143654  
 0.0112576 0.00660234 -0.00026342 -0.0419893 -0.0422432  0.0160038  
 0.0261405 -0.00328086 -0.000158404 -0.0557298 -0.0503997 -0.000380588  
 0.0152718   0.008027 -0.00038556 -0.0292366  -0.025695 0.00925186  
 0.0284164 -0.0011239 -0.000266639 -0.0411137 -0.0321255 -0.00479018  
  0.011307 0.00645474 -6.25633e-05 -0.0420315  -0.042112  0.0159008  
 0.0262098 -0.00341084 1.50551e-05 -0.0558701 -0.0503641 -0.000487185  
 0.0152395 0.00783503 -6.88241e-05 -0.0292839 -0.0256165 0.00911082  
 0.0284061 -0.00130568 2.34542e-05 -0.0412563 -0.0321394 -0.00493928  
 0.0206505  0.0025695 -0.000274512 -0.0417333 -0.0369567 0.00505669  
 0.0206672  0.0024051 -2.18272e-05 -0.0418295 -0.0368962 0.00492901  
 0.0133599  0.0024541 -0.000136452 -0.0560909 -0.0555969  0.0140512  
0.00816085  0.0108806 -0.00037018 -0.0295635 -0.0314427  0.0167414  
 0.0213848 0.00530159 -0.000781433 -0.0299327 -0.0224056 0.00202879  
 0.0369224 -0.00855244 -0.000184228 -0.0544747 -0.0459544 -0.0141099  
 0.0106091 0.00686798 -0.00011337 -0.0421732 -0.0430523  0.0159986  
 0.0255619 -0.00293657 -8.1317e-05 -0.0555564 -0.0510463 -0.000220909  
 0.0145514 0.00844659 -0.000564066 -0.0295449 -0.0274264 0.00901096  
 0.0277725 -0.00060781 -0.000505353 -0.0410647 -0.0336145 -0.00482055  
 0.0110029 0.00674075 -0.000248065 -0.0420188 -0.0426648  0.0160314  
 0.0259075 -0.00311839 -0.000166174 -0.0556052 -0.0507352 -0.000269231  
 0.0150695 0.00823431 -0.000570391 -0.0292952 -0.0264147 0.00922411  
 0.0282398 -0.000883686 -0.000465684 -0.0410295   -0.03273 -0.00472422  
  0.019987 0.00296001 -0.000296372 -0.0417998 -0.0381154 0.00504167  
 0.0204274 0.00275814 -0.000358932 -0.0417012 -0.0374794  0.0051043  
 0.0131387 0.00255288 6.68672e-05 -0.0565014 -0.0555429  0.0141222  
0.00761246  0.0107736 0.000164161 -0.0304156  -0.031533  0.0167781  
 0.0203572 0.00538897 -0.000187828 -0.0315478 -0.0236151 0.00163015  
 0.0366807 -0.00824205 -5.17171e-05 -0.0550467 -0.0462009 -0.0140933  
 0.0106243 0.00674142 0.000114966 -0.0426335 -0.0426698  0.0160853  
 0.0256703 -0.00291682 1.12138e-05 -0.0561028 -0.0508386 -0.0002215  
 0.0142639 0.00821938 1.45174e-05 -0.0305349 -0.0270462 0.00904484  
 0.0276159 -0.000644408 -0.000121344 -0.0420908 -0.0334046 -0.00488187  
 0.0199219 0.00286813 1.26506e-05 -0.0425375 -0.0378026 0.00505909  
 0.0237255 -0.00962048 -1.9435e-05 -0.0756794 -0.0709828  0.0103262  
 0.0523453 -0.0210245 -6.80933e-05 -0.0552412 -0.0567508 -0.0261942  
 0.0238464 -0.00961008 3.1414e-05 -0.0760077 -0.0707665  0.0102867  
 0.0524929 -0.0208882 -3.65009e-05 -0.0558662 -0.0566985 -0.0262349  
 0.0389402 -0.0159405 -4.33419e-05 -0.0659018 -0.0644605 -0.00811309  
 0.0390746 -0.0158656 9.40016e-07 -0.0663734 -0.0643157 -0.00815035  
 0.0242097 -0.00992151 -9.02806e-05 -0.0757639 -0.0705997  0.0101591  
 0.0528305 -0.0213432 -7.15738e-05 -0.0554826 -0.0562024 -0.0263824  
 0.0239907 -0.00977776 -7.76032e-05 -0.0756919 -0.0708257  0.0102702  
 0.0526349 -0.0212074 -9.83288e-05 -0.0553319 -0.0564802 -0.0262546  
 0.0394386 -0.0162572 -8.37782e-05 -0.0660601 -0.0639828 -0.00830061  
 0.0392248 -0.0161146 -8.97559e-05 -0.0659508 -0.0642425 -0.0081763  
 0.0244759 -0.0101535 7.8083e-05  -0.075941 -0.0705829  0.0100404  
 0.0530226 -0.0214911 0.000164455 -0.0558087 -0.0564435 -0.0264217  
 0.0243431 -0.0100379 -5.76774e-06 -0.0758652 -0.0705259  0.0100737  
 0.0529219 -0.0214149 4.10669e-05 -0.0556561 -0.0562458 -0.0264406  
 0.0396743 -0.0164494 0.000120767 -0.0663081 -0.0640894 -0.00838011  
 0.0395541 -0.0163523 1.63165e-05 -0.0661956 -0.0639629 -0.00837354  
 0.0248558 -0.0101909 1.95037e-05 -0.0762743 -0.0709446  0.0102045  
  0.053654 -0.0214202 8.6066e-05 -0.0566236  -0.057443 -0.0260086  
 0.0246532 -0.0101969 7.12231e-05 -0.0760714 -0.0707969  0.0101191  
 0.0532816 -0.0214885 0.000169949 -0.0561344 -0.0569576 -0.0262276  
 0.0401829 -0.0164324 4.99234e-05 -0.0668782 -0.0647606 -0.00808644  
 0.0398953 -0.0164702 0.000118701 -0.0665349 -0.0644515 -0.00824027  
 0.0246623 -0.00997679 -1.92661e-05 -0.0764159 -0.0707436  0.0102322  
 0.0535446 -0.0211453 -7.61866e-05 -0.0568816  -0.057145 -0.0260647  
 0.0400215 -0.0161839 -4.62012e-05 -0.0670749 -0.0645081 -0.00809731  
 0.0294674 -0.00884615 -3.81269e-05  0.0744633  0.0747533  0.0233864  
-0.00255571 0.00771531 -1.30323e-05  0.0783094  0.0640718  0.0611158  
 0.0296405 -0.00872939 -3.47586e-05  0.0749314   0.074653  0.0234235  
-0.00243641 0.00777875 -1.53782e-05  0.0785861  0.0639549  0.0611356  
 0.0138694 -0.000882374 -2.3958e-05  0.0775656  0.0702261  0.0428806  
 0.0140155 -0.000796803 -2.26181e-05  0.0779275  0.0701137  0.0429063  
 0.0298324 -0.00915294 -7.88619e-05   0.074451  0.0744347  0.0232455  
-0.00231373 0.00747545 -6.38953e-05  0.0783056  0.0639671  0.0610087  
 0.0296667 -0.00901398 -7.80447e-05  0.0744143  0.0746264   0.023348  
-0.00243675 0.00759425 -4.9001e-05  0.0782776  0.0640521  0.0610886  
 0.0141749 -0.0011607 -7.18631e-05  0.0775596  0.0700204  0.0427518  
 0.0140287 -0.00102916 -6.26857e-05  0.0775267  0.0701568  0.0428456  
 0.0300438 -0.00933945 0.000150408  0.0746796  0.0745721  0.0232555  
-0.00209778 0.00725323 7.92816e-05  0.0784724  0.0639684  0.0609687  
 0.0299384 -0.00924565 2.82105e-05  0.0745728   0.074428  0.0232089  
-0.00220337 0.00736522 2.67491e-06  0.0783971  0.0639241  0.0609606  
  0.014395 -0.00137032 0.000112208  0.0777574   0.070084  0.0427336  
 0.0142863 -0.00126487 1.41228e-05  0.0776662  0.0699926  0.0427073  
 0.0305268 -0.00921025 7.22748e-05  0.0752745  0.0752655  0.0237473  
-0.00187102 0.00734829 5.34714e-05  0.0787953  0.0642169  0.0613422  
 0.0302524 -0.00931657 0.000149308    0.07492  0.0749487  0.0234955  
-0.00198664 0.00725913 8.65269e-05  0.0786036  0.0641125  0.0611431  
 0.0147437 -0.00126344 5.95758e-05  0.0782025  0.0705363   0.043159  
 0.0145535 -0.00135835 0.000114117  0.0779383   0.070336  0.0429386  
 0.0304275 -0.00894393 -6.4715e-05  0.0754928  0.0749964   0.023699  
-0.00197481  0.0075816 -2.48226e-05   0.078912  0.0640681  0.0613352  
 0.0146371 -0.00101361 -4.29364e-05  0.0783609  0.0703297  0.0431315  
 0.0304765 -0.00919585 7.18732e-05  0.0754083  0.0753218  0.0238514  
-0.00207537 0.00785556 5.7694e-05  0.0765912  0.0629288  0.0608133  
 0.0303768 -0.00892981 -6.46862e-05  0.0756259  0.0750522  0.0238031  
-0.00217862  0.0080895 -2.53594e-05  0.0767178  0.0627769  0.0608172  
 0.0142567 -0.000786487 6.12356e-05  0.0771355  0.0697898  0.0433663  
 0.0141508 -0.000537515 -4.29425e-05  0.0772971  0.0695827  0.0433444  
 0.0299928 -0.00932387 0.000150331  0.0748144  0.0746293  0.0233608  
-0.00230023 0.00775964 8.37897e-05   0.076278  0.0626805  0.0604381  
 0.0302018 -0.00930149 0.000149041  0.0750545  0.0750055  0.0236003  
-0.00219064  0.0077658 9.19717e-05  0.0764036   0.062825  0.0606114  
 0.0139105 -0.000892109 0.000113934  0.0766982  0.0693418  0.0429435  
 0.0140677 -0.000880688 0.000116246  0.0768753  0.0695917  0.0431461  
 0.0297809 -0.00913663 -7.88942e-05  0.0745856  0.0744922   0.023351  
-0.00250934 0.00798268 -6.93429e-05  0.0761227  0.0626832  0.0604833  
 0.0298871 -0.00922973 2.81648e-05  0.0747075  0.0744853  0.0233143  
-0.00240222 0.00787224 1.87388e-06  0.0762089  0.0626373  0.0604341  
 0.0136936 -0.000681315 -7.43179e-05  0.0765062  0.0692813  0.0429651  
 0.0138036 -0.000786018 1.36339e-05  0.0766101  0.0692519  0.0429198  
 0.0294154 -0.00882927 -3.80229e-05  0.0745977  0.0748107  0.0234918  
-0.00275639 0.00821964 -1.36752e-05  0.0761371  0.0627934  0.0605909  
 0.0296149 -0.00899733 -7.79911e-05  0.0745488  0.0746839  0.0234535  
-0.00263375 0.00810011 -5.2857e-05  0.0760995  0.0627717   0.060563  
 0.0133871 -0.00040509 -2.42078e-05  0.0765162  0.0694884  0.0430928  
 0.0135472 -0.000550544 -6.43708e-05  0.0764753  0.0694187  0.0430581  
 0.0295889 -0.00871357 -3.4529e-05  0.0750652  0.0747099  0.0235289  
-0.00264064  0.0082848 -1.56291e-05  0.0764137  0.0626695   0.060617  
 0.0135317 -0.000320689 -2.25666e-05  0.0768753  0.0693723  0.0431211  
 0.0250354  -0.010547 1.83945e-05 -0.0769594   -0.07155   0.010302  
 0.0537148 -0.0214882 8.49056e-05 -0.0566723 -0.0575853 -0.0260365  
 0.0248411  -0.010332 -1.91568e-05 -0.0770966 -0.0713516  0.0103254  
 0.0536042  -0.021214 -7.57975e-05 -0.0569293 -0.0572876 -0.0260931  
  0.040402  -0.016691 4.88573e-05 -0.0671767 -0.0650663 -0.00823614  
 0.0402399 -0.0164423 -4.60943e-05 -0.0673712 -0.0648146 -0.00824942  
 0.0246584 -0.0105112 7.57787e-05 -0.0766285 -0.0711951  0.0101361  
 0.0530848   -0.02156 0.000163251 -0.0558593 -0.0565889 -0.0264494  
 0.0248351  -0.010554 6.87913e-05 -0.0767583 -0.0714058  0.0102167  
 0.0533435  -0.021557 0.000168445 -0.0561843 -0.0571018  -0.026255  
 0.0398947 -0.0167098 0.00011925 -0.0666069 -0.0643975 -0.00853136  
 0.0401155 -0.0167298 0.000116948 -0.0668338 -0.0647586 -0.00839015  
 0.0243884 -0.0102804 -8.71821e-05 -0.0764512 -0.0712125  0.0102522  
 0.0528917 -0.0214133 -7.10956e-05 -0.0555339 -0.0563481 -0.0264112  
 0.0245237 -0.0103961 -5.38969e-06 -0.0765523  -0.071139  0.0101674  
 0.0529835 -0.0214844 4.07557e-05  -0.055707 -0.0563913 -0.0264689  
 0.0396571 -0.0165191 -8.21158e-05 -0.0663584 -0.0642903 -0.00845398  
 0.0397735 -0.0166134 1.64027e-05  -0.066494 -0.0642708 -0.00852626  
 0.0239075 -0.0099796 -1.81587e-05 -0.0763654 -0.0715877  0.0104213  
 0.0524073 -0.0210961 -6.727e-05 -0.0552944 -0.0568946  -0.026223  
 0.0241701 -0.0101369 -7.46488e-05 -0.0763791  -0.071435  0.0103644  
 0.0526962 -0.0212782 -9.74766e-05 -0.0553841 -0.0566252 -0.0262836  
 0.0391606 -0.0162034 -4.23136e-05    -0.0662 -0.0647639 -0.00826515  
 0.0394437 -0.0163771 -8.79781e-05 -0.0662493 -0.0645482 -0.00832906  
 0.0240298 -0.00996753 3.0404e-05 -0.0766892 -0.0713738  0.0103789  
 0.0525549 -0.0209596 -3.59262e-05 -0.0559174 -0.0568424 -0.0262635  
 0.0392956 -0.0161269 7.2171e-07 -0.0666697 -0.0646207 -0.00830359  
  0.063636    -0.0273 0.000898398 0.00153994 0.00849762 -0.0199859  
  0.053561 -0.0177405 -0.000975521   0.006402  0.0104176 -0.0129324  
 0.0628711 -0.0233576 -0.0011447 0.00118243 0.00768266 -0.0190205  
 0.0538312 -0.0148449 -0.00487589 0.00952193  0.0130599   -0.01768  
 0.0596685 -0.0230969 3.79617e-05 0.00391083 0.00967535 -0.0167721  
 0.0594529 -0.0194721 -0.00303988 0.00504558   0.010407 -0.0185236  
 0.0639341 -0.0279258 0.000424024 0.00207256 0.00859402    -0.0221  
 0.0531321 -0.0187807 7.33785e-05 0.00757424  0.0105704 -0.0149589  
  0.063807 -0.0274949 0.000407723 0.00196906 0.00843931 -0.0213844  
 0.0531667 -0.0182389 -0.00045914 0.00776983  0.0105852 -0.0146886  
 0.0596684 -0.0239106 0.000261984 0.00463382  0.0097263 -0.0188711  
 0.0596141 -0.0234134 -1.13246e-06 0.00467792 0.00964897  -0.018373  
 0.0639229  -0.027976 0.00050322 0.00223041 0.00870694 -0.0220963  
 0.0529681 -0.0191639 0.000702793 0.00767023  0.0106072 -0.0151838  
 0.0639218 -0.0279325 0.000444193 0.00216019 0.00864019 -0.0221736  
 0.0530526 -0.0189509 0.000343517 0.00773038  0.0105294 -0.0151372  
 0.0595872 -0.0241265 0.000616302 0.00475115 0.00979084 -0.0189843  
 0.0596241 -0.0239951 0.000408745 0.00475063 0.00972098 -0.0190066  
 0.0633992 -0.0275099 0.00153077 0.00249785 0.00915981 -0.0197353  
 0.0517683 -0.0192277 0.00298728 0.00716145  0.0105637 -0.0136889  
 0.0637426 -0.0276192 0.000662703 0.00238855 0.00893672 -0.0213025  
 0.0527324 -0.0190708 0.00125079 0.00799386  0.0109101 -0.0142727  
 0.0587834 -0.0239774 0.00229645 0.00453241  0.0099681 -0.0171346  
 0.0593649 -0.0238772 0.00096769 0.00499376  0.0100538  -0.018111  
  0.062891 -0.0235897 -0.000369917 0.00447642  0.0107937 -0.0176704  
 0.0507705 -0.0163986 0.00374073  0.0115193  0.0158069 -0.00658553  
 0.0577904 -0.0203019 0.00166458 0.00783516  0.0133533  -0.012186  
-0.00281761 0.00310306 0.000169063 -0.000873733 -0.00387746  0.0609444  
-0.00246697 0.00631854 0.000347749 -0.00162827 -0.0061034  0.0530395  
-0.00253889 0.00299787 5.09789e-05 -0.000818756 -0.0038172  0.0609528  
-0.00216299 0.00593402 0.000579501 -0.00168013 -0.0055144  0.0530351  
-0.0025682  0.0041945 0.000254911 -0.00139032 -0.00487901  0.0577243  
-0.00226973 0.00395624 0.000308547 -0.00139022 -0.00455988  0.0577293  
-0.00273995 0.00314938 -4.84669e-05 -0.000773288 -0.00416203  0.0608425  
-0.00221217 0.00641033 -8.03557e-05 -0.00138326 -0.00626088  0.0529446  
-0.00278568 0.00313681 4.25911e-05 -0.000806133 -0.00408358  0.0608994  
-0.00231665 0.00635573 0.000107653 -0.0015312 -0.00623278  0.0530042  
-0.00240861 0.00426072 -5.72353e-05 -0.00123148 -0.00511783    0.05762  
-0.00247992 0.00422871 7.97078e-05 -0.00131517 -0.00505871  0.0576829  
-0.00266742 0.00308039 -4.753e-05 -0.000706469 -0.00410579  0.0608215  
-0.0021007 0.00636809 -0.000140332 -0.00105688 -0.00596213  0.0529424  
-0.00268818 0.00311476 -5.6591e-05 -0.000737813 -0.00414437  0.0608343  
-0.00213948 0.00638148 -0.000106075 -0.00122606 -0.00611541  0.0529594  
-0.00232008 0.00420724 -8.80178e-05 -0.00104194 -0.00494826  0.0576089  
-0.00234829 0.00423041 -7.50706e-05 -0.00113769 -0.00504162  0.0576232  
-0.00266172 0.00300949 8.54095e-05 -0.00064967 -0.00375663  0.0609918  
-0.00209363 0.00639095 -0.000170615 -0.000811582  -0.005619  0.0532036  
-0.00266415  0.0030383 1.57587e-05 -0.000671677 -0.00397519  0.0609003  
-0.00208986 0.00631051 -0.000107894 -0.000958614 -0.00583226  0.0529795  
-0.00230897 0.00417959 -3.93552e-05 -0.000920199 -0.00461501  0.0578164  
-0.00231299 0.00416066 -4.12026e-05 -0.000976747 -0.00481907  0.0576695  
-0.0024308 0.00292532 -5.27376e-05 -0.000311101 -0.00356993  0.0610494  
-0.00183418 0.00617557 -0.000473184 -0.000966491 -0.00596997  0.0525195  
-0.00205958  0.0040516 -0.000271982   -0.00078 -0.00464518  0.0575215  
 0.0633986 -0.0275095 0.00153097 0.00249887 0.00916016 -0.0197346  
 0.0517666 -0.0192265 0.00298791 0.00716125  0.0105631 -0.0136876  
 0.0628905 -0.0235891 -0.000369794 0.00447772  0.0107942 -0.0176698  
 0.0507688 -0.0163967 0.00374087  0.0115204  0.0158073 -0.00658425  
 0.0587819 -0.0239763 0.00229679 0.00453337  0.0099685 -0.0171336  
 0.0577891 -0.0203005 0.00166472 0.00783667  0.0133539 -0.0121848  
 0.0639224 -0.0279755 0.000503253 0.00223134 0.00870721 -0.0220961  
 0.0529668 -0.0191628 0.000702855 0.00767032  0.0106071 -0.0151835  
 0.0637421 -0.0276188 0.000662813 0.00238954 0.00893699 -0.0213022  
  0.052731 -0.0190697 0.00125094 0.00799396  0.0109099 -0.0142723  
  0.059586 -0.0241254 0.000616342 0.00475214 0.00979124 -0.0189838  
 0.0593636 -0.0238762 0.000967828 0.00499476  0.0100541 -0.0181104  
 0.0639336 -0.0279253 0.000424018 0.00207339 0.00859437 -0.0220999  
 0.0531307 -0.0187795 7.34065e-05 0.00757415  0.0105703 -0.0149587  
 0.0639213  -0.027932 0.000444208 0.00216107  0.0086405 -0.0221735  
 0.0530513 -0.0189497 0.000343547 0.00773037  0.0105293 -0.0151369  
 0.0596672 -0.0239094 0.000261979 0.00463468 0.00972677 -0.0188707  
 0.0596228 -0.0239941 0.000408766 0.00475154 0.00972141 -0.0190061  
 0.0636355 -0.0272995 0.000898311 0.00154068 0.00849805 -0.0199858  
   0.05356 -0.0177393 -0.000975778 0.00640151  0.0104175 -0.0129323  
 0.0638065 -0.0274944 0.000407684  0.0019699 0.00843971 -0.0213844  
 0.0531654 -0.0182376 -0.00045919  0.0077697   0.010585 -0.0146884  
 0.0596674 -0.0230958 3.77862e-05 0.00391143 0.00967586 -0.0167718  
 0.0596129 -0.0234123 -1.18932e-06 0.00467876 0.00964943 -0.0183727  
 0.0628706 -0.0233569 -0.00114491 0.00118346 0.00768314 -0.0190206  
 0.0538301 -0.0148438 -0.00487616  0.0095215  0.0130598 -0.0176802  
 0.0594517  -0.019471 -0.00304013 0.00504642  0.0104074 -0.0185236  
-0.0035659 0.00865676 0.000124757 0.00524848 0.00890632  0.0555116  
-0.00339395 0.00396799 5.81674e-06  0.0019455 0.00213717  0.0626216  
-0.00713706 0.00722075 4.55865e-05 0.00363744 0.00644286  0.0654985  
-0.00243012 0.00705907 0.000550772 0.00154744 0.00303595  0.0526667  
-0.00545128 0.00752612 0.000385745  0.0042072 0.00746612   0.059627  
-0.00231713 0.00501228 0.000425097 0.000488431 0.000832996  0.0560665  
-0.00532346 0.00528396 0.000280206 0.00295483 0.00446322  0.0634278  
-0.00218896 0.00709504 0.000603934 0.00232825 0.00377451  0.0539301  
-0.00537693 0.00788643 0.000112739 0.00474834 0.00751615  0.0601376  
-0.00208108 0.00499644 0.000498961 0.00112306 0.00146316  0.0570985  
-0.00522177 0.00553084 4.66719e-05 0.00343781 0.00453714  0.0637643  
-0.0036472 0.00619927 0.000454013 0.00248976 0.00401229  0.0571932  
-0.00348986 0.00642037 0.000275729  0.0031284 0.00434292  0.0580193  
-0.00357771 0.00829952 0.000149355 0.00451437 0.00854036  0.0542017  
-0.00353193 0.00379479 8.54822e-05 0.00130496 0.00171916  0.0618712  
-0.00716812 0.00700754 0.000106392 0.00311279 0.00623942  0.0649575  
-0.00221423 0.00732249 -3.43823e-05 0.00182669  0.0028471  0.0525348  
-0.0053729  0.0077104 -1.64467e-05 0.00417981 0.00715588  0.0591444  
-0.00217434 0.00523845 -2.52274e-05 0.000674588 0.000580651  0.0559907  
-0.00529888  0.0054176 -1.488e-05 0.00286497 0.00410403  0.0630416  
-0.00229379 0.00727152 0.000129538 0.00174102 0.00290967  0.0526697  
-0.00540198  0.0076373 0.000135188 0.00414274  0.0072335  0.0592627  
-0.00222676 0.00519654 0.000106576 0.000614471 0.000668875  0.0561132  
-0.00531095 0.00536072 0.000101268   0.002865 0.00421333  0.0631476  
-0.00353401 0.00643342 -2.30063e-05  0.0025911 0.00371416  0.0569136  
-0.00357864 0.00637796 0.000118583 0.00254121 0.00379464  0.0570309  
-0.00353363 0.00842935 -8.85009e-05  0.0047408 0.00859534  0.0541261  
-0.0035358 0.00389107 -5.05639e-05 0.00135739 0.00163131  0.0617861  
-0.00719957 0.00713699 -4.59855e-05 0.00316461 0.00616477  0.0648729  
-0.00219927 0.00739507 -0.000153809 0.00214681 0.00314063  0.0525935  
-0.00544027 0.00783956 -0.000116142 0.00437509 0.00732224  0.0592115  
-0.00217011 0.00530116 -0.000110204 0.000899006 0.000788035  0.0560336  
-0.00538154 0.00553882 -7.3815e-05 0.00296499 0.00418762  0.0630887  
-0.00219196 0.00736656 -0.000106493  0.0020007 0.00297929  0.0525689  
-0.00539403 0.00777189 -6.61238e-05 0.00428343 0.00721989  0.0591822  
-0.00215567 0.00527693 -8.42896e-05 0.000797486 0.000670913  0.0560144  
-0.00532728 0.00547626 -4.8108e-05 0.00291937 0.00413236  0.0630637  
-0.00356411 0.00652946 -0.000118194 0.00280227 0.00390134  0.0569672  
-0.00353509 0.00648393 -7.8083e-05 0.00270538 0.00379341  0.0569416  
-0.00363891 0.00851925 -0.000122792 0.00497852 0.00885993  0.0542358  
-0.00362401 0.00395622 -1.73757e-05 0.00141692 0.00177102  0.0618734  
-0.00732232 0.00725133 -3.63296e-05  0.0032366 0.00628199  0.0649574  
-0.00229852  0.0073309 -1.03297e-05 0.00225811 0.00342356  0.0528145  
-0.00554035 0.00784085 -1.01026e-05 0.00441126 0.00742497  0.0593971  
-0.00222788 0.00524332 3.91403e-05 0.000929331 0.00108046  0.0562182  
-0.00544295 0.00554433 3.40482e-05 0.00292752 0.00432523   0.063232  
-0.00224121 0.00740329 -0.000137975 0.00226978 0.00325317  0.0526545  
-0.00550648 0.00787577 -8.09734e-05 0.00443558 0.00740687  0.0592823  
 -0.002195 0.00530183 -8.96241e-05 0.000983815 0.000887036    0.05609  
-0.00543176  0.0055668 -2.94501e-05 0.00298558 0.00426042  0.0631494  
-0.00365116 0.00650639 -6.16561e-06 0.00283837 0.00409225  0.0571572  
-0.0036113 0.00654668 -8.7157e-05 0.00287792 0.00400255  0.0570305  
-0.00354923 0.00842776 -6.28191e-05 0.00533809 0.00858912  0.0544584  
-0.00342257 0.00386706 -2.33594e-05  0.0015406 0.00175241  0.0619924  
-0.00722112 0.00728486 -6.96633e-05 0.00342386 0.00612719  0.0650288  
-0.0020073 0.00747367 -0.000489004 0.00244711 0.00284304  0.0528627  
-0.00541684 0.00788571 -0.000100829 0.00469704 0.00718967   0.059406  
-0.00192433 0.00532953 -0.000431623 0.00112768  0.0006721    0.05625  
-0.00527719 0.00555324 -7.03823e-05 0.00314629 0.00415561  0.0632306  
-0.00342581 0.00654612 -0.000229072 0.00307572  0.0037837  0.0571898  
-0.00289041  0.0122922 5.92944e-05  0.0115236  0.0166368    0.04804  
-0.00317017 0.00994819 0.000556858 0.00795776  0.0134689  0.0508171  
-0.0020965  0.0132266 0.000660508 0.00496783 0.00728349  0.0404781  
-0.00316456  0.0106364 6.56431e-05 0.00878184  0.0134048  0.0515325  
-0.00209761  0.0134122 0.000732433 0.00577122 0.00797455  0.0419686  
-0.00228525  0.0104557 0.00063167 0.00339672 0.00513314  0.0460048  
-0.0021284  0.0105067 0.000722035 0.00418977 0.00593957   0.047421  
-0.00284661  0.0118348 0.000222276  0.0107954  0.0165045    0.04693  
-0.00309784  0.0102651 -8.45243e-06 0.00810107  0.0131169  0.0501658  
-0.00185474  0.0136831 -8.15255e-05 0.00553254 0.00738158  0.0403173  
-0.00313804  0.0101748 0.000192397 0.00800927  0.0131745  0.0502925  
-0.00193953   0.013566 0.000129288 0.00531475 0.00733731    0.04037  
-0.00202862  0.0108027 -5.8333e-05 0.00382172 0.00511327  0.0458652  
-0.00211414  0.0107209 0.000131967 0.00366484 0.00511921  0.0459633  
-0.00282949  0.0120286 -0.000100154  0.0110632  0.0165249  0.0468722  
-0.00313271  0.0104234 -0.000206592 0.00839754  0.0133801  0.0502749  
-0.00180603   0.013797 -0.000319724 0.00595802 0.00781445  0.0404198  
-0.00310685  0.0103411 -9.43107e-05 0.00825549  0.0132134  0.0502302  
-0.0018224   0.013745 -0.000196923 0.00576246 0.00757074  0.0403997  
-0.0019915  0.0108959 -0.000238952 0.00420867 0.00549163  0.0459464  
-0.00199789  0.0108566 -0.000155199 0.00403147 0.00528204  0.0459218  
-0.00298622  0.0121772 -0.000200903  0.0113506   0.016919  0.0470196  
-0.00334514  0.0104505 -0.000104796  0.0086011  0.0135149  0.0505298  
-0.00205992  0.0136766 -0.000162981  0.0063348 0.00822115   0.040561  
-0.00324061  0.0104661 -0.000165114 0.00851982  0.0135512  0.0503634  
-0.00189952  0.0137924 -0.000317599 0.00622083 0.00804073  0.0404156  
-0.00216701  0.0108027 -8.74061e-05 0.00445097 0.00585268  0.0461356  
-0.00205864  0.0108989 -0.000233514 0.00440581 0.00565318  0.0459751  
-0.00308304  0.0121567 1.94866e-05  0.0118012  0.0167315  0.0472195  
-0.00324787  0.0103965 1.38398e-06 0.00893734  0.0133459  0.0505758  
-0.00199581  0.0137137 -0.000347199  0.0067597 0.00734091  0.0407373  
-0.00199395  0.0109248 -0.000465289 0.00476158 0.00503332  0.0462366  
0.00749608  0.0154884 0.000844449  0.0112204  0.0111513   0.017712  
 0.0030982  0.0177855 0.000628474 0.00457996  0.0051612  0.0187361  
0.00683849  0.0161448 0.00152795 0.00534233 0.00595465  0.0139699  
0.00343929  0.0167722 0.00112646  0.0055686 0.00592778  0.0196763  
0.00714315   0.013712 0.00390638 0.00738655 0.00875052  0.0167765  
0.00409151  0.0181628 0.000226034 0.00351474 0.00344556  0.0156171  
0.00410274  0.0155533  0.0024531 0.00395816 0.00463146  0.0164797  
0.00609592  0.0170568 0.000540581  0.0100056 0.00927107  0.0173988  
0.00322768  0.0188474 -0.000275052 0.00599972 0.00531723  0.0198141  
0.00740187  0.0171808 -2.7015e-05 0.00647286 0.00598786  0.0151388  
0.00315462  0.0185112 4.70669e-05 0.00570046 0.00512378  0.0193373  
0.00735665   0.016664 0.000504984 0.00649396 0.00591407  0.0148605  
0.00410735  0.0190706 -0.000261326 0.00442539 0.00386946  0.0172271  
0.00415587  0.0186339 -2.8951e-05 0.00436511 0.00368584   0.016723  
0.00630211  0.0176458 -0.000312987  0.0103214 0.00939435  0.0179005  
0.00330245  0.0190231 -0.000553227 0.00627849 0.00563257  0.0199236  
0.00759908  0.0175507 -0.000677729 0.00663368 0.00611899  0.0153501  
0.00324474  0.0189426 -0.000389419 0.00613681 0.00549117  0.0199027  
0.00750043   0.017352 -0.000340846 0.00661596 0.00598953  0.0153012  
0.00422051  0.0192584 -0.000610563 0.00461187  0.0040251   0.017333  
0.00415735  0.0191576 -0.000425626 0.00456326 0.00392338  0.0173369  
0.00669378  0.0177937 -0.00127122   0.010754  0.0100725  0.0175192  
0.00379932  0.0185101 -0.00151109 0.00732256 0.00741802  0.0181431  
0.00867762  0.0175573 -0.00293539 0.00640908 0.00664887  0.0136932  
0.00351334  0.0189004 -0.000967816  0.0066366 0.00606803  0.0194197  
 0.0079689  0.0174762 -0.0013721 0.00693924 0.00636702  0.0146901  
0.00504296  0.0189077 -0.00214954 0.00472917 0.00449112  0.0154744  
0.00449947  0.0190461 -0.00103317 0.00486886 0.00421101  0.0166646  
0.00517506  0.0161801 0.000199171  0.0142989  0.0131272  0.0164372  
0.00243737  0.0174303 0.000183704 0.00897837 0.00704091  0.0189027  
0.00937188  0.0147907 -0.00269842  0.0102395  0.0102582 0.00903524  
0.00516636  0.0162095 -0.000965348 0.00719094 0.00616157  0.0131398  
 0.0058963  0.0152728 0.000559696 -0.00656278 -0.00646716  0.0162606  
0.00645074  0.0164608 0.000888252 -0.000557759 -0.00182333  0.0135204  
0.00294967  0.0180494 -0.000266838 0.000370068 -0.00180914  0.0186721  
0.00627418  0.0137829 0.00356401 -0.00322799 -0.00342717  0.0158437  
0.00299184  0.0168651 0.000276621 -0.00148845 -0.00269403  0.0182181  
0.00414894  0.0183154 -0.000288159 0.00162401 0.000125899  0.0154233  
0.00392167  0.0155709 0.00200756 9.5439e-05 -0.000871032  0.0156436  
0.00489832  0.0172236 0.000131659 -0.00462317 -0.00538401  0.0169669  
 0.0066952  0.0174129 -0.000105805 -0.00125374 -0.00125695   0.014876  
0.00282039  0.0188212 -0.000394314 -0.000819089 -0.00172069  0.0196207  
0.00667573  0.0169338 0.00031048 -0.00138461 -0.00131028  0.0145115  
0.00283847    0.01852 -0.000260608 -0.000594304 -0.0016764  0.0191389  
0.00397635  0.0190833 -0.000330098 0.00086677 0.000281226  0.0169583  
0.00405672   0.018662 -0.000174681 0.000841176 0.00028927  0.0164372  
 0.0049406  0.0177223 -0.00036944 -0.00485684 -0.00538488  0.0175148  
0.00683385  0.0177596 -0.000668624 -0.00134654 -0.00134806  0.0150602  
 0.0027672  0.0189507 -0.000479661 -0.00107938 -0.00204576  0.0196773  
0.00675423  0.0175791 -0.00037056 -0.00135881 -0.00122499  0.0150153  
0.00277701   0.018885 -0.000407777 -0.000951661 -0.00188845  0.0197036  
0.00402799  0.0192498 -0.000586939 0.000722678 0.000143893  0.0170383  
0.00399062  0.0191556 -0.000434565 0.000749049 0.000254369    0.01706  
0.00516459  0.0178058 -0.00106888 -0.00529355 -0.00622566  0.0170182  
0.00789973  0.0177237 -0.00290595 -0.00106975 -0.00213856  0.0131733  
0.00307252  0.0183966 -0.00108919 -0.00225159 -0.00430796  0.0176362  
0.00713961  0.0176706 -0.00126801 -0.00163377 -0.00172838  0.0143346  
 0.0028897  0.0187744 -0.000718717 -0.00148394 -0.00262236  0.0191293  
0.00481682  0.0188748 -0.00204122 0.00066377 -0.000744751  0.0150221  
0.00425653  0.0190104 -0.000908773 0.000446634 -0.000197086   0.016328  
0.00312065  0.0163583 0.000746962 -0.0089626 -0.00896045  0.0163023  
0.00816127   0.015039 -0.00223592 -0.00536546 -0.00596605 0.00903201  
0.00152864  0.0170448 0.00111048 -0.00419009 -0.00376118  0.0185133  
0.00473925  0.0160595 -0.000489542 -0.0024049 -0.00264964  0.0126869  
0.00312024  0.0163661 0.000739883 -0.00887777 -0.00890884  0.0161605  
0.00791455  0.0177526 -0.00292125 -0.000960815  -0.002009  0.0131671  
0.00309043  0.0184124 -0.00110895 -0.00213804 -0.00422356  0.0176103  
0.00820984  0.0150368 -0.00229197 -0.00527443 -0.00588913 0.00891454  
0.00152421  0.0170432 0.00111523 -0.00410084 -0.00370528  0.0184827  
0.00481966  0.0188906 -0.00204698 0.000717001 -0.000690087  0.0150137  
0.00475125   0.016056 -0.000500988 -0.00235483 -0.00260741  0.0126417  
0.00517301  0.0178617 -0.00107982 -0.00511829 -0.00603703  0.0169429  
 0.0068347  0.0177866 -0.000671025 -0.00125993 -0.00125864  0.0150431  
0.00275711  0.0189717 -0.000478769 -0.000975731 -0.00196977  0.0196691  
0.00714267  0.0176952 -0.00127051 -0.00154637 -0.00163467  0.0143128  
 0.0028841   0.018793 -0.00071908 -0.00137684 -0.00253675  0.0191197  
0.00402473  0.0192648 -0.000587178 0.000767251 0.000184485  0.0170291  
0.00425435  0.0190238 -0.000908606 0.000492174 -0.000154264  0.0163176  
0.00493759  0.0177819 -0.000372312 -0.00468823 -0.00521345  0.0174437  
0.00669385  0.0174399 -0.000105704 -0.00116862 -0.00117036  0.0148581  
0.00281165  0.0188438 -0.000396664 -0.000715601 -0.00164679  0.0196159  
0.00675408  0.0176059 -0.000371484 -0.00127449 -0.0011364  0.0149984  
0.00276796  0.0189069 -0.000409055 -0.000848074 -0.00181124  0.0196962  
0.00397284   0.019099 -0.000330997 0.000910536 0.000320408  0.0169491  
0.00398735  0.0191708 -0.000435195 0.000792728 0.000294348  0.0170513  
0.00489403   0.017279 0.00013171 -0.00446366 -0.00520992  0.0168865  
0.00644658  0.0164897 0.000882929 -0.000474358 -0.00171829  0.0134728  
0.00293681  0.0180683 -0.000268973 0.000483625 -0.00172848  0.0186541  
0.00667576  0.0169585 0.000310577 -0.00130431 -0.00122332  0.0144949  
0.00283114  0.0185418 -0.000265558 -0.000493952 -0.00159767  0.0191278  
0.00414769   0.018333 -0.000296862 0.00166437 0.000170001  0.0154007  
0.00405423  0.0186768 -0.000176613 0.00088291 0.000327764  0.0164278  
0.00593418  0.0152715 0.000580542 -0.00643577 -0.00634579  0.0161525  
0.00625722  0.0137744 0.00362339 -0.00314259 -0.00334701  0.0158528  
0.00298925  0.0168681 0.00027846 -0.00137924 -0.00262547  0.0181936  
0.00391509  0.0155709  0.0020214 0.000145046 -0.00083066  0.0156281  
0.00513969  0.0161936 0.000202037  0.0142529  0.0131046  0.0164302  
0.00378204  0.0185211 -0.0015128 0.00727892 0.00737996  0.0181607  
0.00865431  0.0175782 -0.00293236 0.00637633 0.00660054  0.0137081  
0.00241252  0.0174368 0.000185765 0.00893843 0.00700371  0.0189224  
0.00936547  0.0148016 -0.00270878  0.0101954  0.0102137 0.00902186  
0.00503522  0.0189158 -0.00214775 0.00471216 0.00446718  0.0154771  
 0.0051629  0.0162127 -0.000966441  0.0071686 0.00613689  0.0131333  
0.00665312    0.01783 -0.00127103  0.0106878  0.0100216  0.0175268  
0.00327812  0.0190357 -0.000552669 0.00624135 0.00560701  0.0199429  
0.00757709  0.0175732 -0.000679179 0.00660034 0.00608453   0.015357  
0.00348834  0.0189122 -0.000965321 0.00659782  0.0060376  0.0194392  
 0.0079462  0.0174974 -0.00137168 0.00690642 0.00633167   0.014694  
0.00421354  0.0192668 -0.000610813  0.0045962 0.00400869  0.0173321  
0.00449209  0.0190537 -0.00103214 0.00485307 0.00419391  0.0166627  
  0.006261  0.0176846 -0.000314724  0.0102559 0.00935016  0.0179095  
0.00320403  0.0188612 -0.000276369 0.00596154 0.00529188  0.0198348  
0.00737871  0.0172038 -2.77545e-05 0.00644022 0.00595396  0.0151449  
0.00322079   0.018956 -0.000390098 0.00609919 0.00546425  0.0199227  
0.00747786  0.0173746 -0.000341691 0.00658336 0.00595542  0.0153081  
0.00410016  0.0190795 -0.000261955 0.00441015 0.00385359  0.0172261  
0.00415031  0.0191662 -0.00042603 0.00454801  0.0039072  0.0173363  
0.00605792  0.0170948 0.000534642 0.00994236 0.00922227  0.0174036  
 0.0030728  0.0177992 0.000623904 0.00454143 0.00512187  0.0187507  
0.00681883  0.0161683 0.00151731 0.00531066 0.00590735  0.0139645  
0.00313259  0.0185253 4.26139e-05 0.00566412 0.00509488  0.0193564  
0.00733541  0.0166863 0.000502126 0.00646101 0.00587931   0.014867  
0.00408729  0.0181724 0.000219234 0.00350223 0.00342415  0.0156129  
0.00414966  0.0186426 -3.09713e-05 0.00435024 0.00366957  0.0167221  
0.00746533  0.0155086 0.00084908  0.0111541  0.0111155   0.017698  
0.00341613  0.0167795 0.00112704 0.00552469   0.005896  0.0196853  
0.00711126  0.0137251 0.00392003 0.00734664 0.00870821  0.0167847  
0.00409225   0.015558 0.00245559 0.00393943 0.00460946  0.0164733  
 0.0358297 -0.0035911 0.000726702  -0.022706 -0.0122181 -0.0036871  
  0.049367  -0.013597 0.000747808 -0.0215346 -0.00821945  -0.011651  
 0.0285807 -0.000954207 0.00299122 -0.00640297 -0.00142531 -0.00200845  
 0.0398153 -0.00971267 0.00331996 -0.0167915 -0.00744455 -0.00779295  
 0.0486014 -0.0167917 0.00288017 -0.0065001  0.0019706 -0.0132804  
 0.0281138 -0.00112899 0.00569606 -0.0113707 -0.00633947 0.00530066  
 0.0424539 -0.00847475 0.000846322 -0.0221404 -0.0104674 -0.00741031  
 0.0467752 -0.0139167  0.0044693 -0.0110159 -0.00253712 -0.00521932  
 0.0380974 -0.00840337 0.00297824 -0.00634303 0.000144607 -0.00727428  
 0.0365967 -0.00689798 0.00540869 -0.0112069 -0.00446076 0.00107244  
 0.0341823 -0.00426265 0.00128139 -0.0177596 -0.00727885 -0.00602479  
 0.0483176 -0.0153504 0.00126902 -0.0168378 -0.00329923 -0.0147058  
 0.0297892 -0.000326345 0.000510289 -0.00713467 -0.000986733 -0.00218372  
 0.0413416 -0.00942806 0.000444232 -0.0168796 -0.00503874 -0.0104533  
 0.0495885 -0.0165614 0.000668446 -0.00717349 0.00195885 -0.0144354  
 0.0295312 -0.000592548  0.0013111 -0.00758272 -0.00119681 -0.00165997  
 0.0410178 -0.00955681 0.00130026 -0.0172003 -0.00537762 -0.0101484  
 0.0492979 -0.0165235 0.00131773 -0.00758119 0.00168827 -0.0135576  
 0.0391448 -0.00790471  0.0006045 -0.00709707 0.000317219 -0.00784895  
 0.0388786 -0.00802311 0.00134502 -0.0075215 8.58806e-05 -0.00714696  
 0.0345253 -0.00382325 0.000104657 -0.0173319 -0.00677304 -0.00618904  
 0.0486125 -0.0151026 0.000274444 -0.0163751 -0.00279115 -0.0151104  
 0.0300073 0.000232253 -0.000387021 -0.00702596 -0.000932341 -0.00183231  
 0.0413154 -0.00896177 -4.55012e-05 -0.0166586 -0.00493374 -0.0103375  
 0.0497554  -0.016128 -4.25346e-05 -0.00703318  0.0020299 -0.0141601  
 0.0298894 -3.12695e-05 3.89409e-05 -0.00720154 -0.000837558 -0.00200599  
 0.0413323 -0.00919635 0.000188869 -0.0167525 -0.00486685 -0.0104265  
 0.0496554 -0.0163313 0.000312401 -0.00722435 0.00205751 -0.0143457  
 0.0393598 -0.00740458 -0.000238727 -0.0069684 0.000385625 -0.0075238  
 0.0392398 -0.00764285 0.000177953 -0.00716099 0.000446072 -0.00772835  
 0.0348395 -0.0031394 -0.0010925 -0.0172766 -0.00705974 -0.00579332  
 0.0487616 -0.0144077 -0.000619895 -0.0162598 -0.00285503 -0.0145015  
 0.0315001 0.00118482 -0.00324776 -0.00562144 -0.00110909 -0.0016337  
 0.0428076 -0.00789536 -0.00297271 -0.0156867 -0.00688386  -0.010918  
 0.0503867 -0.0150736 -0.00152396 -0.00602291 0.00237479 -0.0121899  
 0.0302662 0.000619153 -0.00127114 -0.00730694 -0.00111897 -0.00207872  
 0.0415612  -0.008501 -0.000883841 -0.0166789 -0.00504859 -0.00994935  
 0.0497831 -0.0155685 -0.00058165 -0.00723343 0.00193259 -0.0139127  
 0.0403552 -0.00635143 -0.00243803 -0.00580882 0.000589398 -0.00627876  
 0.0394936 -0.00693089 -0.000953942 -0.0072322 0.000222686 -0.00760012  
 0.0324419 -0.00186178 -0.00102025 -0.0208257 -0.0121779 -0.00668858  
 0.0469944 -0.0121026 -0.00167138 -0.0187473 -0.00694233 -0.0150541  
 0.0314512 0.00112305 -0.00577495 -0.0113968 -0.00716616 -0.00892308  
 0.0394131 -0.00672436 -0.00145161 -0.0199016 -0.00989523 -0.0109048  
 0.0505497 -0.0122092 -0.00551778 -0.00890945 -0.00175354 -0.0175742  
 0.0408084 -0.00504051 -0.00597772 -0.00994047 -0.00460442 -0.0132128  
-0.00245091  0.0131689 -1.31275e-05 0.00877236  0.0117558  0.0431795  
-0.00322886 0.00873025 -0.000116703 0.00471468 0.00806085  0.0527326  
-0.00173096  0.0141524 -0.000176758 0.00499084 0.00612867   0.038451  
-0.00292796   0.011226 -0.000146255 0.00654454   0.010206  0.0478021  
-0.00235104 0.00766369 -9.29925e-06 0.00243133 0.00323628  0.0520652  
-0.00166667  0.0142019 -0.000471581 0.00542547 0.00499122  0.0386565  
-0.00283194  0.0111551 -7.78014e-05 0.00696231 0.00988828   0.047872  
-0.00205899 0.00781314 -0.000539357 0.00264533 0.00260566  0.0520935  
-0.00198278  0.0110548 -8.78858e-05 0.00400513 0.00486553  0.0449295  
-0.00179441  0.0111899 -0.00054829 0.00431543 0.00392488  0.0450407  
-0.00233171  0.0133264 -0.000285016 0.00819228  0.0120175  0.0428953  
-0.00331361 0.00879489 -0.000141781 0.00435235 0.00839447  0.0524908  
-0.0014828  0.0143154 -0.000341663 0.00458068 0.00563667   0.038342  
-0.00271381  0.0112352 -0.000240589 0.00630933  0.0100121  0.0475379  
-0.00224971 0.00772932 -0.000160776 0.00231437 0.00293956  0.0518384  
-0.0015676  0.0142956 -0.000349709 0.00487933 0.00586776  0.0383104  
-0.00281428  0.0112633 -0.00021184 0.00647586  0.0102092  0.0475999  
-0.00228912  0.0077358 -0.000151306 0.00244637  0.0030534  0.0518942  
-0.00180488  0.0111622 -0.000249446 0.00375179 0.00445807  0.0447494  
-0.00186726  0.0111595 -0.000249443 0.00396438 0.00462111  0.0447715  
-0.00221344  0.0132165 -0.000155142 0.00779048  0.0115207  0.0428057  
-0.00321341 0.00870788 -9.77895e-05 0.00408972 0.00810878   0.052381  
-0.00155053  0.0142188 -0.000112967 0.00412107 0.00516045  0.0382459  
-0.0027131  0.0110975 -3.7018e-05 0.00595702 0.00969113  0.0474364  
-0.0022731 0.00765799 -3.52366e-05  0.0019809 0.00263016  0.0517749  
-0.00151006  0.0142748 -0.000224653 0.00437121 0.00537638  0.0383306  
-0.00270476  0.0111651 -0.000126858 0.00614055 0.00982167  0.0474974  
-0.00224559 0.00770171 -0.000112482 0.00216153 0.00276989  0.0518115  
-0.00185301  0.0110765 -6.95487e-05 0.00334824 0.00405811  0.0446688  
-0.0018172  0.0111282 -0.000167025 0.00356722 0.00423868  0.0447287  
-0.00228972  0.0130049 0.000202466 0.00740476  0.0113869  0.0427953  
-0.00327189 0.00857188 0.000156792 0.00383633 0.00804212  0.0524508  
-0.00184674  0.0137016 0.000675848 0.00341655 0.00491248  0.0382231  
-0.00285465  0.0106623 0.000677547 0.00566049  0.0099598  0.0479612  
   -0.0025 0.00738713 0.00055635 0.00169348 0.00279628  0.0518807  
-0.00165215   0.014097 9.88167e-05 0.00386915 0.00508256  0.0382712  
-0.00277508  0.0109955 0.000179407 0.00581842  0.0097141  0.0475292  
-0.00235481 0.00760477 0.000131461 0.00188296 0.00268651  0.0519103  
-0.0021384  0.0107062 0.000638825 0.00286238 0.00401632  0.0447224  
-0.00194761  0.0109947 0.000123039 0.00317399 0.00404889  0.0447632  
 -0.002364  0.0133428 0.000250819 0.00815596  0.0116971  0.0443797  
-0.00327286 0.00888003 0.000199481 0.00458474 0.00848001  0.0538164  
 -0.001851  0.0137811 0.000947127 0.00427701 0.00589206  0.0400058  
-0.00283257  0.0113431 0.000237092 0.00657429  0.0100847  0.0490491  
-0.00225125 0.00738786 0.000671683 0.00243034 0.00358521  0.0531923  
-0.00196637  0.0106965 0.000841719 0.00367518 0.00497855  0.0462783  
  0.032448 -0.00186349 -0.00103029 -0.0207813 -0.0121527 -0.0066977  
  0.046993 -0.0120996 -0.00167496 -0.0187353 -0.00693702 -0.0150517  
 0.0315047 0.00118477 -0.00324969 -0.00558753 -0.00107457 -0.00162295  
 0.0428066 -0.00789136 -0.00297607 -0.0156501 -0.00685822 -0.0109052  
 0.0503833 -0.0150707 -0.0015238 -0.0060167 0.00237779 -0.0121844  
 0.0314641 0.00112542 -0.0057945 -0.0113644 -0.00714727 -0.00893693  
 0.0394131 -0.00672205 -0.00145929 -0.0198754 -0.0098809  -0.010906  
 0.0505466 -0.0122065 -0.00552023 -0.00890538 -0.00175218 -0.0175736  
 0.0403557 -0.00635226 -0.00243729 -0.00579293 0.000601947 -0.00627354  
 0.0408125 -0.00503799 -0.00598526 -0.00992257 -0.00459232 -0.0132156  
 0.0348445 -0.00313707 -0.00109447 -0.0172184 -0.00701266 -0.00578679  
 0.0487589  -0.014406 -0.000620176 -0.0162463 -0.00284834 -0.0144948  
 0.0300093 0.000232128 -0.000387625 -0.00699711 -0.000912162 -0.00183076  
 0.0413116 -0.00895858 -4.56909e-05  -0.016626 -0.00491263 -0.0103295  
 0.0497517 -0.0161251 -4.26999e-05 -0.00702778 0.00203202 -0.0141562  
 0.0302678 0.000619034 -0.00127136 -0.00727952 -0.00109805 -0.00207805  
 0.0415579 -0.00849766 -0.000884697 -0.0166468 -0.00502692 -0.00994118  
 0.0497794 -0.0155656 -0.000581939 -0.00722822 0.00193451  -0.013909  
 0.0393604 -0.00740451 -0.00023904 -0.00695277 0.000394885 -0.00752141  
 0.0394942 -0.00693096 -0.000954146 -0.00721711 0.000231878 -0.00759805  
 0.0345286 -0.00382144 0.000104632 -0.0172732 -0.00672758 -0.00618197  
 0.0486097 -0.0151011 0.000274409 -0.0163616 -0.0027844  -0.015104  
 0.0297904 -0.000326505 0.000510455 -0.00710639 -0.000966891 -0.00218206  
 0.0413378 -0.00942503 0.000444108  -0.016847 -0.00501761 -0.0104452  
 0.0495847 -0.0165585 0.000668455 -0.00716842 0.00196098 -0.0144319  
  0.029891 -3.16803e-05 3.90501e-05 -0.00717369 -0.000817001 -0.00200458  
 0.0413283 -0.00919329 0.000188853   -0.01672 -0.00484539 -0.0104182  
 0.0496516 -0.0163283 0.000312311 -0.00721907 0.00205956  -0.014342  
 0.0391451 -0.00790473 0.000604461 -0.00708179 0.000326561 -0.00784687  
 0.0392403 -0.00764294 0.000177963 -0.00714579 0.000455298 -0.00772617  
 0.0341841 -0.00426162 0.00128329 -0.0177014 -0.00723106 -0.00601822  
 0.0483146 -0.0153491 0.00126942 -0.0168243 -0.00329211 -0.0146991  
 0.0285762 -0.000954993 0.00299426 -0.00637144 -0.00139312 -0.00200759  
 0.0398064 -0.00970998 0.00332519 -0.0167571 -0.00742077 -0.0077809  
 0.0485974 -0.0167889 0.00288013 -0.00649432 0.00197356 -0.0132774  
 0.0295326 -0.000593264 0.00131173 -0.00755512 -0.00117551 -0.00165852  
 0.0410132 -0.0095542 0.00130126 -0.0171678 -0.00535506 -0.0101401  
  0.049294 -0.0165207 0.00131792 -0.00757585 0.00169065 -0.0135538  
 0.0380965 -0.00840366 0.00297837 -0.00632439 0.000159352 -0.00727374  
 0.0388788 -0.00802331 0.00134538 -0.00750636 9.5412e-05 -0.0071446  
 0.0358341 -0.00358919 0.000736837 -0.0226622 -0.0121874 -0.00366122  
 0.0493608 -0.0135937 0.000751308 -0.0215225 -0.00821445 -0.0116374  
 0.0281048 -0.00112605 0.00571509 -0.0113458 -0.00632306 0.00532811  
 0.0424458 -0.00846992 0.000853872 -0.0221127 -0.0104514 -0.00738912  
 0.0467699 -0.0139136 0.00447193 -0.0110104 -0.00253373 -0.00521194  
 0.0365923 -0.00689617 0.00541606 -0.0111916 -0.00445125 0.00108581  
0.00587786  0.0135321 0.000240907 -0.0188253 -0.0192119  0.0174676  
-0.00168559  0.0124274 0.000231404 -0.0203266 -0.0279461  0.0343906  
0.00262906  0.0152722 -0.000318593 -0.0119917 -0.0151922  0.0223179  
-0.000390113  0.0143279 -6.66254e-06 -0.0136675 -0.0197351  0.0302675  
0.00726062  0.0124728 -0.000404272 -0.0236959 -0.0253082  0.0167998  
0.00276221  0.0120664 -8.15264e-05 -0.0246301 -0.0298769  0.0259837  
0.00235959  0.0146887 0.000429864 -0.0128306 -0.0147055  0.0226768  
-0.000426229  0.0139337 0.000378189 -0.0141186  -0.019228  0.0305395  
0.00706772  0.0120895 0.000195896 -0.0244986 -0.0248367  0.0170207  
0.00275203  0.0118213 0.000204517 -0.0250313 -0.0294525  0.0261388  
0.00294283   0.013638 -0.000199062  -0.018081 -0.0224181  0.0243945  
0.00281883  0.0132389 0.000291995 -0.0186874 -0.0219274  0.0246243  
0.00677963  0.0140054 -0.000653453 -0.0172616 -0.0185983  0.0176101  
-0.00141804  0.0125965 -0.000140954 -0.0198502 -0.0281485   0.034279  
0.00340042  0.0152534 -0.000509697 -0.0110712 -0.0136878  0.0229676  
0.000264423  0.0143012 -0.000361635 -0.0129917 -0.0189291  0.0306009  
0.00805489  0.0122523 -0.00045307 -0.0230651 -0.0237554  0.0172112  
0.00343247  0.0118693 -0.000314869 -0.0242179 -0.0290663  0.0260963  
0.00313629  0.0152745 -0.000490741 -0.0114329 -0.0144679   0.022727  
1.31015e-05  0.0143187 -0.000241049 -0.0132697 -0.0193702  0.0304692  
 0.0077992  0.0123758 -0.000524345 -0.0232765 -0.0244938   0.017073  
0.00316829  0.0119769 -0.000257439 -0.0243597 -0.0294995  0.0260682  
0.00364671   0.013526 -0.0004078  -0.017419 -0.0212613  0.0247643  
0.00340159  0.0135936 -0.00037898 -0.0176624 -0.0218275  0.0246234  
0.00694267  0.0137226 -0.000200428 -0.0169322  -0.017564  0.0177456  
-0.00108481     0.0124 -0.000136266  -0.019572 -0.0276324  0.0342415  
0.00333013  0.0149803 -5.95527e-05 -0.0108126 -0.0133291  0.0227816  
0.000351684  0.0140712 -8.9141e-05 -0.0126774 -0.0185392  0.0304521  
0.00801001  0.0119145 9.9742e-05 -0.0229874 -0.0235489  0.0169507  
0.00352235  0.0115888 3.76872e-05 -0.0240665 -0.0288144  0.0258866  
0.00334882  0.0151166 -0.000255338 -0.0109638 -0.0134945  0.0229203  
0.00030556  0.0141868 -0.000209724 -0.0128462 -0.0186752   0.030558  
0.00801968  0.0120763 -0.000153606 -0.0230549 -0.0235977  0.0171069  
0.00347726  0.0117252 -0.000126647 -0.0241608 -0.0288696  0.0260128  
 0.0036787  0.0132463 -9.79461e-06 -0.0172085 -0.0209481  0.0245634  
0.00365683  0.0133833 -0.000189515 -0.0173303  -0.021041  0.0246918  
0.00707086   0.013311 0.000202408 -0.0167845 -0.0178899  0.0174218  
-0.000899237  0.0121754 -4.13412e-05 -0.0193285 -0.0275868  0.0340644  
0.00370258  0.0144619 -3.21088e-05 -0.0104956 -0.0137771  0.0224121  
0.000598359   0.013739 -0.000154997 -0.0123884 -0.0186785  0.0301519  
0.00852888  0.0114252 0.000194306 -0.0230543 -0.0243337  0.0168545  
 0.0038847  0.0112874 1.78424e-05 -0.0240733 -0.0291511  0.0257936  
0.00347714   0.014777 -1.39952e-05 -0.0106578 -0.0135786  0.0225989  
0.000450934  0.0139369 -9.29063e-05 -0.0125132 -0.0185954  0.0303275  
0.00817997  0.0117111 0.000198727 -0.0229746 -0.0239308  0.0168433  
 0.0036661  0.0114561 5.62979e-05 -0.0240232 -0.0289948   0.025815  
0.00403869   0.012829 7.63251e-06 -0.0170721 -0.0213667    0.02434  
0.00380582  0.0130748 3.50882e-05 -0.0171078 -0.0211387  0.0244351  
0.00720852  0.0127076 0.000410567 -0.0179165 -0.0181656  0.0177092  
-0.000939614  0.0119402 8.71566e-05 -0.0197669 -0.0275442  0.0341714  
0.00346575  0.0140193 0.000330211 -0.0116688 -0.0138409  0.0225905  
0.000392826  0.0134058 0.000165491  -0.013196 -0.0187123  0.0302761  
0.00830216  0.0113428 0.000283328 -0.0239219 -0.0240847  0.0171575  
0.00368779  0.0112527 0.000123271 -0.0246204   -0.02901  0.0260174  
 0.0038217  0.0125947 0.000241411 -0.0179072 -0.0212675  0.0245609  
 0.0118073  0.0120152 0.000310046  0.0241969  0.0235663  0.0185198  
 0.0315657 -0.000306177 4.03344e-05  0.0389822  0.0340921 0.00243108  
 0.0151615 0.00990188 0.00161301  0.0194506  0.0200874   0.013178  
 0.0244243 0.00352302 0.00174882  0.0265209  0.0253213  0.0063593  
 0.0130229  0.0105539 0.000633416  0.0294717  0.0297345  0.0189352  
 0.0230781 0.00426434 0.000737702  0.0370764  0.0350046  0.0104914  
 0.0159759 0.00969365 0.000961918   0.021565  0.0205131  0.0138075  
 0.0254219 0.00364204 0.000751929  0.0287077  0.0257639 0.00682907  
 0.0131584   0.010691 0.000206161  0.0303609   0.029457  0.0191667  
 0.0234083 0.00456808 6.0706e-05  0.0380602  0.0347483  0.0105849  
 0.0193937  0.0068543 0.00117443  0.0281394  0.0272403  0.0119898  
 0.0199627 0.00695287 0.000447544  0.0296658  0.0272984  0.0122711  
 0.0110976  0.0122405 0.000649745   0.023175  0.0229112  0.0178933  
 0.0303946 -0.000638274 0.000885722  0.0371101  0.0327303 0.00173712  
 0.0151035  0.0105729 0.000251732  0.0196576  0.0177958  0.0124628  
 0.0242911 0.00404703 0.000383328  0.0262501  0.0225914 0.00530105  
 0.0124388  0.0108902 0.000332598  0.0293695  0.0283322   0.018428  
 0.0224189  0.0044599 0.000441709  0.0364688  0.0331431 0.00973011  
 0.0149112  0.0102804 0.000966825  0.0196132  0.0183624  0.0126065  
  0.024132 0.00381249 0.00109218  0.0263717  0.0233237 0.00555107  
 0.0125721  0.0107214 0.000580044  0.0293755   0.028933  0.0185555  
 0.0225695 0.00434171 0.000697726  0.0366691  0.0338994 0.00997565  
 0.0190029 0.00729267 0.000369118  0.0279228  0.0251301  0.0112092  
  0.018994  0.0070864 0.000848231  0.0279959  0.0258371  0.0114048  
 0.0111343  0.0126703 -0.000105478  0.0233085  0.0223961    0.01797  
 0.0303785 -0.000302295 0.00011186   0.036747  0.0318086 0.00152208  
 0.0152319  0.0110352 -0.000465742  0.0197371  0.0179633  0.0128071  
 0.0244016 0.00450973 -0.000331394  0.0261842   0.022629 0.00561228  
 0.0126253  0.0112745 -0.000444596  0.0293962  0.0284783  0.0187093  
 0.0225728 0.00484623  -0.000317  0.0363618  0.0331485 0.00999048  
 0.0151573  0.0108064 -9.4014e-05  0.0196944  0.0179622  0.0126609  
 0.0243413 0.00427851 2.70582e-05  0.0262122  0.0226932  0.0054409  
  0.012534  0.0110828 -5.62351e-05  0.0294022  0.0283796  0.0185774  
 0.0225023 0.00465435 5.08067e-05  0.0364319  0.0331278 0.00984925  
 0.0191658 0.00771685 -0.000400054  0.0279047  0.0252228  0.0115083  
 0.0190832 0.00750556 -1.5718e-05  0.0279218    0.02522  0.0113604  
 0.0111556  0.0129988 -0.0007938  0.0235693  0.0233181  0.0179621  
 0.0303825 0.000191193 -0.000599193  0.0366082  0.0324221 0.00174689  
 0.0151989  0.0113937 -0.0016907   0.020285  0.0205889    0.01172  
 0.0243351  0.0051024 -0.00158402  0.0263968  0.0250888 0.00480059  
 0.0120256  0.0115181 -0.000589724  0.0300068  0.0300621  0.0183329  
 0.0220029 0.00533461 -0.000574544  0.0365864  0.0346506 0.00982579  
 0.0154407  0.0112135 -0.00113669  0.0199257  0.0187279  0.0125676  
  0.024586 0.00477464 -0.00100409  0.0262569  0.0233258  0.0054833  
 0.0124786  0.0114164 -0.000624465  0.0295704  0.0291774  0.0186344  
 0.0224384 0.00507279 -0.000537272  0.0363902  0.0337835   0.010027  
 0.0188178 0.00814521 -0.00108866  0.0283188  0.0273018  0.0108964  
  0.019185 0.00792453 -0.000832699  0.0280231  0.0259579  0.0114056  
  0.010377  0.0127256 -6.05125e-05  0.0251535  0.0239999  0.0177967  
 0.0298609 0.000610178 -0.000438723  0.0381494  0.0332929 0.00145434  
 0.0146048  0.0108328 -0.000698042  0.0225271  0.0208543  0.0113594  
 0.0238426 0.00486211 -0.000867078  0.0287554  0.0253687 0.00438679  
  0.011914  0.0113169 -0.000105506  0.0308847  0.0296575  0.0185212  
  0.021982 0.00530303 -0.000271967  0.0376959  0.0343598 0.00986221  
 0.0185064 0.00789944 -0.000447359  0.0299482  0.0272174  0.0108298  
  0.010266  0.0128107 -7.35865e-05  0.0246715  0.0235598  0.0176885  
 0.0298582 0.000611161 -0.000443379  0.0380607   0.033189 0.00144545  
 0.0151352  0.0114597 -0.00170936  0.0200766  0.0204064  0.0117231  
 0.0243321 0.00510953 -0.00159031  0.0263378  0.0250319 0.00479241  
 0.0119503  0.0116341 -0.000616735  0.0294707  0.0295392  0.0182485  
 0.0219769 0.00536669 -0.000586877  0.0363592  0.0343851 0.00977418  
 0.0145335  0.0108878 -0.000706703  0.0223363  0.0206856  0.0113502  
 0.0238371 0.00486711 -0.000871809  0.0287059  0.0253188 0.00437254  
 0.0118234  0.0114191 -0.000112316  0.0303773  0.0291446  0.0184322  
 0.0219495 0.00533282 -0.000276725   0.037481  0.0340953 0.00981022  
 0.0187785  0.0082001 -0.00110542  0.0280905  0.0270842  0.0108608  
 0.0184591 0.00794841 -0.000454432  0.0297368   0.027008  0.0107887  
 0.0110551  0.0131093 -0.000814134  0.0230395  0.0228187    0.01789  
 0.0303831 0.000191578 -0.000602768  0.0365103  0.0323075 0.00174387  
 0.0151567  0.0111051 -0.000467087  0.0195218  0.0177699  0.0128247  
 0.0243938 0.00451668 -0.000331333  0.0261254    0.02257 0.00560718  
 0.0125399  0.0113926 -0.000449666  0.0288503   0.027921  0.0186474  
 0.0225447 0.00487798 -0.000319331  0.0361284   0.032864 0.00994771  
 0.0153714   0.011282 -0.0011451   0.019713  0.0185327  0.0125804  
 0.0245803 0.00478163 -0.00100649  0.0261984  0.0232651 0.00547792  
 0.0124009   0.011534 -0.000640906  0.0290285  0.0286279  0.0185664  
  0.022413 0.00510494 -0.00054517  0.0361594  0.0335045 0.00998178  
 0.0191189 0.00777331 -0.000401873  0.0276705  0.0249888  0.0114853  
 0.0191429 0.00798062 -0.000841494  0.0277914  0.0257261  0.0113789  
 0.0110203  0.0127822 -0.000110579   0.022771  0.0218962  0.0179079  
 0.0303766 -0.000302738 0.000111925  0.0366477  0.0316937 0.00151927  
 0.0150298  0.0106423 0.000247375  0.0194408  0.0176006  0.0124801  
 0.0242842 0.00405347 0.000382733  0.0261908  0.0225323 0.00529565  
 0.0123508  0.0110058 0.000329778  0.0288194  0.0277705  0.0183632  
 0.0223886 0.00448958 0.000442339  0.0362335   0.032856 0.00968539  
 0.0150827  0.0108761 -9.6463e-05  0.0194781   0.017769  0.0126783  
 0.0243338 0.00428523 2.68538e-05  0.0261529   0.022634  0.0054357  
  0.012447  0.0111996 -5.95661e-05  0.0288539  0.0278246  0.0185147  
  0.022473 0.00468504 5.01485e-05  0.0361974   0.032844 0.00980575  
 0.0189559 0.00734782  0.0003671   0.027687  0.0248942   0.011185  
 0.0190361 0.00756132 -1.73199e-05  0.0276866  0.0249871  0.0113368  
 0.0109725  0.0123452 0.000658021  0.0226287  0.0223977  0.0178248  
   0.03039 -0.000639694 0.000889416  0.0370098  0.0326141 0.00173464  
 0.0150769 0.00996475 0.00162557  0.0192199  0.0198922  0.0131912  
 0.0244117 0.00352929 0.00175489  0.0264584  0.0252626  0.0063555  
 0.0129242  0.0106568 0.000656357   0.028905  0.0291932  0.0188741  
  0.023044 0.00428842 0.000750858  0.0368355  0.0347326  0.0104515  
 0.0148324  0.0103473 0.000969028  0.0193931  0.0181611  0.0126211  
 0.0241229 0.00381871 0.00109385  0.0263118  0.0232623 0.00554613  
 0.0124762   0.010832 0.000589466    0.02882  0.0283723  0.0184893  
 0.0225358 0.00436927 0.000704401  0.0364313  0.0336153  0.0099311  
 0.0193385  0.0069033 0.00118879  0.0278929  0.0270132  0.0119671  
 0.0189422 0.00713926 0.00085318   0.027757  0.0255999  0.0113794  
 0.0116915  0.0120908 0.000340278   0.023668  0.0231017  0.0184677  
 0.0315645 -0.000308505 4.48064e-05  0.0388901  0.0339896 0.00243387  
  0.015898 0.00974542 0.000979241  0.0213486  0.0203329  0.0138313  
  0.025413 0.00364544 0.000757603  0.0286524  0.0257139 0.00682816  
 0.0130732  0.0107837 0.000223322  0.0298227  0.0289304  0.0191085  
  0.023381   0.004592 6.73456e-05   0.037835  0.0344819  0.0105477  
 0.0199147  0.0069971 0.000460067  0.0294357  0.0270818  0.0122551  
0.00713536  0.0126478 0.000373921 -0.0187387 -0.0190931  0.0178979  
0.00347251  0.0142066 -4.51534e-05 -0.0111839 -0.0147967  0.0232542  
0.00850406  0.0112884 0.000174673 -0.0238939  -0.025249  0.0169863  
0.00360194  0.0109688 1.41977e-05 -0.0260253 -0.0313129  0.0266731  
0.00324161  0.0138157 0.000287624 -0.0122749 -0.0148576   0.023429  
0.00827033  0.0112254 0.000259768 -0.0247205 -0.0250018  0.0172792  
0.00340999  0.0109608 0.000103923 -0.0265175 -0.0311707  0.0268901  
0.00379451  0.0125727 -1.25455e-07 -0.0182146  -0.022835  0.0252282  
0.00358188  0.0123739 0.000213189 -0.0189825 -0.0227327  0.0254426  
0.00701639   0.013199 0.000189188   -0.01765  -0.018853   0.017618  
0.00310697   0.014694 -5.10993e-05 -0.0114699 -0.0144076  0.0235954  
0.00798724  0.0117548 0.000101731  -0.023821 -0.0245068  0.0170747  
0.00325141  0.0112438 4.04072e-05 -0.0260089 -0.0310082  0.0267504  
0.00326258  0.0145023 -2.29757e-05 -0.0113238  -0.014639  0.0234287  
0.00816287  0.0115598 0.000187705 -0.0238108 -0.0248769  0.0169721  
0.00339371  0.0111203 5.41452e-05 -0.0259721 -0.0311767  0.0266871  
0.00344242  0.0129626 -5.17434e-06 -0.0183324  -0.022458  0.0254307  
0.00357132  0.0128008 3.06284e-05 -0.0182387 -0.0226349  0.0253121  
  0.006874     0.0136 -0.000193504 -0.0177931 -0.0185276  0.0179331  
 0.0031654  0.0149656 -0.000493226 -0.0117358 -0.0147705  0.0237798  
0.00802428  0.0120897 -0.000443601 -0.0238961 -0.0247113  0.0173323  
 0.0031465  0.0115198 -0.000291507 -0.0261463 -0.0312448  0.0269563  
0.00312123  0.0148298 -0.00024403 -0.0116246 -0.0145611  0.0237329  
0.00799344  0.0119154 -0.000148438 -0.0238873 -0.0245482  0.0172282  
0.00319962   0.011378 -0.000115145 -0.0260962 -0.0310569   0.026873  
0.00339474  0.0132394 -0.000386529 -0.0185392 -0.0227652  0.0256297  
0.00341414   0.013098 -0.00017815 -0.0184524 -0.0225442  0.0255554  
0.00668587  0.0138849 -0.0006178 -0.0181148 -0.0195494  0.0178209  
0.00237521  0.0150023 -0.000248631 -0.0126063 -0.0161422   0.023216  
0.00722442   0.012311 -0.000364524 -0.0245012 -0.0261897  0.0169613  
 0.0025049   0.011721 -6.20171e-05 -0.0265095 -0.0319743  0.0268803  
0.00287761  0.0149953 -0.000442901 -0.0120811 -0.0155083  0.0235762  
0.00775764   0.012213 -0.000497119 -0.0241014 -0.0254277  0.0172093  
0.00288882  0.0116292 -0.000231459 -0.0262685 -0.0316417   0.026944  
0.00270012  0.0133604 -0.000159287 -0.0191542 -0.0238213  0.0253166  
0.00314479  0.0133109 -0.00034425 -0.0187655 -0.0232927  0.0255108  
0.00582367  0.0134433 0.000248194 -0.0195972 -0.0200804  0.0177182  
0.00215971  0.0144609 0.000422283  -0.013357 -0.0156512  0.0235659  
0.00706006  0.0119477 0.000198083 -0.0252615 -0.0257142  0.0171795  
 0.0025121  0.0115018 0.000188535  -0.026874 -0.0315707  0.0270182  
0.00261014  0.0129927 0.000278583 -0.0197004 -0.0233399  0.0255283  
 0.0449539 -0.00963906 -0.0001917  0.0540725  0.0540446 -0.0095963  
 0.0587073 -0.0172842 -0.000119862  0.0409524  0.0420372 -0.0222886  
 0.0391901 -0.0056289 -0.000926111  0.0327826  0.0293339 -0.00504129  
 0.0372213 -0.00462992 -0.00042126  0.0451963  0.0433035 -0.00331464  
 0.0590759 -0.0170081 -0.000325891  0.0418703  0.0421525 -0.0224701  
 0.0390007 -0.00528302 -0.00075848  0.0345653  0.0293096 -0.00528857  
 0.0373583 -0.00454427 -0.00032309  0.0463618   0.043222 -0.00337941  
 0.0489152 -0.0119014 -0.000463151  0.0374749  0.0354147 -0.0131548  
 0.0490559 -0.0115671 -0.000541292  0.0387787  0.0354548 -0.0133801  
 0.0449346 -0.0100135 -0.000165091  0.0532079  0.0537067 -0.00955746  
 0.0589966 -0.0178171 7.18869e-06  0.0414053  0.0416911 -0.0225213  
 0.0395211 -0.00646618 -0.000131763  0.0330483  0.0275834 -0.00501818  
 0.0376739 -0.00517028 -0.000173819  0.0452863  0.0421879 -0.00328633  
 0.0589073 -0.0176008 -8.9656e-05  0.0411765  0.0418422  -0.022346  
  0.039543 -0.00612022 -0.000593789  0.0329422  0.0281568 -0.00484418  
  0.037563 -0.00493166 -0.000364056  0.0451852   0.042644 -0.00320037  
 0.0492254 -0.0125877 -5.43017e-05  0.0378509  0.0344528 -0.0133057  
 0.0491879 -0.0123068 -0.000310099  0.0376769  0.0347867 -0.0131302  
 0.0451031 -0.0103186 0.000118715   0.053557   0.053515 -0.00973579  
 0.0589953 -0.0180152 0.000416633  0.0418142   0.042116 -0.0225627  
 0.0394085 -0.00687412 0.000535155  0.0332385  0.0276922 -0.0052635  
  0.037601 -0.00549538 0.000459303  0.0455735  0.0423875 -0.00345459  
 0.0590064 -0.0179133 0.000182434  0.0416192  0.0418714 -0.0225941  
 0.0394707 -0.00666715 0.00018526  0.0331477  0.0277245 -0.00515664  
 0.0376451 -0.00533212 0.000121825  0.0454424  0.0422575 -0.0034071  
 0.0491672 -0.0128912 0.000495937  0.0381612  0.0347244 -0.0134472  
 0.0492054 -0.0127371 0.000195598  0.0380127  0.0345953 -0.0134208  
  0.045404 -0.0104422 0.000429836  0.0541951   0.054466 -0.00946355  
 0.0598455 -0.0179117 0.000403797  0.0431722   0.043884 -0.0217449  
 0.0397886 -0.00700348 0.00145449  0.0342621  0.0305053 -0.00376349  
 0.0383794 -0.00557581 0.00061838  0.0465862  0.0443484 -0.00268113  
 0.0592731 -0.0180093 0.000506468  0.0423338   0.042891 -0.0222107  
 0.0393931 -0.00697191  0.0010544  0.0335836  0.0286222 -0.00478604  
  0.037813 -0.0055649 0.000650103  0.0459518  0.0431983 -0.00316983  
 0.0497984 -0.0128922 0.000876076  0.0393608  0.0369831 -0.0123106  
 0.0493075  -0.012932 0.000774409  0.0385975  0.0355674 -0.0130355  
 0.0461548 -0.0100435 -0.00019176   0.055385  0.0549553 -0.0092104  
 0.0602224 -0.0174555 -0.000273354  0.0436655  0.0435952 -0.0219918  
 0.0407137 -0.00632612 0.000112613  0.0360387  0.0307265 -0.00372461  
 0.0387555 -0.00520781 -8.47834e-05  0.0474173  0.0440621 -0.00272751  
 0.0504202 -0.0123027 -0.000118617  0.0404413   0.036898 -0.0124301  
 0.0461554  -0.010053 -0.000191435  0.0554347  0.0550691 -0.00917364  
 0.0598553 -0.0179162 0.000402838  0.0431945  0.0439313 -0.0217464  
 0.0397993 -0.00700297 0.00144876  0.0343259  0.0305613 -0.0037724  
 0.0383715 -0.00557397 0.000613403   0.046675   0.044459 -0.00265983  
 0.0602316 -0.0174605 -0.000273262  0.0436873  0.0436421 -0.0219931  
 0.0407212 -0.0063264 0.000109144  0.0360957  0.0307765 -0.00373632  
 0.0387443 -0.00520701 -8.61499e-05  0.0475009    0.04417 -0.00270642  
 0.0498078 -0.0128967 0.000873291  0.0394084  0.0370318 -0.0123184  
 0.0504281 -0.0123079 -0.000119656  0.0404859  0.0369444 -0.0124388  
 0.0454067 -0.0104512 0.000428232  0.0542465  0.0545824 -0.00942643  
 0.0590047 -0.0180198 0.000416276  0.0418362  0.0421643 -0.0225635  
 0.0394148 -0.00687451 0.000535391  0.0332993  0.0277506 -0.00527018  
 0.0375912 -0.00549445 0.000458593  0.0456617  0.0425038 -0.00343021  
 0.0592829 -0.0180138 0.000505766   0.042356  0.0429392 -0.0222117  
 0.0394012 -0.00697207 0.00105261  0.0336452  0.0286813 -0.00479277  
 0.0378045 -0.00556358 0.000647357  0.0460404  0.0433137 -0.00314621  
 0.0491748  -0.012896 0.000495784  0.0382074  0.0347749 -0.0134536  
  0.049316 -0.0129366 0.000773206  0.0386442   0.035618 -0.0130421  
 0.0451051 -0.0103281 0.000118266  0.0536085  0.0536318 -0.00969867  
 0.0590056 -0.0178218 7.09063e-06   0.041427  0.0417392 -0.0225224  
 0.0395279 -0.00646689 -0.000131904  0.0331085  0.0276412 -0.00502515  
 0.0376635 -0.00516997 -0.000173813  0.0453739  0.0423038 -0.00326271  
 0.0590157 -0.0179179 0.000182217   0.041641  0.0419194 -0.0225951  
 0.0394773 -0.00666769 0.000185225  0.0332084  0.0277822 -0.00516341  
 0.0376351 -0.0053315 0.000121459  0.0455303  0.0423729 -0.00338314  
 0.0492328 -0.0125927 -5.43736e-05  0.0378967  0.0345029 -0.0133124  
  0.049213 -0.0127421 0.000195453  0.0380587  0.0346453 -0.0134274  
 0.0449359 -0.0100236 -0.000164552  0.0532596  0.0538235 -0.00952095  
 0.0587163 -0.0172894 -0.000119476  0.0409743  0.0420846 -0.0222901  
 0.0391942 -0.00563024 -0.000921616  0.0328419  0.0293882 -0.00504631  
 0.0372096 -0.00463104 -0.000417715  0.0452842  0.0434147 -0.00328996  
 0.0589162 -0.0176057 -8.94731e-05  0.0411982  0.0418901 -0.0223473  
 0.0395484 -0.00612113 -0.000592026  0.0330017  0.0282146 -0.00485083  
 0.0375515 -0.00493191 -0.000362193  0.0452727  0.0427589 -0.00317688  
 0.0489217 -0.0119071 -0.000461312  0.0375203  0.0354628 -0.0131612  
 0.0491947 -0.0123121 -0.00030925  0.0377224  0.0348365  -0.013137  
 0.0449553 -0.00964999 -0.00019051  0.0541237  0.0541603 -0.00955891  
 0.0590849 -0.0170136 -0.000325248   0.041892     0.0422 -0.0224712  
 0.0390077 -0.00528517 -0.000754958  0.0346192  0.0293607 -0.00529183  
 0.0373485 -0.00454595 -0.000320474  0.0464454  0.0433323 -0.00335336  
 0.0490637 -0.0115735 -0.000539753  0.0388223  0.0355021 -0.0133859  
-0.00749941  0.0107072 8.94431e-05 -0.0475585 -0.0510529  0.0448979  
-0.0148844  0.0131394 5.5089e-05 -0.0334645 -0.0395227  0.0606347  
-0.00343491   0.011135 0.000131338 -0.0148037 -0.0242298  0.0420785  
-0.00402502  0.0120094 4.74306e-05 -0.0329385 -0.0397197  0.0396298  
-0.0147745  0.0130296 6.97518e-05 -0.0334518 -0.0393583  0.0606351  
-0.00332176   0.010911 0.000230487 -0.0149361 -0.0239198  0.0422133  
-0.00394111  0.0118435 0.000159878 -0.0330818 -0.0393996  0.0397141  
-0.00837563  0.0120455 9.36092e-05 -0.0236026 -0.0322117  0.0512108  
-0.00825906  0.0118823 0.00014478 -0.0236512 -0.0319776  0.0512768  
-0.00740884  0.0107159 -5.06951e-05 -0.0474011 -0.0512622  0.0448766  
-0.0146329  0.0129815 -7.09424e-05 -0.0333396 -0.0394778  0.0606445  
-0.0029729  0.0110481 -0.000192398 -0.0144115 -0.0239938  0.0421617  
-0.00356067  0.0118504 -0.000179435 -0.0326793 -0.0394127  0.0396436  
-0.0147634  0.0130674 -1.4169e-05 -0.0333884 -0.0395307   0.060653  
-0.00318429  0.0110936 -5.44425e-05 -0.0145765 -0.0241727  0.0421387  
-0.00377142  0.0119362 -9.3133e-05 -0.0327776 -0.0396144  0.0396482  
-0.0080276  0.0119235 -0.000125772 -0.0233534 -0.0320878  0.0512491  
-0.00819579   0.011989 -2.97635e-05 -0.0234569 -0.0321939  0.0512455  
-0.00712221  0.0104974 -5.06758e-05 -0.0473427  -0.051019  0.0447713  
-0.0144241  0.0127527 -1.69747e-05 -0.0332182 -0.0393173  0.0605344  
-0.00279479  0.0108399 -6.93806e-05 -0.0141185 -0.0236685  0.0420401  
-0.0033675   0.011613 -1.25367e-05 -0.0325152 -0.0391779  0.0394906  
-0.0145217  0.0128658 -4.61326e-05 -0.0332885 -0.0393781  0.0605902  
-0.00287539  0.0109436 -0.000129198  -0.014275 -0.0237896  0.0421096  
-0.00345931  0.0117294 -9.18729e-05 -0.0326118 -0.0392441  0.0395776  
-0.00782769  0.0117066 -4.20024e-05 -0.0231469 -0.0318494  0.0511336  
-0.0079199  0.0118143 -8.46334e-05 -0.0232599 -0.0319397  0.0511976  
-0.00692164  0.0103125 -1.50766e-06 -0.0472285 -0.0509969  0.0446635  
 -0.014282  0.0126198 -2.8947e-05  -0.033038 -0.0392117  0.0604612  
-0.00260831   0.010642 -0.000137252 -0.0139074 -0.0235986  0.0418641  
-0.00314337  0.0114245 -5.50217e-05 -0.0324047 -0.0392015  0.0393804  
-0.0143515  0.0126815 -1.68924e-05 -0.0331254  -0.039275  0.0604996  
-0.00271163  0.0107545 -8.58104e-05 -0.0139915 -0.0236345  0.0419786  
-0.00326133  0.0115243 -2.08962e-05 -0.0324335 -0.0392083   0.039432  
-0.00766477  0.0115432 -7.84654e-05 -0.0229493 -0.0317477  0.0510157  
-0.00774966  0.0116295 -4.95531e-05 -0.0230372  -0.031807  0.0510874  
-0.0069736   0.010344 1.34354e-05 -0.0473603 -0.0508728  0.0447361  
-0.0143741  0.0126796 7.44229e-06 -0.0331384 -0.0391835  0.0605191  
-0.00271845  0.0104831 3.89635e-05 -0.0142858  -0.023604  0.0419574  
-0.0033075  0.0114236 4.6024e-05 -0.0327093 -0.0391149  0.0395225  
-0.00776264  0.0115025 1.91699e-05 -0.0231764 -0.0317346  0.0510956  
0.00365476  0.0161507 0.00034414  0.0153929  0.0162958  0.0267449  
0.000277079  0.0153965 0.000676504 0.00647667 0.00781044  0.0306944  
0.00508228  0.0160957 0.000962998  0.0117363  0.0134637  0.0213712  
0.000213673  0.0154508 0.000826789 0.00753208 0.00854119  0.0321456  
0.00521808  0.0159388 0.000788078  0.0130202  0.0132966  0.0220986  
0.00171913  0.0167807 0.000578393 0.00560638 0.00644023  0.0244197  
0.00157847  0.0163337 0.00108347 0.00651295 0.00715104  0.0258046  
0.00354282   0.016205 0.00038656    0.01473   0.016094   0.025684  
0.000412236   0.016032 -9.53395e-05 0.00738103 0.00789557  0.0306873  
0.00492432  0.0170241 -1.83644e-05  0.0126002  0.0124167  0.0213349  
0.00035701  0.0158365 0.000156598 0.00706734 0.00787191  0.0306261  
0.00483589  0.0166686 0.000483954  0.0122989  0.0126169  0.0211495  
 0.0017654  0.0175983 -0.000177168 0.00675459 0.00660007  0.0249403  
0.00169488  0.0173318 0.000107922 0.00640458  0.0065127  0.0246867  
0.00358861  0.0166169 -0.000213183  0.0151508  0.0159978  0.0259111  
0.000555012  0.0161941 -0.000474427 0.00779133 0.00836245  0.0308367  
0.00507093  0.0173392 -0.000588056  0.0128285  0.0127231  0.0215912  
0.000477857  0.0161163 -0.000258972 0.00760353  0.0081102  0.0308182  
0.00498206  0.0171732 -0.000265413   0.012704  0.0126118  0.0215022  
 0.0018859  0.0177669 -0.000533729  0.0070806 0.00699945  0.0250869  
 0.0018096  0.0176843 -0.00032625 0.00692955 0.00681619  0.0250616  
0.00354738  0.0168081 -0.000692378  0.0156341  0.0169016  0.0258226  
0.000169447  0.0160149 -0.000380096 0.00850261 0.00925993  0.0307015  
0.00492153  0.0171973 -0.00123811  0.0139049  0.0146306  0.0205441  
0.000440047  0.0161767 -0.000518403 0.00815967 0.00880601  0.0307257  
0.00516803  0.0173426 -0.000998131  0.0131747  0.0134464  0.0212126  
0.00175818  0.0174296 -0.000780016 0.00799706   0.008304  0.0243457  
0.00191335  0.0176923 -0.000733543 0.00748507  0.0074887  0.0247533  
0.00282556  0.0162951 0.000174862  0.0170338  0.0172534  0.0258874  
6.75171e-05  0.0158637 -0.000206012 0.00902525 0.00826146  0.0310447  
0.00438849  0.0163076 -8.48731e-06   0.015354  0.0147704  0.0206164  
0.00135726  0.0169041 -0.0001316 0.00887901 0.00737744  0.0246868  
 0.0145747  0.0101719 9.25848e-05 -0.0172031 -0.0137661 0.00948249  
 0.0189203 0.00656277 0.00244458 -0.00657964 -0.00455858 0.00518787  
0.00823513  0.0137871 0.00115487 -0.00921517 -0.0102173  0.0139814  
 0.0188714 0.00598531 0.00418855 -0.0113969 -0.00784172 0.00967628  
0.00993958   0.012906 0.000219024 -0.0116782 -0.0101754  0.0130796  
 0.0123408  0.0115072 0.00175331 -0.00335769 -0.00299684 0.00930078  
 0.0120215 0.00993184 0.00411962 -0.00701475 -0.00558339  0.0130859  
 0.0127823  0.0112093 0.000707357 -0.0146718 -0.0118174 0.00961691  
 0.0197469 0.00742476 0.000264264 -0.00744762 -0.0036311 0.00498688  
0.00848644   0.014742 -0.000111945 -0.00951616 -0.00825099   0.013856  
 0.0195339 0.00703753 0.00107343 -0.00774599 -0.00386885 0.00512275  
0.00835361  0.0143936 0.000416036 -0.00942976 -0.00855169  0.0134944  
 0.0128528  0.0124606 9.2866e-05 -0.00410986 -0.00232314 0.00991639  
 0.0127309  0.0120244 0.000722819 -0.00434678 -0.00247119 0.00982712  
 0.0129554  0.0117786 -0.000196459 -0.0146296 -0.0114593 0.00998883  
 0.0199152 0.00794385 -0.000527964 -0.00739808 -0.00365846 0.00527811  
0.00843848     0.0151 -0.000462807 -0.00962971 -0.00846844  0.0140326  
 0.0198199 0.00767035 -0.000100873 -0.00750899 -0.00355872 0.00514573  
0.00845598  0.0149258 -0.000289996 -0.00952754 -0.00836078   0.013965  
 0.0130225  0.0129016 -0.000622089 -0.00413237 -0.00238513  0.0101562  
 0.0129249  0.0126697 -0.000238563 -0.00420228 -0.0022632  0.0100703  
 0.0132424  0.0121715 -0.00125455 -0.0148354 -0.0122402 0.00981755  
 0.0211945 0.00856839 -0.00338028 -0.00693607 -0.00476865 0.00430915  
0.00916263  0.0150962 -0.0022368  -0.010491 -0.0117908  0.0116605  
 0.0202065 0.00818181 -0.00135815 -0.00769843 -0.00403976 0.00491033  
0.00871043  0.0151643 -0.00118137 -0.00985028 -0.00917612  0.0136321  
  0.014184  0.0132462 -0.00324511 -0.00370684 -0.00329393 0.00878064  
  0.013324  0.0129738 -0.00134704 -0.00443219 -0.00275022 0.00959324  
 0.0106744  0.0113846 0.000651064 -0.0187677 -0.0156941 0.00940834  
 0.0207121 0.00788107 -0.00380295 -0.0114249 -0.00957073 -0.000247914  
0.00620321   0.014042 0.00083631 -0.0137118 -0.0123536  0.0132069  
 0.0143104  0.0114302 -0.00325684 -0.00826649 -0.00774397 0.00396491  
 0.0106946  0.0113946 0.000613295  -0.018494 -0.0154807 0.00929395  
 0.0211955 0.00859459 -0.00339738 -0.00675573 -0.00460839 0.00434083  
0.00925951   0.015134 -0.00231988 -0.0101962 -0.0115238  0.0115339  
 0.0207229  0.0079009 -0.00386136 -0.0112773 -0.00947824 -0.000305713  
0.00622942   0.014037 0.000816229 -0.0135471 -0.0122241  0.0130581  
 0.0141979  0.0132691 -0.00325978 -0.00355756 -0.00314083 0.00879514  
 0.0143492  0.0114344 -0.00331841 -0.00813966 -0.0076505  0.0038722  
 0.0132531  0.0122063 -0.00126761 -0.0144922 -0.0119092 0.00978242  
 0.0198973 0.00796999 -0.000530242 -0.00723228 -0.0035311 0.00529804  
0.00845555  0.0151373 -0.000463061 -0.00937659   -0.00822  0.0139616  
 0.0201908 0.00820684 -0.00136145 -0.00753455 -0.00390755  0.0049248  
0.00874024  0.0151999 -0.00119378 -0.00959418 -0.00890447  0.0135608  
 0.0130205  0.0129234 -0.000624414 -0.00400097 -0.00227145  0.0101568  
  0.013324  0.0129937 -0.00134942 -0.00430118 -0.00263216 0.00958886  
 0.0129554  0.0118135 -0.000198479  -0.014284 -0.0111401 0.00995881  
 0.0197276 0.00745053 0.000264027 -0.00728109 -0.00350455 0.00500665  
0.00850608  0.0147788 -0.000114795 -0.00926311 -0.0080056  0.0137924  
 0.0198012 0.00769611 -0.000101655 -0.00734415 -0.00343008  0.0051656  
0.00847461  0.0149631 -0.000292411 -0.00927392 -0.00810527  0.0138982  
  0.012849  0.0124823 9.2807e-05 -0.00397866 -0.00221123 0.00991662  
  0.012922  0.0126912 -0.000239357 -0.00407252 -0.00214945  0.0100711  
 0.0127753  0.0112395 0.000714533 -0.0143287 -0.0114901 0.00958368  
 0.0188869 0.00658587 0.00245329 -0.00640086 -0.00441007 0.00518971  
0.00821005  0.0138134 0.00120171 -0.00894123 -0.00997522  0.0139223  
 0.0195136 0.00706175 0.00107502 -0.00758251 -0.00373707 0.00514315  
0.00836786  0.0144262 0.000420221 -0.00918318 -0.00829096  0.0134206  
 0.0123294  0.0115284 0.00175392 -0.00322001 -0.00286092 0.00927565  
 0.0127273  0.0120443 0.00072351 -0.00421986 -0.00235688 0.00982875  
 0.0145715   0.010169 0.000138263 -0.0169087 -0.0135198 0.00948155  
 0.0188338 0.00599319 0.00424945 -0.0112395 -0.00773468 0.00975528  
0.00998374   0.012894 0.000249742 -0.0114763 -0.00999778  0.0130077  
 0.0119971 0.00992787 0.00418368 -0.00688679 -0.00548308  0.0131348  
0.00269963  0.0164005 0.000173886  0.0163886  0.0164544  0.0256085  
0.000202339  0.0161216 -0.000392614 0.00840029 0.00910739  0.0304533  
0.00489754  0.0172933 -0.00126767  0.0136423  0.0143148  0.0203693  
8.60564e-05  0.0159563 -0.00021453 0.00892882  0.0080758   0.030804  
0.00435092  0.0163716 -8.91842e-06  0.0151201  0.0144816  0.0204332  
0.00175305  0.0174695 -0.000786993 0.00785774 0.00813245  0.0242582  
0.00134798  0.0169326 -0.000137037 0.00874899 0.00719206  0.0246025  
0.00343429  0.0169528 -0.00071121  0.0149526  0.0160899  0.0255473  
0.000580011  0.0163089 -0.00047755 0.00767946 0.00819778  0.0306088  
0.00502366   0.017446 -0.000589709  0.0125595  0.0124033  0.0214447  
0.000470203  0.0162882 -0.000527488 0.00805337 0.00864427   0.030487  
0.00513162  0.0174453 -0.00101059  0.0129068  0.0131217  0.0210547  
0.00187128  0.0178132 -0.00053355 0.00694257 0.00682897  0.0250143  
0.00190265   0.017736 -0.000735769 0.00734842 0.00731445  0.0246748  
0.00346044  0.0167717 -0.000224163  0.0144562  0.0151869  0.0256556  
0.000436052  0.0161493 -0.000102153 0.00727081 0.00773238  0.0304614  
0.00488008  0.0171337 -2.94509e-05  0.0123295  0.0120975  0.0211909  
0.000502054  0.0162328 -0.000264473 0.00749348 0.00794954  0.0305922  
0.00493571  0.0172814 -0.000271041  0.0124332  0.0122934   0.021357  
0.00175224   0.017647 -0.000182519 0.00661671    0.00643  0.0248697  
0.00179554  0.0177321 -0.000329116 0.00679184  0.0066465  0.0249897  
0.00340459  0.0163567 0.000377125   0.014019  0.0152551  0.0254105  
0.000294087  0.0154982 0.000677136 0.00633608 0.00761191  0.0304255  
 0.0050259   0.016188 0.000969577  0.0114386   0.013131  0.0211955  
0.000380663  0.0159513 0.000148197 0.00695396 0.00770065  0.0303888  
0.00478591  0.0167737 0.000478961  0.0120242   0.012283  0.0209935  
0.00170355   0.016824 0.000572085 0.00545715 0.00624937  0.0243235  
0.00168083  0.0173797 0.000100677 0.00626629 0.00633531  0.0246098  
0.00350906  0.0162529 0.000384362  0.0146586  0.0154793  0.0265098  
0.000224233  0.0155315 0.000858295 0.00738442 0.00837253  0.0319093  
0.00516819  0.0160074 0.000811586  0.0127316  0.0129706  0.0219427  
0.00155707  0.0163575 0.00110125 0.00635539 0.00697723  0.0257166  
 0.0339348 -0.00443768 0.000202603  0.0569103  0.0573288 0.00638481  
 0.0578201  -0.019193 0.000141912  0.0547495  0.0695875 -0.0140947  
 0.0340012 -0.00413884 -0.000144762  0.0572966  0.0570092  0.0063764  
 0.0578829 -0.0189112 -0.000127978  0.0551295  0.0692292 -0.0142317  
 0.0450549 -0.0148762 0.000101785  0.0653009  0.0730871 0.00508264  
 0.0450243  -0.014597 -9.47316e-05  0.0655916  0.0727692 0.00499135  
 0.0332477 -0.00453814 0.000314734  0.0560117  0.0561749 0.00585745  
 0.0570542  -0.019345 0.000224274  0.0536779  0.0682143 -0.0147109  
 0.0335004 -0.00452998 0.000338362  0.0563646   0.056746 0.00608497  
  0.057348 -0.0193053 0.000241026   0.054107   0.068895 -0.0144154  
 0.0444328 -0.0150218 0.000185573  0.0644759  0.0720691 0.00452259  
 0.0446852 -0.0149888 0.000190949  0.0648078  0.0725941 0.00479499  
 0.0331898 -0.00431003 -0.000124548  0.0557189  0.0559565 0.00592894  
 0.0569312 -0.0192419 -4.83925e-05  0.0533169  0.0678256 -0.0147826  
 0.0332244 -0.0044232 7.79638e-05  0.0558789  0.0559892 0.00585913  
 0.0569918 -0.0192923 7.42748e-05  0.0535039  0.0679402 -0.0147939  
 0.0442594 -0.0148772 -6.49288e-05  0.0641863  0.0718099 0.00447913  
 0.0443456 -0.0149486 5.00007e-05  0.0643379  0.0718599 0.00445536  
 0.0327704 -0.00394698 -0.000105634  0.0556342  0.0564967 0.00604622  
 0.0566053 -0.0189194 -6.82765e-05  0.0532156  0.0682156 -0.0146827  
 0.0330249 -0.00414686 -0.000154786  0.0556245   0.056236 0.00603132  
 0.0568025 -0.0191099 -8.19299e-05  0.0532195  0.0680276 -0.0146936  
 0.0439049 -0.0145557 -5.16968e-05   0.064147   0.072169 0.00461027  
 0.0441074 -0.0147393 -7.98275e-05   0.064122  0.0720113 0.00457974  
 0.0329943 -0.00383317 -0.000116778  0.0563641  0.0564174 0.00608345  
 0.0568609 -0.0187312 -0.000105393  0.0539981  0.0682846 -0.0146733  
 0.0441166 -0.0143972 -6.63906e-05  0.0647615  0.0721444 0.00463737  
-0.00638785 0.00929057 8.74557e-06 -0.0523353 -0.0546904  0.0448899  
0.00481885 0.00533225 1.62788e-06 -0.0546085 -0.0554214  0.0293383  
-0.00862424 0.00741871 -5.73294e-06 -0.0808803 -0.0692124   0.050943  
0.00465779 0.00546925 -2.32029e-06 -0.0547919 -0.0552564  0.0294504  
-0.00875484 0.00755201 4.68451e-06 -0.0809147 -0.0691334   0.050963  
 0.0092361 -0.00230484 4.54053e-06 -0.0802519  -0.071147  0.0303492  
0.00907035 -0.00212863 -5.90016e-06 -0.0803317 -0.0710087  0.0303723  
-0.00633534 0.00923293 3.89501e-06  -0.052226 -0.0548175  0.0448259  
0.00453651 0.00541644 5.80465e-05 -0.0544954 -0.0552246  0.0293208  
-0.00879061 0.00752636 1.30811e-05 -0.0808705 -0.0692192  0.0509893  
0.00466741 0.00535918 5.08147e-05 -0.0545229 -0.0553516  0.0293162  
-0.00870193 0.00745899 9.76909e-06 -0.0808708 -0.0692322  0.0509703  
0.00896491 -0.00222604 4.18758e-05  -0.080086 -0.0709854  0.0302962  
0.00909835 -0.00228463 3.6336e-05 -0.0801498 -0.0710914  0.0303243  
-0.00653879 0.00941526 -4.23237e-05 -0.0523139 -0.0548301   0.044923  
0.00433441 0.00565857 -0.000128791 -0.0544533 -0.0553158  0.0294815  
-0.00903416 0.00777546 -5.32873e-05 -0.0807775 -0.0693342  0.0511352  
0.00443832 0.00553566 -3.40227e-05 -0.0544907 -0.0552133  0.0293969  
-0.00890741 0.00764882 -1.98496e-05 -0.0808362 -0.0692483  0.0510498  
0.00870017 -0.00197974 -7.03269e-05 -0.0799479 -0.0710571  0.0304318  
0.00883541 -0.00210414 -1.3759e-05 -0.0800293 -0.0709744   0.030344  
-0.00682218 0.00963812 -4.59066e-05 -0.0523419 -0.0550533  0.0450374  
0.00389785 0.00588559 4.75399e-06  -0.054483 -0.0556358  0.0295747  
-0.00932426 0.00801393 1.1366e-05 -0.0807265 -0.0694274  0.0511911  
 0.0041371 0.00577517 -8.84195e-05 -0.0544367 -0.0555132  0.0295457  
-0.00918166 0.00789935 -2.93999e-05 -0.0807338 -0.0694131  0.0511872  
0.00831046 -0.00170412 -1.49177e-06 -0.0798743 -0.0712845  0.0305504  
0.00851425 -0.00184276 -5.08675e-05 -0.0798877 -0.0712058  0.0305173  
-0.00689971 0.00964509 7.55897e-05 -0.0524811 -0.0548511  0.0450461  
0.00398939 0.00582593 7.39478e-05 -0.0547108 -0.0553779  0.0295865  
-0.00921721 0.00793821 3.47959e-05 -0.0808328 -0.0692523  0.0511138  
0.00842848 -0.00174048 3.41906e-05 -0.0800854 -0.0710852  0.0304866  
 0.0033507 0.00671278 5.67391e-06 -0.0513017 -0.0533366  0.0297896  
-0.00925899 0.00858082 1.50167e-05 -0.0766386 -0.0671195  0.0506837  
0.00343946 0.00664446 8.15885e-05 -0.0515289 -0.0530685  0.0298114  
-0.00915351  0.0085012 4.21915e-05 -0.0767425 -0.0669339  0.0506183  
0.00782643 -0.000911532 -4.06267e-07 -0.0774779 -0.0698197   0.030881  
0.00794248 -0.000951383 3.81457e-05  -0.077687 -0.0696145  0.0308244  
0.00379785 0.00648957 -0.00013828 -0.0512519 -0.0530018   0.029705  
-0.00895942 0.00834813 -6.07499e-05 -0.0766678 -0.0670179  0.0506326  
0.00359696 0.00660465 -9.41242e-05 -0.0512444 -0.0532071  0.0297641  
-0.00911028  0.0084691 -3.23535e-05 -0.0766343 -0.0671023  0.0506809  
0.00821947 -0.00118304 -7.53354e-05 -0.0775398 -0.0695869  0.0307675  
0.00803272 -0.00104782 -5.36499e-05  -0.077485 -0.0697385  0.0308496  
0.00399377 0.00624595 5.70234e-05 -0.0512764 -0.0529006  0.0295405  
-0.00871924 0.00810063 1.21232e-05 -0.0767389 -0.0668967  0.0504864  
 0.0038988 0.00636579 -3.89928e-05 -0.0512807 -0.0528933  0.0296206  
-0.00883441 0.00822232 -2.39742e-05  -0.076716 -0.0669274  0.0505491  
0.00847967 -0.00142919 4.22268e-05 -0.0776667 -0.0695116  0.0306296  
0.00835248 -0.00130743 -1.60212e-05  -0.077616 -0.0695019  0.0306801  
 0.0042783  0.0061515  2.655e-07 -0.0513782 -0.0530961    0.02955  
-0.00854839 0.00798876 -8.8966e-06 -0.0767344 -0.0668909  0.0504345  
0.00412467 0.00618535 5.00327e-05  -0.051297 -0.0530267  0.0295304  
-0.00862905 0.00803232 8.27296e-06 -0.0767306 -0.0669107  0.0504636  
0.00875095 -0.00151085 3.67307e-06 -0.0778223 -0.0696719  0.0306767  
0.00861258 -0.00148848 3.65872e-05 -0.0777249 -0.0696171  0.0306536  
0.00411647 0.00627949 1.49581e-06 -0.0515768 -0.0529315  0.0296726  
-0.00868119 0.00811484 5.86327e-06  -0.076786 -0.0668079   0.050465  
0.00858572 -0.00133957 -5.06172e-06 -0.0779108 -0.0695318  0.0307077  
 0.0327969 -0.00392534 -0.00010632  0.0555155  0.0563779 0.00590854  
 0.0566029 -0.0189065 -6.85753e-05  0.0531853  0.0681503 -0.0147006  
 0.0330215 -0.00381144 -0.000117758  0.0562471  0.0562988 0.00594506  
 0.0568585 -0.0187182 -0.000105876  0.0539682  0.0682197 -0.0146915  
 0.0439378  -0.014553 -5.20093e-05  0.0641008  0.0721136 0.00451559  
 0.0441495 -0.0143941 -6.68006e-05  0.0647163  0.0720896 0.00454259  
  0.033217 -0.00428924 -0.000124818   0.055601  0.0558358 0.00579112  
 0.0569284 -0.0192292 -4.83872e-05  0.0532871  0.0677599 -0.0148006  
  0.033052 -0.00412572 -0.00015544  0.0555062  0.0561161 0.00589375  
    0.0568 -0.0190972 -8.21098e-05  0.0531895  0.0679619 -0.0147115  
  0.044292 -0.0148745 -6.50144e-05  0.0641403  0.0717538 0.00438453  
 0.0441402 -0.0147367 -8.009e-05  0.0640759  0.0719553 0.00448517  
 0.0332735 -0.0045176 0.00031614  0.0558939  0.0560545 0.00571895  
 0.0570509 -0.0193325 0.000224736  0.0536482  0.0681487 -0.0147292  
 0.0332509 -0.00440254 7.84657e-05  0.0557611  0.0558688 0.00572094  
 0.0569889 -0.0192797 7.44781e-05  0.0534741  0.0678747  -0.014812  
 0.0444647 -0.0150189 0.000186126  0.0644303  0.0720133 0.00442776  
 0.0443778 -0.0149458 5.02033e-05  0.0642921   0.071804 0.00436065  
 0.0339624 -0.00441741 0.00020408   0.056794  0.0572125 0.00624744  
 0.0578167 -0.0191806 0.000142573  0.0547198  0.0695227 -0.0141129  
 0.0335266 -0.0045096 0.000340126  0.0562472  0.0566272 0.00594675  
 0.0573445 -0.0192929 0.000241681  0.0540772  0.0688295 -0.0144338  
 0.0450871  -0.014873  0.0001024  0.0652562  0.0730331 0.00498832  
  0.044717 -0.0149857 0.000191667  0.0647625   0.072539 0.00470027  
 0.0340303 -0.0041181 -0.000145393  0.0571817  0.0568927  0.0062385  
 0.0578803 -0.0188986 -0.000128172  0.0551002  0.0691649 -0.0142498  
 0.0450573 -0.0145936 -9.49794e-05  0.0655477  0.0727155 0.00489704  
-0.00429957  0.0105457 0.000290973 -0.00722098 -0.0158773   0.046689  
-0.0041137  0.0103274 0.000319979 -0.00740026 -0.0155608  0.0468057  
-0.00338659 0.00832262 0.000338229 -0.00394276 -0.0104606  0.0498165  
-0.0031394 0.00804535 0.000417926 -0.00411544 -0.0100549  0.0498501  
-0.00390157  0.0105817 -0.000161458 -0.00682402 -0.0158618  0.0468066  
-0.00408769  0.0105605 3.75451e-05 -0.00702416  -0.015962  0.0468014  
-0.00306206 0.00840339 -0.000122741 -0.00362928 -0.0105391  0.0498403  
-0.00320464 0.00836416 7.1111e-05 -0.00380515 -0.0105827  0.0498653  
-0.00372095  0.0104289 -0.000125689 -0.0064377 -0.0154848  0.0467367  
-0.00380029    0.01051 -0.000145759  -0.006635 -0.0156514  0.0467934  
-0.00292189 0.00830428 -0.000136304 -0.00327715  -0.010209  0.0498014  
-0.00297798 0.00835174 -0.000127415 -0.00345903  -0.010365  0.0498414  
-0.00363075  0.0103766 -0.000286205 -0.00610532 -0.0152822  0.0466084  
-0.00368076  0.0103792 -0.000152145 -0.00628372 -0.0153655  0.0467398  
-0.00288016 0.00831062 -0.000263322 -0.00298203 -0.00996155  0.0498654  
-0.00289606 0.00824499 -0.000127619 -0.00315271 -0.0100788  0.0498244  
-0.00362901 0.00998649 -5.962e-05 -0.00655898 -0.0154325   0.046405  
-0.00273104 0.00794255 -0.000234004 -0.00329616 -0.0101801  0.0493932  
 0.0446229 -0.00925191 -0.00183281  0.0222578  0.0212642 -0.00951581  
 0.0437293 -0.00860431 -0.00165093  0.0256203  0.0224143 -0.0103795  
 0.0492391 -0.0134262 -0.00167058   0.013591   0.015232 -0.0115505  
 0.0485371 -0.0115605 -0.00301598   0.016973  0.0173046 -0.0137077  
 0.0441577 -0.0103439 -1.87267e-05  0.0230751   0.019485 -0.00936087  
 0.0444365 -0.00993192 -0.000773606   0.023006  0.0197076 -0.00912449  
 0.0486179 -0.0144529 2.3356e-05   0.014638  0.0144415 -0.0121747  
 0.0487639  -0.013976 -0.000604307  0.0147192  0.0145313  -0.011828  
 0.0441768 -0.0107932 0.000504242  0.0232434  0.0196071 -0.00955103  
 0.0441654 -0.0105684 0.000237205  0.0231463  0.0195183 -0.00948617  
 0.0485418 -0.0148561 0.000593591  0.0147694  0.0145248 -0.0123001  
 0.0485793 -0.0146476 0.000292996  0.0147546  0.0144216 -0.0122774  
 0.0433821 -0.0109974 0.00277556  0.0237379   0.022459 -0.00726144  
 0.0438558 -0.0109004 0.00134928  0.0235591  0.0201471 -0.00902546  
 0.0473226 -0.0149666 0.00315278  0.0146394  0.0159367  -0.010076  
 0.0482729 -0.0148744 0.00129594  0.0150932  0.0149134 -0.0116591  
 0.0452696 -0.0100103 0.000838049  0.0275778  0.0246144 -0.00660588  
 0.0482295 -0.0130844 0.00203135  0.0191178  0.0199248 -0.00685667  
 0.0433872 -0.0109992 0.00277547  0.0237452  0.0224655 -0.00726592  
 0.0452754 -0.0100119 0.000837194  0.0275849  0.0246181 -0.00661122  
 0.0473193  -0.014963 0.00315296  0.0146464  0.0159421 -0.0100729  
 0.0482271 -0.0130806 0.00203036  0.0191253  0.0199281 -0.00685576  
 0.0441814 -0.0107951 0.000504249  0.0232491  0.0196113 -0.00955686  
 0.0438602 -0.0109024  0.0013497  0.0235651  0.0201518 -0.00903078  
 0.0485384 -0.0148526 0.000593527  0.0147756  0.0145285 -0.0122986  
 0.0482694 -0.0148709 0.00129627  0.0150994  0.0149173 -0.0116574  
 0.0441621 -0.0103457 -1.86297e-05  0.0230807  0.0194891 -0.00936672  
 0.0441698 -0.0105703 0.000237272  0.0231519  0.0195228 -0.00949187  
 0.0486143 -0.0144493 2.33787e-05  0.0146441  0.0144452 -0.0121733  
 0.0485758  -0.014644 0.000293005  0.0147607  0.0144255 -0.0122758  
  0.044627 -0.00925396 -0.00183245  0.0222624  0.0212693 -0.00952118  
 0.0444411 -0.00993369 -0.000773721  0.0230112  0.0197121 -0.00913019  
 0.0492356 -0.0134227 -0.00167072  0.0135965  0.0152366 -0.0115492  
 0.0487605 -0.0139723 -0.000604495  0.0147251  0.0145352 -0.0118265  
 0.0437338 -0.00860625 -0.00165045  0.0256244  0.0224174 -0.0103845  
 0.0485333 -0.0115574 -0.00301515  0.0169781  0.0173077 -0.0137058  
-0.0265177  0.0177007 5.04215e-06 -0.0360196 -0.0384293  0.0751259  
-0.00342018  0.0108214 -4.85337e-05  -0.036174 -0.0423271  0.0404493  
-0.0157469  0.0132644 -1.75669e-05 -0.0453003 -0.0472629  0.0607298  
-0.0165994  0.0135365 -4.97176e-05 -0.0232806 -0.0309592  0.0657776  
-0.00357846  0.0108453 3.45541e-05 -0.0364347 -0.0422372  0.0405783  
-0.0158485  0.0133512 7.45139e-06 -0.0453809 -0.0472142   0.060776  
-0.0166536  0.0135408 -2.01283e-07 -0.0233763 -0.0309789   0.065809  
-0.00970934  0.0121788 -5.31882e-05 -0.0303628 -0.0371043  0.0537159  
-0.00981401  0.0121883 1.63402e-05 -0.0305431 -0.0370731   0.053792  
-0.0265057  0.0176803 -9.08072e-06  -0.036093 -0.0384949  0.0751469  
-0.00363494  0.0109894 -7.53423e-06 -0.0362727 -0.0423156  0.0405418  
-0.0158911  0.0133889 -5.23352e-06 -0.0454411 -0.0473318  0.0608004  
-0.0167138  0.0136632 -3.68333e-05 -0.0235151 -0.0311365  0.0658584  
-0.0035313  0.0109071 -1.58134e-05 -0.0361998 -0.0423414  0.0404914  
-0.0158161  0.0133184 -5.49934e-06 -0.0453675  -0.047309  0.0607652  
-0.0166556  0.0135982 -3.68717e-05 -0.0234013 -0.0310523  0.0658302  
-0.00987207  0.0123316 -2.69917e-05 -0.0305343 -0.0371894  0.0538152  
-0.00979195  0.0122558 -3.15817e-05 -0.0304386 -0.0371577  0.0537715  
-0.0266463   0.017859 -2.89996e-05 -0.0362371 -0.0386148  0.0752249  
-0.00383777  0.0112265 -0.000159153 -0.0364102 -0.0425298  0.0406912  
 -0.016101  0.0136246 -6.38474e-05 -0.0455064 -0.0474692  0.0609209  
-0.0169178  0.0138716 -6.18341e-05 -0.0236888 -0.0313227  0.0659456  
-0.0037313  0.0111056 -8.02135e-05 -0.0363558 -0.0423739  0.0406244  
-0.0159903  0.0135051 -3.57744e-05 -0.0454845 -0.0473791   0.060859  
-0.0168073  0.0137669 -5.36004e-05 -0.0236085 -0.0312204   0.065903  
-0.0100785  0.0125569 -0.000106537  -0.030692 -0.0373918   0.053935  
-0.00996831  0.0124429 -6.74919e-05 -0.0306237 -0.0372631  0.0538796  
-0.0268363   0.018061 -1.35916e-06 -0.0362995 -0.0386957  0.0752676  
-0.00427216  0.0113918 4.81032e-05 -0.0366257  -0.042789  0.0407005  
 -0.016351  0.0138042 3.62281e-05 -0.0455777 -0.0475256  0.0609247  
-0.0171275  0.0139954 8.3536e-05 -0.0238474 -0.0313052  0.0659046  
-0.00403864  0.0113157 -7.96097e-05 -0.0364894 -0.0427067   0.040707  
-0.0162297  0.0137216 -2.08554e-05 -0.0455285 -0.0475267  0.0609378  
-0.0170326  0.0139384 8.83223e-06 -0.0237586 -0.0313441  0.0659403  
 -0.010399  0.0127007 7.04217e-05 -0.0308793 -0.0375018  0.0539177  
 -0.010236  0.0126351 -3.005e-05 -0.0307669 -0.0374854  0.0539402  
-0.0268018  0.0180331 3.43973e-05 -0.0362829 -0.0385693  0.0751982  
-0.00418076  0.0112445 0.000141082 -0.0367531 -0.0424897  0.0407639  
-0.0162489  0.0137058 5.46777e-05 -0.0455881 -0.0473604  0.0608985  
-0.0169987  0.0138707 8.18411e-05 -0.0237955  -0.031168  0.0659208  
-0.0102875  0.0125578 0.000112783 -0.0309164 -0.0372868   0.053951  
0.00979357  0.0131766 -0.00115641 -0.0162355 -0.0166137  0.0126772  
0.00274049  0.0170341 -0.000695029 -0.00726617 -0.00991891   0.020337  
 0.0091754  0.0125806 -8.55349e-05 -0.0178413 -0.0162652   0.012631  
0.00220482  0.0162272 0.000347489 -0.00878527 -0.00969534  0.0205942  
0.00565468  0.0153167 -0.000941438 -0.0112879 -0.0130962  0.0169187  
0.00510525   0.014532 0.000180342 -0.0127491 -0.0127163  0.0170478  
 0.0102734   0.012947 -0.0004905 -0.0153936 -0.0138868  0.0136698  
0.00312964  0.0172724 -0.000531663 -0.00617878 -0.00796082  0.0216393  
 0.0103223  0.0130985 -0.000981065 -0.0155996 -0.0147866  0.0133323  
0.00312051  0.0172031 -0.000716977 -0.00657839 -0.00873933  0.0211618  
0.00609852  0.0153136 -0.000518054  -0.010276 -0.0107222  0.0180671  
0.00612186  0.0153456 -0.000849837 -0.0105858 -0.0115488  0.0176388  
 0.0102219  0.0125602 6.85045e-05 -0.0153071 -0.0136959  0.0133451  
0.00313036   0.017015 -0.000188183  -0.005931 -0.00763468  0.0214517  
 0.0102407  0.0127493 -0.00019744 -0.0153564 -0.0138585  0.0135389  
0.00311417  0.0171417 -0.00033361 -0.00605649 -0.00782309  0.0215965  
0.00607905  0.0149951 -7.31637e-05 -0.0101027 -0.0104443  0.0178192  
0.00607701  0.0151519 -0.000274099 -0.0101955 -0.0106285  0.0179758  
 0.0106761  0.0118025 0.000629047  -0.015355 -0.0152855  0.0132798  
0.00344053  0.0164324 -0.000137336 -0.00530436 -0.00837052    0.02073  
 0.0102035  0.0122549 0.000472569  -0.015298 -0.0142196  0.0132539  
0.00314161  0.0167458 -2.15359e-05 -0.00569897 -0.00777388   0.021176  
0.00647245  0.0142654 0.000263894 -0.0098101  -0.011532   0.017377  
0.00607132  0.0147161 0.000203747 -0.00997412  -0.010777  0.0176154  
 0.0105723   0.011436 0.000791471 -0.0168745 -0.0149979   0.013869  
0.00315404  0.0153033 0.000724635 -0.00699868 -0.00820604  0.0208841  
0.00622197  0.0136254 0.000739848  -0.011324 -0.0113821  0.0178544  
0.00728582  0.0139323 0.000707825  0.0182302  0.0196663  0.0224203  
 0.0106322   0.012478 0.00230507  0.0124572  0.0139982  0.0143052  
0.00734384  0.0139637 0.000408069  0.0192176   0.019587  0.0228012  
 0.0132216  0.0117215 0.000900484  0.0155675  0.0155462  0.0141022  
0.00959503   0.013165 0.00122158  0.0153542  0.0166622  0.0174034  
 0.0100845  0.0127889 0.000944526  0.0169637  0.0169001  0.0180278  
0.00686882  0.0144549 0.00018655  0.0185721   0.018593  0.0219665  
 0.0115274   0.013436 3.24532e-05  0.0133604  0.0120875   0.013619  
0.00694482   0.014205 0.000512432  0.0184065  0.0190781  0.0220185  
 0.0112666  0.0130487 0.000847144  0.0132422  0.0122459  0.0134106  
0.00948414  0.0139116 0.000109971  0.0158968  0.0150497  0.0170776  
0.00934007   0.013582 0.000720107  0.0157188  0.0154348  0.0170583  
0.00711195  0.0148006 -0.000547255  0.0187692  0.0189003  0.0222481  
 0.0115822  0.0138536 -0.000500916  0.0135035   0.012284  0.0138015  
0.00698922  0.0146265 -0.000163856  0.0186886  0.0187752  0.0221601  
 0.0115383  0.0136436 -0.000207144  0.0133965  0.0121625  0.0137246  
0.00961708  0.0142973 -0.00053433  0.0160453  0.0152978  0.0173776  
0.00953722  0.0141008 -0.000187824  0.0159656  0.0152332  0.0172591  
0.00652722  0.0148586 -0.000684875  0.0196662  0.0206216  0.0217575  
 0.0126866  0.0139428 -0.00275227    0.01407  0.0150716  0.0115398  
  0.006981  0.0148862 -0.000744767  0.0190621  0.0196869  0.0221141  
 0.0119632  0.0139404 -0.00133057  0.0137389  0.0127902  0.0134908  
0.00953531  0.0143701  -0.001451  0.0169019  0.0176467  0.0162616  
0.00978156  0.0143818 -0.00108025   0.016318  0.0160235  0.0170528  
 0.0062449  0.0145446 -1.18786e-05  0.0204596  0.0201505  0.0220366  
 0.0102828  0.0129113 -0.000209914   0.017666  0.0164839  0.0121417  
0.00900411  0.0136824 -0.000396559  0.0186499   0.017703  0.0161161  
 0.0064583  0.0149864 -0.000723565  0.0191741   0.020106  0.0215557  
 0.0126828  0.0139589 -0.00276965  0.0139831  0.0149997  0.0115169  
0.00615229   0.014646 -1.58631e-05  0.0200047  0.0196521  0.0218298  
 0.0102615  0.0129145 -0.000213199  0.0176135  0.0164536  0.0121155  
 0.0094787  0.0144459 -0.0014748  0.0166408  0.0173709  0.0162004  
0.00893492  0.0137395 -0.0004028  0.0184124  0.0174468  0.0160433  
0.00702105  0.0149422 -0.000552907  0.0182544  0.0183467  0.0220836  
 0.0115569  0.0138723 -0.000502122  0.0134287  0.0122323  0.0137926  
  0.006904  0.0150236 -0.000766906  0.0185547  0.0191402  0.0219346  
 0.0119382  0.0139579 -0.00133109  0.0136646  0.0127296  0.0134833  
0.00954202  0.0143816 -0.000535942  0.0157784  0.0150137  0.0173386  
0.00971474  0.0144632 -0.00109049   0.016053  0.0157351  0.0170066  
0.00677798  0.0145978 0.000174685   0.018055  0.0180356  0.0218031  
  0.011502  0.0134549 3.18071e-05   0.013285  0.0120366  0.0136134  
0.00689752  0.0147684 -0.00017127  0.0181716  0.0182272  0.0219968  
 0.0115129  0.0136625 -0.000208363  0.0133218  0.0121063  0.0137176  
0.00941153   0.013997 0.000102178  0.0156279  0.0147646  0.0170398  
0.00946302  0.0141854 -0.000191912   0.015697  0.0149493  0.0172209  
0.00717971  0.0140503 0.000730376   0.017675  0.0191126  0.0222393  
 0.0105894  0.0124958 0.00231572  0.0123719  0.0139264  0.0142973  
0.00684322  0.0143397 0.000515616  0.0178783  0.0185133  0.0218421  
  0.011243   0.013067 0.000843635  0.0131689  0.0121863  0.0134012  
0.00950952  0.0132395 0.00123202  0.0150667  0.0163705  0.0173502  
0.00926168  0.0136636 0.000719075   0.015446  0.0151387  0.0170138  
0.00724819   0.014062 0.000438423  0.0186872  0.0190529   0.022637  
 0.0132024  0.0117265 0.000909016  0.0154993  0.0155104  0.0140881  
 0.0100059  0.0128448 0.00096613  0.0166866  0.0166224  0.0179866  
 0.0106886  0.0117267 0.00059911 -0.0159422 -0.0158438   0.013352  
0.00329614  0.0162329 -0.000144432 -0.00573008 -0.00892614  0.0213374  
 0.0105637  0.0113892 0.000755414 -0.0174044  -0.015546  0.0139286  
0.00300535   0.015175 0.000672672 -0.00735873 -0.00877431  0.0214839  
0.00636669  0.0141548 0.000240272 -0.0102995 -0.0121163  0.0177353  
0.00610347  0.0135582 0.000696377 -0.0117505 -0.0119647   0.018199  
 0.0102177  0.0124661 7.55504e-05 -0.0158783 -0.0142921  0.0134115  
0.00298354  0.0167913 -0.000177045 -0.00632421 -0.00823377  0.0220121  
 0.0102112  0.0121665 0.000461602 -0.0158725 -0.0148165  0.0133259  
0.00300425  0.0165334 -2.69501e-05 -0.0060954 -0.00837329  0.0217537  
0.00596361  0.0148609 -6.43759e-05 -0.0105706 -0.0110748  0.0181541  
0.00596786  0.0145902 0.000193034  -0.010443 -0.0114065  0.0179601  
 0.0102705  0.0128515 -0.000488892 -0.0159636 -0.0144821  0.0137364  
0.00298318  0.0170486 -0.000525073 -0.00658029 -0.00856878  0.0221984  
 0.0102371  0.0126543 -0.000192661 -0.0159287 -0.0144492  0.0136063  
0.00296814  0.0169182 -0.000324746 -0.00645546 -0.00841979  0.0221571  
0.00598425  0.0151788 -0.000514981 -0.0107467 -0.0113568  0.0184013  
 0.0059623  0.0150172 -0.000267779 -0.0106665 -0.0112548  0.0183115  
0.00975361  0.0130867 -0.00109702 -0.0167955 -0.0171512  0.0127973  
0.00254298   0.016832 -0.000613616 -0.00765373  -0.010441  0.0209972  
 0.0103002  0.0130053 -0.000954793 -0.0161665 -0.0153798  0.0134129  
0.00294624  0.0169863 -0.000676747 -0.00697779 -0.00933657  0.0217528  
 0.0054956  0.0151931 -0.000867895 -0.0117466 -0.0136538  0.0173294  
0.00598267  0.0152144 -0.0008152 -0.0110559 -0.0121783   0.017995  
0.00917834  0.0125141 -6.95613e-05 -0.0183326 -0.0167669  0.0127582  
0.00206086  0.0160754 0.00035577 -0.00906557 -0.0101772  0.0212622  
0.00499533  0.0144474 0.000193569 -0.0131222 -0.0132377  0.0174691  
 -0.034077  0.0216329 -5.19682e-06 -0.000769368 -0.00671631  0.0900537  
-0.0117013 0.00722146 -1.56861e-05 -0.00266359 -0.00761092  0.0700845  
-0.0107544 0.00842109 -3.88918e-05 -0.00819795 -0.0162722  0.0646558  
 -0.030456  0.0202146 1.08897e-05 -0.0188684 -0.0230507  0.0839368  
-0.0217589  0.0140504 3.02232e-05 -0.00192389 -0.00758689  0.0797251  
-0.0107609 0.00840374 -1.18632e-05 -0.00821848 -0.0163248  0.0646951  
-0.0304925  0.0203042 1.08403e-08 -0.0188625 -0.0230892  0.0839446  
-0.0217574  0.0141303 -1.17345e-05  -0.001847 -0.00765578  0.0797466  
-0.0192758  0.0140445 -1.14034e-05 -0.0129256 -0.0197239  0.0738429  
-0.0193003  0.0140819 -7.00993e-06 -0.0129361 -0.0197712  0.0738641  
 -0.034084   0.021518 2.48895e-05 -0.000943284 -0.00672431  0.0899992  
-0.0117659 0.00720148 1.05498e-05 -0.00293823 -0.00770863  0.0699786  
-0.0108519 0.00852796 -4.03851e-05 -0.00844736  -0.016517  0.0646704  
-0.0305335  0.0202953 -4.32285e-06 -0.0190776 -0.0231855  0.0839388  
-0.0218217  0.0141027 -7.92739e-06 -0.00215727 -0.00779938  0.0796316  
-0.0108061 0.00847343 -3.03695e-05 -0.00833979 -0.0164044  0.0646777  
-0.0304923  0.0202426 7.86333e-06 -0.0189864 -0.0231213  0.0839343  
-0.0217897  0.0140611 1.8427e-05 -0.00206725 -0.00770364  0.0796703  
-0.0193657  0.0141368 -2.25177e-05 -0.0131586 -0.0199166  0.0738447  
-0.0193205  0.0140826 -1.00487e-05 -0.0130575 -0.0198272  0.0738472  
-0.0341768  0.0216568 -1.39585e-05 -0.00107385 -0.00682367  0.0899986  
-0.0118681 0.00733887 -3.87854e-05 -0.00306937 -0.00788283  0.0699532  
-0.0110374 0.00871694 -5.63734e-05 -0.0086192 -0.0166838  0.0647342  
-0.0306933  0.0205101 -2.80085e-05 -0.0191575 -0.0232726  0.0840144  
-0.0219789  0.0142965 -2.90642e-05 -0.00224471 -0.00787233  0.0796849  
-0.0109338  0.0086235 -5.63569e-05 -0.00853512 -0.0165978  0.0647006  
-0.0306073  0.0204018 -2.05965e-05 -0.0191216 -0.0232305  0.0839757  
-0.0218917  0.0142003 -2.62567e-05 -0.00220003 -0.00784295  0.0796574  
-0.0195442  0.0143387 -4.23979e-05 -0.0132873 -0.0200444  0.0739138  
-0.0194464  0.0142378 -3.86377e-05 -0.0132258 -0.0199804  0.0738792  
-0.0342983  0.0218314 2.22273e-06 -0.00113966 -0.00684185  0.0900161  
-0.0120288 0.00747035 2.62925e-05 -0.00317016 -0.00789047  0.0699902  
-0.0112108 0.00879752 0.000109273 -0.0088167 -0.0166253  0.0646941  
-0.0308044  0.0206521 2.75453e-05  -0.019217 -0.0232645  0.0839584  
-0.0220615  0.0143942 5.25256e-05 -0.00234079 -0.0078393  0.0796505  
-0.0111381 0.00876211 2.70633e-05 -0.00870084 -0.0166803  0.0647318  
-0.0307613  0.0205899 7.90367e-07 -0.0191833 -0.0232753  0.0840018  
-0.0220377  0.0143544 1.40723e-05 -0.00228494 -0.00785773  0.0796838  
-0.0196894  0.0144486 6.79003e-05 -0.0134165  -0.020014  0.0738689  
-0.0196304  0.0144009 1.34855e-05 -0.0133426 -0.0200448  0.0739074  
-0.0342286  0.0218469 -7.95691e-06 -0.00104753 -0.00686511  0.0899664  
 -0.011905 0.00743505 1.76292e-05 -0.00311312 -0.00786105  0.0699971  
-0.0110592 0.00868802 7.15263e-05 -0.00872684 -0.0165601  0.0647419  
-0.0307103  0.0205797 1.1932e-05   -0.01913 -0.0232272  0.0839365  
-0.0219411  0.0143431 5.4918e-06 -0.00221071 -0.00785348  0.0796594  
-0.0195645  0.0143567 4.22108e-05 -0.0133278 -0.0199583  0.0738783  
 0.0803815  -0.028746 -0.000360698  -0.007994 0.00226668 -0.0484319  
 0.0771817 -0.0277162 0.000319884  0.0123458  0.0187385 -0.0405424  
 0.0820449 -0.0235671 7.07159e-05 -0.00199287  0.0080175 -0.0608936  
 0.0761564 -0.0234151 0.000236674  0.0265702  0.0427325 -0.0441744  
 0.0777029 -0.0271969 -0.000361493  0.0124604  0.0185142 -0.0410061  
 0.0824246 -0.0233205 -0.000211746 -0.00232096 0.00763867 -0.0611955  
 0.0765249 -0.0230904 -0.000227217  0.0268718  0.0423992 -0.0444851  
 0.0800358 -0.0234553 0.000159737  0.0123022  0.0272874  -0.052466  
 0.0804205 -0.0231697 -0.000225512  0.0123118  0.0269288 -0.0527877  
 0.0798406 -0.0294604 0.00017889 -0.00831128 0.00215656   -0.04828  
 0.0766956 -0.0279987 0.000329948  0.0110916  0.0174136 -0.0413997  
 0.0816956 -0.0237711 0.000138068 -0.00308959 0.00714497   -0.06125  
 0.0753956 -0.0235838 0.000267972  0.0252174  0.0410747 -0.0448412  
 0.0768465  -0.027913 0.000378527  0.0115786  0.0179682 -0.0409969  
 0.0818289 -0.0237006 0.000120511 -0.00261186 0.00755702 -0.0610593  
 0.0756626 -0.0235325 0.000309317  0.0257639  0.0418318 -0.0445311  
 0.0794495 -0.0236435 0.000207345  0.0110393  0.0259541 -0.0529886  
 0.0796596 -0.0235809 0.000221197  0.0115655  0.0265691 -0.0527331  
  0.079804 -0.0296339 0.000221921 -0.00897106 0.00155689 -0.0487213  
 0.0767133 -0.0279481 0.000216332  0.0106386  0.0168412 -0.0414216  
 0.0817232 -0.0237882 0.000170346 -0.0037229 0.00639127 -0.0612748  
 0.0753783 -0.0235441 7.22781e-05  0.0246907  0.0404342  -0.044908  
 0.0767152 -0.0279682 0.000238569  0.0108678  0.0171298 -0.0414751  
 0.0817074 -0.0237768 0.000134038 -0.00340804 0.00677326 -0.0613031  
  0.075389 -0.0235613 0.000146886  0.0249577   0.040718 -0.0449242  
 0.0794532 -0.0236368 0.000123875  0.0104483  0.0252424 -0.0530401  
 0.0794516 -0.0236374 0.000143477   0.010745   0.025581   -0.05306  
 0.0800004 -0.0295931 0.000318065 -0.00963184 0.000696026 -0.0483944  
 0.0769274 -0.0275097 8.62541e-05 0.00975565   0.016198 -0.0409275  
 0.0822574 -0.0236278 0.00011368 -0.00472351  0.0052374 -0.0609604  
 0.0753964 -0.0232333 -2.09196e-05   0.024156  0.0402653 -0.0447447  
 0.0768011  -0.027793 0.000170351  0.0102798  0.0165486 -0.0411431  
  0.081924 -0.0237375 0.000170651 -0.00415691 0.00585722 -0.0611108  
 0.0753991  -0.023431 1.90999e-05  0.0244271  0.0403495 -0.0447862  
   0.07972 -0.0234036 4.92064e-05 0.00968643  0.0245921 -0.0528074  
 0.0795613 -0.0235566 9.68686e-05  0.0101003  0.0249398 -0.0528999  
  0.080757 -0.0289062 -0.000358179 -0.0101138 0.000299702 -0.0485275  
 0.0773699 -0.0270376 -0.000425954  0.0103027  0.0164906 -0.0413489  
 0.0826216 -0.0233656 -0.000213454 -0.00442478 0.00560522  -0.061237  
 0.0757693 -0.0229498 -0.000248086   0.024978  0.0405681 -0.0449425  
  0.080106  -0.023128 -0.000236031   0.010279  0.0249358 -0.0530542  
-0.0509019  0.0360636 2.52685e-05 0.000459434 -0.00847968   0.104158  
-0.0397694  0.0277998 1.26166e-06 -0.0540793 -0.0469369  0.0869769  
-0.0509141  0.0361662 -2.85729e-07 0.000488433 -0.00852177   0.104151  
-0.0398123  0.0278786 5.4099e-06 -0.0540726 -0.0469389  0.0869718  
 -0.046107  0.0331934 1.30449e-05 -0.0269754 -0.0278017  0.0969676  
-0.0461335  0.0332799 2.47704e-06 -0.0269579 -0.0278255  0.0969596  
-0.0509332  0.0360706 9.74881e-06 0.000218065 -0.0085572    0.10409  
-0.0398241  0.0278843 -7.57022e-07 -0.0542308 -0.0470183   0.087053  
-0.0509154  0.0360493 2.14865e-05 0.000321686 -0.00851983   0.104114  
-0.0397928  0.0278331 2.59389e-06 -0.0541653 -0.0469796  0.0870164  
-0.0461481  0.0332377 4.76637e-06 -0.0271754 -0.0278783  0.0969746  
-0.0461248  0.0332026 1.20661e-05 -0.0270893 -0.0278412  0.0969671  
-0.0510174  0.0362391 -1.49266e-05 0.000122349 -0.00858814   0.104148  
-0.0399583  0.0280855 -2.34341e-05  -0.054218 -0.0471046  0.0871629  
-0.0509721  0.0361543 -5.85029e-06 0.000167894 -0.00857664   0.104117  
-0.0398863  0.0279828 -1.37488e-05 -0.0542335 -0.0470579  0.0871054  
-0.0462518  0.0334182 -1.83875e-05 -0.0272168 -0.0279343  0.0970571  
-0.0461961  0.0333266 -9.26501e-06 -0.0272019 -0.0279071  0.0970137  
 -0.051055  0.0363691 2.80487e-06 8.24535e-05 -0.00859703   0.104075  
-0.0400666  0.0282498 1.11448e-05 -0.0542074   -0.04709  0.0871022  
-0.0510447  0.0363102 -5.34579e-06 9.96472e-05 -0.00859013   0.104127  
-0.0400211  0.0281746 -6.85768e-06 -0.0542029 -0.0471104  0.0871519  
-0.0463228  0.0335619 6.32803e-06 -0.0272332 -0.0279293  0.0969845  
-0.0462953  0.0334965 -5.89859e-06 -0.0272211 -0.0279366  0.0970382  
-0.0510046  0.0363453 -1.00046e-05 0.000207012 -0.00860729   0.104059  
-0.0399979  0.0281706 1.26027e-05 -0.0541905 -0.0470239  0.0870396  
-0.0462662  0.0335105 6.20483e-07  -0.027162 -0.0279055  0.0969459  
-0.0307618  0.0197612 -1.86837e-05   0.011065 0.00296734  0.0881332  
-0.0259955  0.0170964 3.93084e-05 -0.00643503 -0.0131136  0.0816558  
-0.0487998  0.0348826 1.61516e-06 0.00920442 -0.00116114   0.102984  
-0.0359521   0.025445 2.42957e-05 -0.0412056 -0.0389929  0.0848547  
-0.0258912  0.0170341 1.22271e-05 -0.0063234 -0.0130989  0.0816529  
-0.0487481  0.0348739 -1.50263e-05 0.00934406 -0.00118738   0.102976  
-0.0358695  0.0253616 1.99005e-05  -0.041164 -0.0389275  0.0848115  
-0.0426723  0.0307206 1.24359e-05 -0.0189707  -0.021464   0.094936  
-0.0426061  0.0306722 1.03936e-06 -0.0188849 -0.0214476   0.094908  
-0.0308258  0.0197164 -3.6916e-06  0.0109456 0.00303659  0.0881609  
-0.0258868  0.0169696 -3.05368e-05 -0.00635066 -0.0131234  0.0817054  
-0.0487601  0.0347527 -1.7366e-05 0.00924405 -0.00114831   0.103044  
-0.0358367  0.0252936 -2.78389e-05 -0.0411754 -0.0390118  0.0849172  
-0.0259555   0.017041 6.2684e-06 -0.00638997 -0.0131214   0.081696  
-0.0487889   0.034824 -7.52247e-06 0.00921978 -0.00114836   0.103029  
-0.0359045  0.0253764 -1.8269e-06 -0.0411824 -0.0390158  0.0849037  
-0.0425968  0.0305825 -2.04875e-05 -0.0189377 -0.0214683  0.0950041  
-0.0426439  0.0306583 -3.49332e-06 -0.0189513 -0.0214694  0.0949868  
-0.0307031  0.0195431 -1.26898e-05   0.011004 0.00303047   0.088131  
-0.0257218  0.0167569 -5.21691e-06 -0.00624942 -0.0130396  0.0816424  
 -0.048672  0.0345815 1.44127e-05 0.00934162 -0.00113105   0.102989  
-0.0356895  0.0250909 -6.85832e-06 -0.0411387 -0.0389129  0.0848202  
-0.0257972  0.0168634 -2.4002e-05 -0.00630133 -0.0130862  0.0816728  
-0.0487127   0.034667 -5.24965e-06 0.00929215 -0.00114594   0.103013  
-0.0357575  0.0251907 -2.00967e-05 -0.0411645   -0.03896  0.0848675  
 -0.042482  0.0303979 3.68272e-06 -0.0188782 -0.0214102  0.0949289  
 -0.042535  0.0304892 -1.17377e-05 -0.0189124 -0.0214415  0.0949645  
-0.0306146  0.0194127 4.34341e-05  0.0111182 0.00311733   0.088165  
-0.0256463  0.0166939 1.59372e-05 -0.00601952  -0.012875  0.0816881  
-0.0486396  0.0345905 3.49544e-05 0.00958625 -0.00104819   0.103097  
 -0.035623  0.0250021 -2.46298e-06 -0.0409567 -0.0388028  0.0847605  
-0.0256821  0.0167103 1.21259e-05 -0.00615298 -0.0129608  0.0816596  
-0.0486534  0.0345647 2.97499e-05 0.00944447 -0.00109137    0.10303  
-0.0356532  0.0250379 -1.38493e-06 -0.0410582   -0.03886  0.0847915  
-0.0424333  0.0303554 1.61091e-05 -0.0186675 -0.0213142  0.0949446  
-0.0424552  0.0303626 1.39142e-05 -0.0187882 -0.0213639  0.0949313  
-0.0306177  0.0195825 -8.36903e-06  0.0113319 0.00311049  0.0882745  
-0.0256744  0.0167829 -6.61943e-06 -0.00600245 -0.0129374  0.0816982  
 -0.048654  0.0347113 -1.9514e-06 0.00962956 -0.00109883   0.103096  
 -0.035663  0.0250714 3.40806e-06 -0.0409621 -0.0388175  0.0847609  
 -0.042459  0.0304465 2.77493e-07 -0.0186476  -0.021349  0.0949414  
 0.0807586 -0.0289059 -0.00035801 -0.0101171 0.000296642 -0.0485313  
 0.0769296 -0.0275117 8.62677e-05 0.00974823  0.0161913   -0.04093  
 0.0822584 -0.0236268 0.000113641 -0.00472517 0.00523448 -0.0609636  
 0.0754017 -0.0232375 -2.09282e-05  0.0241489  0.0402553 -0.0447476  
  0.077372 -0.0270396 -0.000425921   0.010295  0.0164839 -0.0413512  
 0.0826225 -0.0233647 -0.000213363 -0.00442652 0.00560224   -0.06124  
 0.0757744 -0.0229539 -0.000248177  0.0249706  0.0405582 -0.0449453  
 0.0797211 -0.0234039 4.91869e-05 0.00968301  0.0245885 -0.0528093  
  0.080107 -0.0231284 -0.000236019  0.0102754  0.0249323  -0.053056  
 0.0800022 -0.0295924 0.00031797 -0.00963525 0.000692922 -0.0483983  
 0.0767153 -0.0279499 0.00021636   0.010631  0.0168346  -0.041424  
 0.0817242 -0.0237871 0.000170309 -0.0037248 0.00638818 -0.0612779  
 0.0753833 -0.0235482 7.23544e-05  0.0246836  0.0404244 -0.0449109  
 0.0768032 -0.0277949 0.000170382  0.0102723   0.016542 -0.0411456  
  0.081925 -0.0237364 0.000170601 -0.00415874  0.0058542 -0.0611139  
 0.0754042 -0.0234351 1.91553e-05  0.0244199  0.0403396 -0.0447892  
 0.0794541 -0.0236371 0.000123884  0.0104447  0.0252388  -0.053042  
 0.0795624 -0.0235569 9.68669e-05  0.0100968  0.0249362 -0.0529018  
 0.0798058 -0.0296332 0.000221866 -0.00897454 0.00155376  -0.048725  
 0.0766976 -0.0280005 0.000329864   0.011084  0.0174071 -0.0414021  
 0.0816966 -0.0237701 0.000138017 -0.00309155 0.00714186 -0.0612531  
 0.0754005 -0.0235879 0.000267927  0.0252102  0.0410648 -0.0448442  
 0.0767172   -0.02797 0.000238554  0.0108601  0.0171232 -0.0414775  
 0.0817084 -0.0237757 0.000134005 -0.00340996 0.00677016 -0.0613061  
  0.075394 -0.0235653 0.000146905  0.0249506  0.0407083 -0.0449271  
 0.0794504 -0.0236438 0.000207298  0.0110357  0.0259505 -0.0529906  
 0.0794525 -0.0236377 0.000143466  0.0107414  0.0255774 -0.0530619  
 0.0798424 -0.0294597 0.000178768 -0.00831493 0.00215335  -0.048284  
 0.0771835  -0.027718 0.000319802  0.0123376  0.0187315 -0.0405451  
 0.0820459 -0.0235661 7.06395e-05 -0.00199526 0.00801408 -0.0608969  
 0.0761609 -0.0234191 0.000236725  0.0265625  0.0427222 -0.0441775  
 0.0768484 -0.0279148 0.000378403  0.0115707  0.0179614 -0.0409996  
 0.0818299 -0.0236995 0.000120437 -0.00261399 0.00755379 -0.0610626  
 0.0756674 -0.0235365 0.000309286  0.0257566  0.0418218 -0.0445342  
 0.0800366 -0.0234555 0.000159714   0.012298  0.0272834 -0.0524681  
 0.0796605 -0.0235812 0.00022114  0.0115616  0.0265652 -0.0527352  
 0.0803831 -0.0287456 -0.000360594 -0.00799795 0.00226317 -0.0484357  
 0.0777045 -0.0271988 -0.000361418   0.012452  0.0185073 -0.0410085  
 0.0824254 -0.0233196 -0.000211679 -0.00232334 0.00763526 -0.0611986  
 0.0765295 -0.0230944 -0.00022717   0.026864  0.0423892 -0.0444881  
 0.0804211 -0.0231701 -0.000225453  0.0123076  0.0269249 -0.0527897  
 0.0651269 -0.0222883 -0.000224997 -0.0419746  -0.028454 -0.0385667  
 0.0736883 -0.0259898 0.000260412 -0.0254049 -0.0139576  -0.043099  
 0.0738367 -0.0245786 0.000138995  -0.029931 -0.0308732 -0.0524408  
 0.0739805 -0.0255244 -0.000290928 -0.0254635 -0.0136606 -0.0434331  
  0.073971 -0.0243127 -0.000147598 -0.0301032 -0.0305337 -0.0526368  
 0.0787327 -0.0237856 0.000128787 -0.0163306 -0.0121864 -0.0571694  
 0.0789916 -0.0235293 -0.000180467 -0.0162805 -0.0118306 -0.0574107  
 0.0644355 -0.0227962 0.000387724  -0.041005 -0.0279249 -0.0386556  
 0.0729917 -0.0261548 0.000319301 -0.0242513 -0.0125324 -0.0436941  
 0.0730964 -0.0247176 0.000199826 -0.0287948 -0.0294261 -0.0529165  
 0.0732363 -0.0261197 0.000358896 -0.0247074 -0.0131699 -0.0434143  
 0.0733756 -0.0246782 0.000218497 -0.0292593 -0.0301193 -0.0526901  
 0.0780822 -0.0239401 0.000185259 -0.0152347 -0.0108456 -0.0575686  
 0.0783255  -0.023892 0.000196426 -0.0156954 -0.0114764 -0.0573722  
 0.0641119 -0.0226881 0.000148757 -0.0403054 -0.0269664 -0.0389079  
 0.0729414 -0.0260333 0.000108524 -0.0237769 -0.0119881 -0.0436146  
 0.0730069 -0.0246744 1.7788e-05 -0.0282807 -0.0288662 -0.0529361  
 0.0729716 -0.0260895 0.000186489 -0.0240181 -0.0122413 -0.0437133  
 0.0730462 -0.0246925 9.50096e-05 -0.0285445 -0.0290956 -0.0529681  
  0.078029 -0.0239186 7.84083e-05 -0.0146472  -0.010174 -0.0575727  
 0.0780516 -0.0239262 0.000114785 -0.0149454 -0.0104823 -0.0576114  
 0.0639381 -0.0223797 -8.62009e-05 -0.0397609 -0.0269383 -0.0385822  
 0.0728158 -0.0255561 -8.24807e-06 -0.0229471 -0.0118726 -0.0431254  
 0.0728351 -0.0244205 -4.88482e-05 -0.0276843 -0.0289965 -0.0527535  
  0.072904 -0.0258517 4.22959e-05 -0.0234142 -0.0119233 -0.0433361  
 0.0729515 -0.0245811 -3.00054e-05 -0.0279842 -0.0289173 -0.0528117  
 0.0781237  -0.023701 8.16581e-06 -0.0137939 -0.00980787  -0.057319  
 0.0780723  -0.023842 4.37677e-05 -0.0142553 -0.0099936 -0.0574225  
 0.0639298 -0.0218225 -0.000225283 -0.0401674 -0.0273211 -0.0387179  
 0.0731621 -0.0252075 -0.000296753 -0.0234837 -0.0120883 -0.0434865  
  0.073079 -0.0241959 -0.000135903 -0.0283982 -0.0292242 -0.0528946  
 0.0784366 -0.0234653 -0.000174512 -0.0143395 -0.0101254 -0.0575403  
 0.0639236 -0.0218275 -0.000225616 -0.0401727 -0.0273056 -0.0386978  
 0.0728132 -0.0255568 -8.15133e-06 -0.0229412  -0.011863 -0.0431156  
 0.0728367 -0.0244244 -4.87972e-05   -0.02768 -0.0289752 -0.0527514  
 0.0731596 -0.0252079 -0.000296943 -0.0234779 -0.0120784 -0.0434771  
 0.0730809 -0.0241996 -0.000136092 -0.0283943 -0.0292028  -0.052893  
 0.0781212 -0.0237008 8.22388e-06 -0.0137922 -0.00980299  -0.057312  
 0.0784342  -0.023465 -0.000174608 -0.0143379 -0.0101205 -0.0575336  
 0.0639319 -0.0223855 -8.62058e-05 -0.0397666 -0.0269233 -0.0385619  
 0.0729389 -0.0260342 0.000108581 -0.0237715 -0.0119785 -0.0436052  
 0.0730085 -0.0246786 1.78601e-05 -0.0282772 -0.0288452 -0.0529345  
 0.0729015 -0.0258525 4.23519e-05 -0.0234086 -0.0119137 -0.0433265  
 0.0729532 -0.0245851 -2.99596e-05 -0.0279804 -0.0288961 -0.0528098  
 0.0780266 -0.0239186 7.84408e-05  -0.014646 -0.0101693 -0.0575659  
 0.0780698 -0.0238419 4.38066e-05 -0.0142539 -0.00998883 -0.0574156  
 0.0641058 -0.0226943  0.0001489 -0.0403115 -0.0269513 -0.0388882  
 0.0729892 -0.0261558 0.000319464  -0.024246 -0.0125227 -0.0436849  
  0.073098  -0.024722 0.000199998 -0.0287915 -0.0294052  -0.052915  
 0.0729691 -0.0260905 0.00018658 -0.0240128 -0.0122316 -0.0437041  
 0.0730478 -0.0246968 9.51104e-05 -0.0285412 -0.0290746 -0.0529665  
 0.0780797 -0.0239401 0.000185354 -0.0152335 -0.0108408 -0.0575619  
 0.0780492 -0.0239262 0.000114836 -0.0149442 -0.0104776 -0.0576047  
 0.0644293 -0.0228026 0.000388202 -0.0410111 -0.0279099 -0.0386356  
 0.0736859 -0.0259908 0.000260697 -0.0254001 -0.0139485 -0.0430892  
 0.0738387 -0.0245831 0.000139247 -0.0299284 -0.0308531 -0.0524387  
 0.0732338 -0.0261208 0.000359166 -0.0247022 -0.0131603 -0.0434049  
 0.0733773 -0.0246826 0.000218753 -0.0292563 -0.0300987 -0.0526884  
 0.0787304 -0.0237857 0.000128911 -0.0163298  -0.012182 -0.0571624  
 0.0783231 -0.0238921 0.000196565 -0.0156943 -0.0114718 -0.0573654  
 0.0651214  -0.022294 -0.00022528 -0.0419818 -0.0284394 -0.0385462  
 0.0739784  -0.025525 -0.000291154 -0.0254589 -0.0136513 -0.0434235  
 0.0739734 -0.0243168 -0.000147811 -0.0301009 -0.0305134 -0.0526349  
 0.0789895 -0.0235292 -0.000180599 -0.0162799 -0.0118262 -0.0574039  
-0.0191686  0.0159516 -2.39351e-05  0.0397942  0.0336878   0.075637  
-0.0249956  0.0182129 9.71926e-06  0.0256885  0.0186609  0.0830267  
-0.0330061  0.0255355 -5.17317e-06  0.0579604  0.0379651  0.0913946  
-0.0249175  0.0182384 -2.27958e-05  0.0258548  0.0185783  0.0830447  
-0.0329312  0.0255732 -2.00275e-05  0.0581692  0.0378964  0.0914059  
-0.0415962  0.0312083 -2.29679e-06  0.0340143  0.0183983   0.098567  
-0.0415339  0.0312234 -1.8188e-05  0.0341931  0.0183537  0.0985699  
-0.0191757  0.0158177 -3.49818e-05  0.0395813  0.0338461  0.0755868  
-0.0248872  0.0180725 -4.26914e-05  0.0256967   0.018678  0.0830112  
-0.0329033  0.0253659 -3.41987e-05  0.0579947  0.0379814  0.0913731  
-0.0249529  0.0181505 -1.88591e-05  0.0256843  0.0186897  0.0830354  
-0.0329637  0.0254556 -2.30627e-05  0.0579592  0.0379927   0.091404  
-0.0415262  0.0310616 -2.48097e-05  0.0340516  0.0184163   0.098589  
-0.0415699  0.0311408 -1.49974e-05  0.0340209  0.0184196  0.0985957  
 -0.019006  0.0156251 -1.1685e-05  0.0395995  0.0337741  0.0754953  
-0.0247371  0.0178583 3.27123e-05  0.0257452  0.0186667  0.0829519  
-0.0327568  0.0251665 3.60174e-05  0.0581465  0.0379608  0.0913246  
-0.0248066  0.0179673 -1.18826e-05  0.0257261   0.018655  0.0829766  
-0.0328271  0.0252673 -3.34141e-06  0.0580761  0.0379547  0.0913352  
-0.0414113  0.0308776 2.46253e-05  0.0341816  0.0184155  0.0985378  
-0.0414657  0.0309701 -4.04848e-06   0.034119  0.0184053  0.0985555  
-0.0188877  0.0155106 8.4714e-05  0.0396702  0.0338421  0.0755985  
-0.0246802  0.0178999 7.14903e-05  0.0259629  0.0187983  0.0831871  
-0.0326733  0.0252328 5.19642e-05  0.0584127   0.038056   0.091592  
-0.0247038  0.0178444 6.41565e-05  0.0258239   0.018732  0.0830442  
-0.0327106  0.0251644 5.37207e-05  0.0582571  0.0380109  0.0914391  
-0.0413532  0.0309165 4.40584e-05  0.0344413  0.0185046  0.0987261  
 -0.041379  0.0308686 4.1539e-05  0.0342904  0.0184598  0.0986149  
 -0.018929  0.0158159 -1.4112e-05  0.0399571  0.0337773  0.0758363  
-0.0247263  0.0180846 -1.0619e-05  0.0260773   0.018702  0.0832191  
-0.0327245  0.0254221 -7.28915e-06  0.0584839  0.0379816  0.0915986  
-0.0413851  0.0310712 -4.30509e-06  0.0344994  0.0184439    0.09873  
-0.0240047  0.0177113 -2.93014e-06 -0.0695063 -0.0589801  0.0695707  
-0.0240897  0.0178145 5.55385e-06 -0.0695182 -0.0589429  0.0695772  
-0.0241129  0.0178137 4.47691e-06 -0.0695763 -0.0590273   0.069645  
-0.0240541  0.0177518 4.60481e-06 -0.0695445 -0.0590121  0.0696111  
 -0.024303   0.018043 -3.69996e-05 -0.0695159 -0.0591289  0.0697771  
-0.0242028  0.0179261 -1.69656e-05  -0.069557 -0.0590631  0.0697041  
-0.0244991  0.0182444 1.17264e-05 -0.0694803 -0.0591609  0.0697705  
-0.0244071  0.0181503 -1.68396e-05 -0.0694836 -0.0591674  0.0697959  
-0.0244101  0.0181605 2.36466e-05 -0.0695282  -0.059042  0.0696956  
 0.0671484 -0.0213124 -5.46202e-05  0.0379097  0.0544141  -0.030486  
  0.067466 -0.0210684 -0.000176533  0.0387552  0.0546115 -0.0305679  
 0.0673128 -0.0216299 6.90625e-06  0.0382215  0.0542658 -0.0306075  
 0.0672573 -0.0215079 -4.08717e-05  0.0380413  0.0543389 -0.0305059  
 0.0673768 -0.0216959 0.000251407  0.0386743  0.0547942 -0.0305336  
 0.0673452 -0.0216608 0.000110589  0.0384532  0.0544709 -0.0306186  
 0.0681719 -0.0215286 0.000195018  0.0399307  0.0563728 -0.0298716  
 0.0676666 -0.0216475 0.000283611  0.0391782  0.0555415 -0.0302229  
 0.0683951 -0.0212225 -0.000176796     0.0403  0.0560194 -0.0300911  
 0.0681779 -0.0215333 0.000194636  0.0399373  0.0563998 -0.0298719  
 0.0684008 -0.0212273 -0.00017673  0.0403064   0.056046 -0.0300915  
 0.0673824 -0.0217006 0.000251201  0.0386805  0.0548214 -0.0305338  
 0.0676724 -0.0216522 0.000283293  0.0391846  0.0555687 -0.0302231  
 0.0673181 -0.0216347 6.86188e-06  0.0382277  0.0542927  -0.030608  
 0.0673507 -0.0216656 0.000110477  0.0384593  0.0544979  -0.030619  
 0.0671536 -0.0213174 -5.44571e-05  0.0379159  0.0544409 -0.0304866  
 0.0672625 -0.0215128 -4.08068e-05  0.0380475  0.0543658 -0.0305065  
 0.0674713 -0.0210735 -0.000176232  0.0387615  0.0546381 -0.0305683  
-0.0234212  0.0181005 2.10946e-05 -0.0599321 -0.0535128  0.0697139  
-0.0233274  0.0180113 3.21463e-05 -0.0599602 -0.0533888  0.0696561  
-0.0232213  0.0179113 -4.26101e-05 -0.0599302 -0.0534843  0.0697286  
-0.0233276  0.0180124 -1.48928e-05 -0.0599174 -0.0535219  0.0697414  
-0.0230295  0.0176845 -8.00309e-07 -0.0599464 -0.0533716  0.0696042  
-0.0231199  0.0177959 -2.28921e-05 -0.0599486 -0.0534133  0.0696616  
 -0.022917  0.0175769 -7.98091e-06 -0.0598429 -0.0533064  0.0695306  
-0.0229692  0.0176214 -1.6474e-07 -0.0598976 -0.0533473  0.0695703  
-0.0229994  0.0176681 5.80335e-06 -0.0598718 -0.0532749  0.0695451  
0.00465262 0.00837286 8.53462e-06 -0.0396163  -0.042608  0.0281705  
 0.0044767 0.00843873 4.69864e-05 -0.0399525 -0.0424472  0.0283312  
0.00432901 0.00855832 5.39361e-05 -0.0395486 -0.0423548  0.0281999  
0.00446831 0.00846535 5.63436e-05 -0.0395454 -0.0425033  0.0281633  
0.00417359 0.00882131 -0.000211339 -0.0395923 -0.0425151   0.028387  
0.00425309 0.00868685 -7.31198e-05 -0.0395878 -0.0423699  0.0283007  
0.00363265 0.00903838 -2.75975e-05 -0.0397881  -0.043039  0.0283961  
0.00394553 0.00893578 -0.000160547 -0.0396451 -0.0428102  0.0284109  
0.00368641 0.00889587 0.000130337 -0.0400855 -0.0427036  0.0284665  
 0.0285231 2.77531e-05 0.000445223  0.0466615  0.0457015 0.00901685  
 0.0287081 0.000337063 -5.75308e-05  0.0473223   0.045397 0.00905821  
 0.0278411 7.95852e-05 0.000389934  0.0459175  0.0442271 0.00838589  
 0.0280491 2.27309e-05 0.000514094  0.0461918  0.0448813  0.0086187  
 0.0278874 0.000390548 -0.000218988  0.0457136  0.0441164  0.0085561  
 0.0278704 0.000235762 6.99357e-05  0.0458303  0.0441157 0.00844766  
  0.027397 0.000817944 -0.000315651  0.0457724  0.0450873 0.00855414  
 0.0277356 0.000586623 -0.00033143  0.0456776  0.0445565 0.00863045  
 0.0275139 0.000866143 -0.000195069  0.0466684  0.0449082 0.00858468  
 0.0274065 0.000850217 -0.000321197  0.0455733  0.0448889 0.00847336  
 0.0275211 0.000897479 -0.000197671  0.0464751  0.0447096 0.00850326  
 0.0278969 0.000421609 -0.000220392  0.0455122  0.0439084 0.00847846  
 0.0277461 0.000618299 -0.00033537  0.0454771  0.0443515  0.0085521  
 0.0278486 0.000109303 0.000391391  0.0457151  0.0440178 0.00830671  
 0.0278789 0.000266141 7.00066e-05  0.0456284  0.0439078 0.00836944  
 0.0285302 5.45754e-05 0.000451785  0.0464574  0.0455015 0.00894062  
 0.0280555 5.12162e-05 0.000518335  0.0459884  0.0446744 0.00853986  
 0.0287192 0.000364303 -5.53012e-05  0.0471258  0.0451987 0.00898286  
0.00362496 0.00953761 -3.47359e-05 -0.0373719 -0.0410778  0.0280014  
0.00367107 0.00938037 0.000140878 -0.0376821  -0.040728  0.0280846  
0.00418387 0.00932317 -0.000226062 -0.0371457 -0.0405134  0.0280104  
0.00395092 0.00943657 -0.000174066 -0.0372112 -0.0408275  0.0280262  
0.00433077  0.0090574 5.2318e-05 -0.0370863 -0.0403409  0.0278195  
0.00425884 0.00918724 -8.0522e-05 -0.0371334  -0.040361  0.0279243  
0.00466107 0.00885474 9.45179e-06 -0.0371447 -0.0406064  0.0277801  
0.00447113 0.00895848 5.6792e-05 -0.0370771  -0.040494  0.0277772  
0.00448322 0.00890563 5.69175e-05 -0.0375099 -0.0404449  0.0279498  
-0.0154844  0.0138831 -7.27545e-06  0.0258445  0.0253527  0.0720751  
-0.0248075  0.0174524 7.68758e-05  0.0161952  0.0111515  0.0827721  
-0.0303658   0.023727 6.40101e-05  0.0483549  0.0327455  0.0887951  
-0.0248447  0.0176301 -5.77608e-06  0.0163175  0.0110623   0.082815  
-0.0304164  0.0239196 -6.58442e-06  0.0484518  0.0326656  0.0888182  
-0.0405212  0.0302003 4.57742e-05  0.0282712  0.0139672  0.0979176  
-0.0405522  0.0303504 -3.98214e-06  0.0283343  0.0139056   0.097925  
-0.0154407  0.0135751 9.78084e-05  0.0255027  0.0253912  0.0717586  
-0.0248545  0.0174357 2.49642e-05  0.0159877  0.0110088  0.0825538  
 -0.030436  0.0236681 3.64929e-05  0.0481114  0.0326448  0.0885249  
-0.0248268  0.0174132 6.1074e-05  0.0160608  0.0110757  0.0826351  
-0.0303961  0.0236624 6.08401e-05  0.0482073  0.0326964  0.0886349  
-0.0405732  0.0301694 2.28608e-05  0.0280196  0.0138748   0.097739  
-0.0405438  0.0301575 4.14302e-05  0.0281238  0.0139202  0.0978108  
 -0.015537   0.013696 -2.10612e-05  0.0254828  0.0253247  0.0716582  
-0.0249993   0.017646 -4.21715e-05  0.0159581   0.011015  0.0826155  
  -0.03058  0.0238691 -4.05131e-05  0.0480021  0.0326702  0.0885789  
-0.0249209  0.0175424 -1.5423e-05  0.0159772  0.0109962  0.0825823  
-0.0305043  0.0237699 -7.00645e-06  0.0480622  0.0326403  0.0885413  
-0.0406877  0.0303535 -2.55787e-05  0.0279042  0.0138724  0.0977917  
-0.0406271  0.0302619 -5.61296e-06   0.027964  0.0138632  0.0977588  
-0.0157033  0.0138749 -3.98862e-05  0.0255119  0.0254127  0.0717535  
-0.0251001  0.0177743 1.3418e-05  0.0159463  0.0110013  0.0826227  
-0.0306858  0.0240253 -1.24772e-06  0.0479839  0.0326515  0.0886036  
-0.0250621  0.0177198 -1.63953e-05  0.0159482  0.0110262  0.0826343  
-0.0306422  0.0239537 -2.46906e-05   0.047978  0.0326817  0.0886098  
 -0.040758  0.0304945 4.72964e-07  0.0278702  0.0138554  0.0977662  
-0.0407318  0.0304305 -1.38589e-05  0.0278771  0.0138757  0.0977961  
-0.0156951  0.0139927 -2.95856e-05  0.0257313  0.0252365  0.0718179  
-0.0250191  0.0177898 -2.34797e-05  0.0161044  0.0109239  0.0826397  
-0.0306126  0.0240641 -2.25587e-05  0.0481823  0.0325706  0.0886213  
-0.0406958  0.0305053 -1.79762e-05  0.0280415  0.0138102  0.0977688  
 0.0671823 -0.0259096 -0.000847458 -0.0132423 -8.96946e-05 -0.0283219  
 0.0730591 -0.0285566 4.22821e-05 -0.0112325 0.00145981 -0.0370587  
 0.0672614 -0.0277739 0.000618569 -0.00130165 0.00719351 -0.0250697  
 0.0733331 -0.0277395 -0.000586207 -0.0115949 0.00127479 -0.0375452  
 0.0676569 -0.0261407 -0.000629709 -0.000653761 0.00776189 -0.0252468  
 0.0720035 -0.0280855 0.000480933 0.00450642  0.0128925 -0.0325438  
 0.0724912 -0.0270744 -0.000509395 0.00479271  0.0129212 -0.0329456  
 0.0672456 -0.0277295 8.55363e-05 -0.0136294 8.5091e-05 -0.0285816  
 0.0730373 -0.0292317 0.000251108 -0.0123621 0.00108358 -0.0380683  
 0.0674907 -0.0285248 0.000401671 -0.00247503 0.00639197 -0.0269357  
  0.073072 -0.0289854 0.000150751 -0.0119655  0.0012846 -0.0375902  
 0.0674447 -0.0282598 0.000446519 -0.00214514 0.00668668 -0.0262486  
 0.0718578 -0.0286052 0.000373931 0.00324511  0.0117348 -0.0338945  
  0.071903 -0.0284297 0.000433827 0.00366774  0.0121742 -0.0333387  
 0.0672512 -0.0281538 0.000347507 -0.0141168 -0.000224062 -0.0292947  
 0.0730686 -0.0293529 0.00039595 -0.0127485 0.000604688 -0.0381721  
 0.0675183 -0.0285511 0.000411954 -0.00275258  0.0060843 -0.0269883  
 0.0730628  -0.029287 0.000290825 -0.0125513 0.00083025   -0.03818  
 0.0675132 -0.0285379 0.00038603 -0.00260605 0.00623364 -0.0270054  
 0.0718779 -0.0285877 0.00032386 0.00289326  0.0112962 -0.0339283  
 0.0718778  -0.028591 0.000317143 0.00307178  0.0115172 -0.0339671  
 0.0672176 -0.0281268 0.000747886 -0.0146774 -0.000942682 -0.0287232  
 0.0733753 -0.0289973 0.000586731 -0.0139381 -0.000933874 -0.0370724  
 0.0674078 -0.0278444 0.000686287 -0.00395948 0.00497802 -0.0252639  
 0.0731508 -0.0292524 0.000524922 -0.0131733 3.0126e-05 -0.0377273  
 0.0674882 -0.0283168 0.00050478 -0.00306348 0.00571709 -0.0263827  
 0.0719568 -0.0280089 0.000327449 0.00183089  0.0104492 -0.0328996  
 0.0719165 -0.0283874 0.000324878 0.00253282  0.0109598 -0.0334813  
 0.0679319 -0.0264436 -0.00033347 -0.0163757 -0.0025326 -0.0279124  
 0.0738798 -0.0280824 -0.000380291 -0.0142349 -0.000929842 -0.0374491  
  0.067882 -0.0261936 -0.00070762 -0.00421843 0.00463759 -0.0256745  
 0.0723759 -0.0270042 -0.000566454 0.00203043   0.010434 -0.0332957  
-0.00942143 0.00721684 -5.15598e-05 0.00477751 0.00482866  0.0678974  
-0.0189009  0.0132379 2.85248e-05 0.00703326 0.00449117  0.0774719  
-0.00758479 0.00552157 8.79657e-05 0.00113049 -0.00142697  0.0660065  
-0.0187959  0.0132462 -3.19682e-05 0.00719893 0.00440188  0.0774914  
-0.00742002 0.00548888 2.33374e-06 0.00128161 -0.00150165  0.0660207  
-0.0160901  0.0111533 6.47797e-05 -0.0022677 -0.00625407  0.0735604  
-0.0159583  0.0111076 7.77328e-06 -0.00213262 -0.00627883  0.0735792  
-0.00952969 0.00718728 -1.92846e-05 0.00462191 0.00495482  0.0678449  
-0.0188248  0.0131496 -4.36275e-05 0.00707397 0.00447721  0.0774491  
-0.0074927  0.0054933 -5.05225e-05 0.00125214 -0.00154185   0.065968  
  -0.01888  0.0132075 -9.32242e-06 0.00706275 0.00449905  0.0774734  
-0.00755711 0.00552231 1.50338e-05 0.00121881 -0.00149445  0.0660021  
-0.0159877  0.0110734 -3.99994e-05 -0.00216464 -0.0063064  0.0735694  
-0.0160556  0.0111239 1.23372e-05 -0.0022027 -0.00628417  0.0735806  
-0.00939829 0.00705888 -3.71172e-05 0.00459399 0.00487278  0.0677718  
 -0.018687  0.0129615 9.29103e-06 0.00706961 0.00446623  0.0773917  
-0.00735911 0.00533942 -2.06465e-05  0.0012894 -0.00150432  0.0659206  
-0.0187473  0.0130566 -2.46271e-05 0.00707651 0.00445873  0.0774213  
-0.00741385 0.00541719 -4.37158e-05 0.00127438 -0.00153186  0.0659457  
-0.0158329  0.0108888 -1.23106e-05 -0.00209509 -0.00624025  0.0735135  
-0.0159006  0.0109819 -3.40493e-05 -0.00212822 -0.00628062  0.0735416  
-0.00934493 0.00692931 8.71282e-05 0.00458885 0.00496308  0.0678507  
 -0.018661  0.0129373 0.000110128 0.00726944 0.00467587  0.0776413  
-0.00732261 0.00527177 9.45831e-05 0.00148887 -0.00117648  0.0661516  
-0.0186711   0.012927 6.40971e-05 0.00713068 0.00455185  0.0774785  
-0.00734466 0.00529354 4.0214e-05 0.00134509 -0.00138144  0.0660038  
-0.0157747  0.0108262 4.69737e-05 -0.00187371 -0.00599897  0.0736432  
-0.0158041  0.0108441 2.35908e-05 -0.00201508 -0.00613699  0.0735637  
-0.0093166 0.00712297 2.08333e-05 0.00504157 0.00509911  0.0682635  
-0.0186611  0.0131072 1.82056e-06 0.00746223 0.00460531  0.0777307  
-0.0072603 0.00535751 -1.38658e-05 0.00174081 -0.00121682  0.0662456  
-0.0157637  0.0109095 -9.65201e-06 -0.00175632 -0.00605943  0.0736979  
 0.0679328  -0.026444 -0.000333348 -0.0163787 -0.00253405 -0.0279151  
 0.0733767 -0.0289969 0.000586543  -0.013941 -0.000936045 -0.0370762  
 0.0674086 -0.0278449 0.00068627 -0.00396285 0.00497678 -0.0252657  
 0.0738811 -0.0280824 -0.00038013 -0.0142377 -0.000931947 -0.0374526  
 0.0678828 -0.0261944 -0.000707427 -0.00422196  0.0046364 -0.0256761  
 0.0719583   -0.02801 0.000327476 0.00182515  0.0104453 -0.0329017  
 0.0723774 -0.0270054 -0.000566338 0.00202445  0.0104302 -0.0332976  
 0.0672184 -0.0281264 0.000747732 -0.0146809 -0.000944395 -0.0287255  
 0.0730699 -0.0293523 0.000395884 -0.0127517 0.000602385 -0.0381752  
  0.067519 -0.0285515 0.000411936 -0.00275613 0.00608319 -0.0269897  
 0.0731521 -0.0292518 0.000524789 -0.0131764 2.78461e-05 -0.0377307  
 0.0674889 -0.0283173 0.000504765 -0.00306701 0.00571594 -0.0263843  
 0.0718792 -0.0285886 0.000323865 0.00288732  0.0112925 -0.0339303  
 0.0719179 -0.0283884 0.000324899 0.00252694   0.010956 -0.0334833  
 0.0672519 -0.0281533 0.000347469 -0.0141203 -0.000225699 -0.0292967  
 0.0730385 -0.0292311 0.000251059 -0.0123653 0.00108135 -0.0380715  
 0.0674914 -0.0285251 0.000401615 -0.00247864 0.00639094 -0.0269373  
 0.0730641 -0.0292864 0.000290778 -0.0125545 0.000827983 -0.0381831  
 0.0675139 -0.0285383 0.000385997 -0.00260963 0.00623256 -0.0270069  
 0.0718592 -0.0286061 0.00037385 0.00323911  0.0117312 -0.0338966  
 0.0718792 -0.0285919 0.000317117 0.00306581  0.0115135 -0.0339691  
 0.0672463  -0.027729 8.54513e-05 -0.0136331 8.34752e-05 -0.0285839  
 0.0730604 -0.0285561 4.20984e-05 -0.0112362 0.00145738 -0.0370623  
 0.0672622 -0.0277743 0.000618258 -0.00130558 0.00719223 -0.0250719  
 0.0730733 -0.0289848 0.000150649 -0.0119689  0.0012823 -0.0375937  
 0.0674455 -0.0282601 0.000446358 -0.00214887 0.00668561 -0.0262504  
 0.0720048 -0.0280864 0.000480729 0.00449994  0.0128884 -0.0325463  
 0.0719044 -0.0284306 0.000433665 0.00366157  0.0121704 -0.0333409  
 0.0671832 -0.0259098 -0.000847305 -0.0132463 -9.16511e-05 -0.0283243  
 0.0733344 -0.0277394 -0.000586086 -0.0115985 0.00127218 -0.0375485  
 0.0676576 -0.0261415 -0.000629693 -0.000658107 0.00776037 -0.0252487  
 0.0724923 -0.0270755 -0.000509343 0.00478599  0.0129171 -0.0329477  
-0.0116587  0.0106707 0.000180062  0.0134853  0.0151816  0.0688357  
-0.00944664  0.0068236 0.000126437 0.000791848 -0.000363278  0.0681337  
-0.0116698  0.0109098 1.66839e-05  0.0137889  0.0151286  0.0690025  
-0.0094102 0.00696267 8.44342e-06 0.00105067 -0.000402913  0.0682742  
 -0.016907  0.0122685 0.000103691 0.00777351   0.004661  0.0753291  
-0.0169118  0.0124277 1.16177e-06 0.00796037 0.00459117  0.0754139  
-0.0116684  0.0106779 2.52731e-05  0.0133235  0.0149676  0.0684394  
-0.00947095 0.00689355 -9.87477e-06 0.000604915 -0.0006565  0.0678792  
-0.0116578  0.0106475 0.000104228  0.0133588  0.0150582  0.0685755  
-0.00945908 0.00684728 5.73776e-05 0.000655204 -0.0005457  0.0679682  
-0.0169404  0.0122919 8.69917e-06 0.00757472 0.00444835   0.075082  
-0.0169213  0.0122573 6.19347e-05 0.00763599 0.00453617  0.0751691  
-0.0117929  0.0108665 -7.86579e-05  0.0134097  0.0150483  0.0685159  
-0.00960414 0.00706098 -5.34408e-05 0.000612624 -0.000660402  0.0679355  
-0.0117203  0.0107744 -3.4338e-05  0.0133765  0.0149884  0.0684819  
-0.00952623 0.00697838 -3.96235e-05 0.000613519 -0.000669187  0.0679111  
-0.0170806  0.0124812 -4.90105e-05 0.00756987 0.00445312  0.0751422  
-0.0170017  0.0123878 -2.76112e-05 0.00757706 0.00443681  0.0751128  
-0.0119096  0.0109449 1.3906e-05  0.0134405  0.0150754  0.0686028  
-0.0096919 0.00710868 5.71984e-05 0.000531263 -0.000583873  0.0679788  
-0.0118649   0.010922 -4.04066e-05  0.0134298   0.015092  0.0685712  
-0.00966677 0.00710071 -1.18412e-06 0.000594909 -0.000618188  0.0679703  
-0.0171764  0.0125692 3.3065e-05  0.0075284 0.00447694  0.0751678  
-0.0171441  0.0125382 -1.05662e-05 0.00755731 0.00447813  0.0751687  
-0.0118145  0.0109932 -4.61673e-05  0.0136361  0.0149239  0.0686377  
-0.00955147 0.00709802 -2.50134e-05 0.000710301 -0.000680429  0.0680077  
-0.0170692  0.0125732 -2.49192e-05 0.00769535 0.00439052   0.075189  
 0.0131421  0.0109358  0.0023273 0.00654997 0.00764036 0.00958187  
 0.0132789 0.00923231 0.00486876 0.00999668  0.0119585  0.0142441  
 0.0140477   0.011834 0.000200977 0.00774754 0.00759669  0.0101477  
 0.0139208  0.0113846 0.000879763 0.00789166 0.00765463  0.0101697  
 0.0142837  0.0122953 -0.000616744 0.00785332 0.00770808   0.010403  
 0.0141672  0.0120544 -0.000205656  0.0078991 0.00756816  0.0103072  
 0.0154761  0.0126481 -0.00316398 0.00728777  0.0082524 0.00928749  
 0.0146472  0.0123784 -0.00141572 0.00819672 0.00794072 0.00985877  
 0.0163045  0.0108618 -0.00412715  0.0117348  0.0124652  0.0033732  
0.00133055  0.0169969 -0.000427696 -0.000655829 -0.00334364  0.0245231  
0.00103978  0.0161971 8.39063e-05 -0.00206812 -0.00434408  0.0240599  
0.00119079  0.0174321 -0.000339901 -0.00159208 -0.00350092  0.0249881  
0.00121413   0.017206 -0.000275576 -0.00132188 -0.00343736  0.0246956  
0.00114794  0.0175382 -0.000442058 -0.00192238 -0.00391316  0.0250513  
0.00115402  0.0174754 -0.000346122 -0.00177916 -0.00370946  0.0250875  
0.000773596  0.0171513 -0.000227541 -0.00291729 -0.00541305  0.0241178  
0.00107573  0.0173856 -0.000401565 -0.00239023 -0.00445615   0.024678  
0.000406293  0.0161983 0.000939356 -0.00397672 -0.00431579  0.0244228  
0.000856571  0.0172518 -0.000253306 -0.00269526 -0.00512722  0.0238079  
0.000465422  0.0162695 0.000956746 -0.00378575 -0.00401563   0.024114  
 0.0012086  0.0176541 -0.000444292 -0.00169256 -0.00359121  0.0247803  
0.00114598  0.0174961 -0.000412841 -0.00216436 -0.00413533  0.0243927  
0.00125122  0.0175507 -0.000347505 -0.00136737 -0.0031827  0.0247184  
0.00121417  0.0175924 -0.00035073 -0.00155203 -0.0033911  0.0248171  
 0.0013941  0.0171036 -0.000435309 -0.000405563 -0.00301321  0.0242301  
0.00127386  0.0173201 -0.000281942 -0.00109467 -0.00311545  0.0244147  
0.00109046  0.0162817 8.87676e-05 -0.00183482 -0.00405542   0.023762  
 0.0154627  0.0126573 -0.00316028 0.00727064 0.00822726 0.00929651  
  0.016301  0.0108661 -0.00413121   0.011711  0.0124391 0.00336853  
 0.0142723  0.0123056 -0.000617748 0.00783376 0.00768867  0.0104076  
  0.014635  0.0123881 -0.00141578 0.00817707 0.00792197 0.00986144  
 0.0140353  0.0118445 0.000200849 0.00772792  0.0075775  0.0101515  
 0.0141553  0.0120646 -0.000206062 0.00787959 0.00754909  0.0103114  
  0.013132  0.0109469 0.00232111  0.0065323 0.00761579 0.00957997  
 0.0139096  0.0113947 0.000878668 0.00787154  0.0076356  0.0101741  
 0.0132612 0.00924015 0.00487438 0.00997075  0.0119325    0.01425  
 0.0507864 -0.0153546 -0.000114953 -0.0476422 -0.0373239 -0.0258578  
 0.0509911 -0.0151972 -0.00013029 -0.0483685 -0.0373218 -0.0259905  
 0.0636573 -0.0232521 -6.28233e-05 -0.0411896 -0.0432154 -0.0397956  
 0.0638483 -0.0230627 -8.5313e-05  -0.041876 -0.0433037 -0.0398784  
 0.0513246 -0.0158389 -7.50932e-05 -0.0481332  -0.036726 -0.0261211  
 0.0511247 -0.0156314 -0.000138674 -0.0478774 -0.0370061 -0.0259408  
 0.0640013 -0.0235389 -2.91354e-05 -0.0415928 -0.0428419 -0.0399807  
 0.0638705  -0.023425 -6.81666e-05 -0.0413746 -0.0430218 -0.0398543  
 0.0514163 -0.0160722 0.000307364 -0.0485392 -0.0370484  -0.026264  
 0.0513714 -0.0159538 0.000101543 -0.0483481 -0.0368302 -0.0262329  
 0.0641433 -0.0236301 0.000184154 -0.0420103 -0.0432437 -0.0399851  
 0.0640668 -0.0235814 6.79867e-05 -0.0418101 -0.0429768 -0.0400239  
 0.0521868  -0.016031 0.000204269  -0.049616 -0.0383378 -0.0258027  
 0.0517024 -0.0160909 0.000335687  -0.048965 -0.0376695 -0.0260657  
 0.0648406  -0.023516 0.000113128 -0.0429995 -0.0444888 -0.0395234  
 0.0644171 -0.0236054 0.000196521 -0.0424099 -0.0438593 -0.0397668  
 0.0522115 -0.0156537 -0.000168267 -0.0498752 -0.0380366 -0.0258924  
 0.0648443 -0.0232409 -0.000111028 -0.0432305 -0.0441673 -0.0396489  
-0.00852866  0.0124895 0.000108013  0.0374668  0.0374378  0.0620541  
-0.00860742  0.0127249 -1.88232e-05  0.0376921  0.0372929  0.0621491  
-0.0168903   0.016555 6.15372e-05  0.0633208  0.0481208  0.0764823  
-0.0169658  0.0167684 -1.44485e-05  0.0634319  0.0480112  0.0764987  
-0.00865349  0.0123997 8.72146e-05  0.0372555  0.0372434  0.0616759  
-0.00859172  0.0124007 0.00012085  0.0373192  0.0373539  0.0618281  
-0.0170308  0.0164799 5.76209e-05  0.0630499  0.0479582  0.0761641  
-0.0169589  0.0164789 7.47853e-05  0.0631576  0.0480495  0.0763031  
-0.00880072  0.0126255 -9.955e-05  0.0372696  0.0372971  0.0617655  
-0.00872072   0.012516 -1.49549e-05  0.0372748  0.0372297  0.0617131  
-0.0172078  0.0166957 -5.44701e-05   0.062918  0.0479772  0.0762176  
 -0.017116  0.0165891 -3.57401e-06  0.0629912  0.0479383  0.0761729  
-0.00902498  0.0127894 -3.18762e-06  0.0373595  0.0373749  0.0618693  
-0.00891313  0.0127127 -6.45899e-05   0.037293  0.0373741  0.0618355  
-0.0173794  0.0168902 -6.84754e-06  0.0629173  0.0480131  0.0762821  
-0.0172995  0.0167963 -3.78653e-05  0.0628946  0.0480222  0.0762721  
-0.00894393  0.0128595 -2.24825e-05  0.0375899  0.0372105  0.0619268  
-0.0172853  0.0169389 -1.88974e-05  0.0631528  0.0479128  0.0763026  
-0.00892081  0.0125408 -2.43831e-06  0.0462537  0.0433474  0.0628509  
-0.00883121  0.0126079 -1.90685e-05  0.0464908  0.0431979   0.062901  
-0.0176254  0.0166601 -8.39987e-06  0.0697117  0.0518329  0.0771985  
-0.0175266  0.0167063 -1.75358e-05  0.0699536  0.0517426  0.0772109  
-0.00869515  0.0123552 -8.68397e-05  0.0461869    0.04327  0.0627488  
-0.00880868  0.0124506 -5.65108e-05  0.0461952  0.0433443    0.06282  
-0.0174553  0.0164551 -4.79559e-05  0.0697295  0.0517954   0.077135  
-0.0175466  0.0165602 -3.48014e-05  0.0696963    0.05184  0.0771904  
-0.00853272  0.0121282 8.96711e-05  0.0462228  0.0432407  0.0626724  
-0.00860917  0.0122445 -6.58024e-06  0.0462156  0.0432137  0.0626977  
-0.0172709  0.0162394 5.53085e-05  0.0698926  0.0517837  0.0770878  
-0.0173603  0.0163482 -8.96026e-07   0.069818  0.0517605  0.0770906  
-0.00837808  0.0122312 8.24965e-05  0.0464665  0.0434423  0.0630262  
-0.00845756   0.012135 0.000111258  0.0463049  0.0433582  0.0628198  
-0.0171177  0.0163163 5.24278e-05  0.0701831  0.0519501  0.0774041  
-0.0171929  0.0162392 6.82739e-05  0.0700121  0.0518772  0.0772303  
 -0.008464  0.0124624 -2.90983e-05   0.046656  0.0432881  0.0630846  
-0.0171944  0.0165274 -1.50407e-05  0.0702738  0.0518423  0.0774035  
   0.05224 -0.0160701 0.000202366 -0.0496541 -0.0384302 -0.0258672  
 0.0522637 -0.0156939 -0.00016821 -0.0499112 -0.0381292  -0.025957  
 0.0648872 -0.0235527 0.000112455 -0.0430047 -0.0445327 -0.0395784  
 0.0648904 -0.0232782 -0.000110762  -0.043235 -0.0442113 -0.0397042  
 0.0514704 -0.0161125 0.000306319 -0.0485785 -0.0371441 -0.0263271  
 0.0517566 -0.0161306 0.000333936  -0.049004 -0.0377642  -0.026129  
 0.0641906 -0.0236674 0.00018353 -0.0420162 -0.0432888 -0.0400398  
 0.0644643 -0.0236424 0.000195705 -0.0424156  -0.043904 -0.0398215  
  0.051378 -0.0158803 -7.46745e-05 -0.0481723 -0.0368213 -0.0261852  
 0.0514251 -0.0159946 0.000101278 -0.0483873 -0.0369255 -0.0262966  
 0.0640484  -0.023577 -2.89158e-05 -0.0415987 -0.0428867 -0.0400361  
  0.064114 -0.0236192 6.78169e-05 -0.0418161 -0.0430217  -0.040079  
  0.050841 -0.0153975 -0.000113595 -0.0476819  -0.037416 -0.0259221  
 0.0511783 -0.0156734 -0.000137585 -0.0479168 -0.0371002 -0.0260052  
 0.0637052 -0.0232911 -6.24777e-05 -0.0411963 -0.0432591 -0.0398512  
 0.0639178 -0.0234636 -6.77727e-05  -0.041381 -0.0430662   -0.03991  
 0.0510462 -0.0152402 -0.000129418 -0.0484064 -0.0374148 -0.0260542  
 0.0638961 -0.0231016 -8.49872e-05 -0.0418819 -0.0433479 -0.0399337  
 0.0502112  -0.014076 -0.000691318 -0.0330507 -0.0156676 -0.0212808  
 0.0563444 -0.0180132 -0.000414292 -0.0356787  -0.020631 -0.0287199  
 0.0593392 -0.0208334 -0.000462875 -0.0222327 -0.00763231 -0.0243496  
 0.0563435 -0.0176191 -0.00045356 -0.0367604 -0.0207929 -0.0290389  
 0.0591961 -0.0199203 -0.000773208 -0.0231847 -0.0077473 -0.0247807  
  0.065575 -0.0232721 -0.000194747 -0.0232601 -0.00939058 -0.0329135  
 0.0657055 -0.0226594 -0.000521805 -0.0240001 -0.00957597 -0.0333212  
 0.0508565 -0.0152022 -0.000429038 -0.0320904 -0.0145076 -0.0210004  
 0.0567138 -0.0187627 -6.47391e-06 -0.0363978 -0.0197501 -0.0291249  
 0.0595574 -0.0217628 0.000139738 -0.0231853 -0.00687754 -0.0252132  
 0.0566444 -0.0184604 -0.000247076  -0.036092  -0.020037 -0.0288445  
 0.0595721 -0.0214044 -0.000179242 -0.0228782 -0.00704478 -0.0247496  
 0.0657525 -0.0239816 0.000124324  -0.024181 -0.00912372 -0.0336089  
 0.0657343 -0.0237082 -5.09582e-05 -0.0238327 -0.00916743 -0.0332338  
 0.0508543 -0.0157607 0.00021688 -0.0325296 -0.0143024 -0.0215031  
 0.0567316 -0.0190569 0.00043579 -0.0368079 -0.0201184 -0.0293264  
 0.0595756 -0.0220379 0.000485181  -0.023502 -0.00719215 -0.0254129  
 0.0567281 -0.0189059 0.000189055 -0.0366058 -0.0199424 -0.0292741  
 0.0595749 -0.0218953 0.000283913 -0.0233359 -0.00709776 -0.0253479  
 0.0657802 -0.0241848 0.000417654 -0.0245795 -0.00955468 -0.0337548  
  0.065774 -0.0240784 0.000241253 -0.0243793 -0.00935181 -0.0337352  
 0.0508661 -0.0159944 0.000888637 -0.0331405 -0.0152165  -0.021155  
 0.0573604 -0.0190117 0.000665386 -0.0380421 -0.0220822 -0.0283981  
 0.0598237 -0.0218163 0.00109646 -0.0247814 -0.00939055 -0.0238781  
 0.0568951 -0.0190821 0.00063898 -0.0372748 -0.0208955 -0.0289801  
 0.0595669 -0.0219991 0.000829078 -0.0239215 -0.00792207 -0.0248827  
 0.0662655 -0.0239872 0.000632414 -0.0258062 -0.0113401 -0.0327313  
 0.0659079 -0.0241469 0.000587388 -0.0250283 -0.0102413 -0.0333547  
 0.0517843 -0.0150916 1.48394e-05 -0.0351933  -0.016816 -0.0203657  
 0.0576839 -0.0183565 -0.000127399 -0.0387697 -0.0219411 -0.0285584  
 0.0603986 -0.0206969 -0.000160541 -0.0258354 -0.00952608  -0.024054  
 0.0666821 -0.0231951 -0.000255878 -0.0263317 -0.0112576 -0.0329971  
-0.00783141  0.0117458 -5.09712e-05  0.0149487  0.0203061  0.0586098  
-0.0128309  0.0141381 1.49778e-06  0.0253473  0.0267001  0.0667321  
-0.0088145 0.00948297 9.59383e-06  0.0096392  0.0126843  0.0636921  
-0.0127559  0.0142117 -3.67636e-05  0.0255444  0.0265218  0.0667874  
-0.00871406 0.00953587 -5.4175e-05 0.00985301  0.0125071  0.0637271  
-0.0159173  0.0138658 1.24645e-05  0.0165453  0.0157321  0.0729995  
-0.0158283  0.0139057 -3.66239e-05  0.0167351   0.015604  0.0730338  
-0.00782613  0.0116561 -9.01298e-05  0.0146735  0.0205674  0.0584833  
 -0.012662    0.01403 -9.94562e-05  0.0252611  0.0266844  0.0666238  
-0.00868296 0.00942829 -9.76585e-05 0.00958857  0.0126271  0.0635796  
-0.0127549  0.0140986 -6.1239e-05  0.0252979  0.0267337   0.066691  
-0.00876084 0.00947799 -5.67598e-05 0.00962362   0.012689  0.0636451  
-0.0157939  0.0137676 -6.96439e-05  0.0165219  0.0157157  0.0729379  
-0.0158674  0.0138311 -3.55477e-05  0.0165341  0.0157506  0.0729819  
-0.00766325   0.011507 -5.47475e-05  0.0145231  0.0203743  0.0583553  
-0.0125263  0.0138249 4.77164e-05  0.0251696  0.0265802  0.0665342  
-0.00857206 0.00924682 1.78875e-05 0.00946238  0.0125188  0.0634947  
-0.0125864    0.01393 -3.24152e-05  0.0252254  0.0266021  0.0665809  
-0.00861696 0.00933866 -4.52964e-05 0.00953447  0.0125515  0.0635466  
-0.0156593  0.0135697 2.8358e-05  0.0164796  0.0156605  0.0728647  
-0.0157185  0.0136704 -2.76049e-05   0.016508  0.0156676  0.0729028  
-0.00762295  0.0113681 0.000146225  0.0144018  0.0203934  0.0584608  
-0.0125006  0.0138637 0.000162671  0.0253118  0.0267236  0.0669663  
-0.00857753 0.00921335 0.000224215 0.00959258  0.0127621  0.0639493  
-0.0125067  0.0138058 0.000116462  0.0251956  0.0266476  0.0666855  
-0.00857183 0.00920298 0.000119765 0.00947373  0.0126101  0.0636379  
 -0.015631   0.013577 0.000139558  0.0166563  0.0158457  0.0732056  
-0.0156411  0.0135426 9.16072e-05  0.0165257  0.0157397  0.0729829  
-0.00768504  0.0117036 4.9623e-05  0.0148827   0.020431  0.0590865  
 -0.012559  0.0141224 1.39558e-05  0.0255856  0.0266247  0.0671152  
-0.00858058 0.00946858 3.64662e-05 0.00995217  0.0127121  0.0641571  
-0.0156578  0.0137927 8.16927e-06  0.0168926  0.0157647  0.0733218  
 0.0517939 -0.0151006 1.46908e-05 -0.0352094 -0.0168254 -0.0203819  
  0.057377 -0.0190191 0.000664346 -0.0380461 -0.0220902 -0.0284232  
 0.0598272 -0.0218173 0.00109548 -0.0247889 -0.00939527 -0.0238855  
 0.0576998 -0.0183649 -0.000127393 -0.0387722 -0.0219494 -0.0285839  
 0.0604017 -0.0206989 -0.000160573 -0.0258414 -0.0095305 -0.0240615  
 0.0662684 -0.0239873 0.000631814 -0.0258127 -0.0113469 -0.0327398  
 0.0666847 -0.0231958 -0.000255755 -0.0263373 -0.0112644 -0.0330055  
 0.0508764 -0.0160016 0.000887833 -0.0331601 -0.0152277 -0.0211687  
 0.0567479 -0.0190644 0.000435643 -0.0368127 -0.0201278   -0.02935  
 0.0595785 -0.0220388 0.00048512 -0.0235099 -0.00719771 -0.0254188  
 0.0569116 -0.0190896 0.000638393 -0.0372795 -0.0209047 -0.0290041  
 0.0595701     -0.022 0.000828631 -0.0239293 -0.00792757 -0.0248889  
 0.0657829 -0.0241848 0.000417531 -0.0245864 -0.0095623 -0.0337622  
 0.0659107 -0.0241469 0.000587023 -0.0250352 -0.0102488 -0.0333624  
 0.0508642 -0.0157684 0.000216857 -0.0325493 -0.0143136 -0.0215165  
 0.0567301 -0.0187705 -6.4011e-06 -0.0364026 -0.0197592 -0.0291489  
 0.0595604 -0.0217639 0.000139741 -0.0231933 -0.00688291 -0.0252193  
 0.0567444 -0.0189136 0.000189014 -0.0366106 -0.0199516  -0.029298  
 0.0595779 -0.0218963 0.000283869 -0.0233438 -0.0071032 -0.0253538  
 0.0657552 -0.0239818 0.000124298  -0.024188 -0.0091312 -0.0336165  
 0.0657767 -0.0240786 0.000241183 -0.0243862 -0.00935934 -0.0337427  
 0.0508662 -0.0152102 -0.000428548 -0.0321103 -0.0145185 -0.0210144  
 0.0563608 -0.0180213 -0.000414015 -0.0356844 -0.0206392 -0.0287447  
 0.0593422 -0.0208346 -0.000462673 -0.0222413 -0.00763728 -0.0243562  
 0.0566607 -0.0184685 -0.000246799  -0.036097 -0.0200458 -0.0288688  
 0.0595751 -0.0214055 -0.000179119 -0.0228862 -0.00705011  -0.024756  
 0.0655778 -0.0232725 -0.000194732 -0.0232678 -0.0093979 -0.0329216  
  0.065737 -0.0237085 -5.09312e-05 -0.0238398 -0.00917488 -0.0332417  
 0.0502215  -0.014084 -0.000690833 -0.0330701 -0.0156777 -0.0212938  
 0.0563601 -0.0176276 -0.000453215 -0.0367655 -0.0208019 -0.0290627  
 0.0591995 -0.0199221 -0.000772808 -0.0231925 -0.00775248 -0.0247868  
 0.0657084 -0.0226602 -0.00052152 -0.0240074 -0.00958353 -0.0333287  
-0.00310897 0.00332357 -0.000125432 -0.000951318 -0.00617715  0.0601214  
-0.0031336 0.00569896 -0.000205102 -0.00218446 -0.00905786  0.0553204  
-0.0071658 0.00551617 -7.11964e-06 -0.00189822 -0.00711132  0.0649118  
-0.00299311  0.0053376 -0.00011333 -0.00227356 -0.0091217  0.0549966  
-0.00707385 0.00545851 -4.69549e-05 -0.00174628 -0.00713831  0.0648897  
-0.00656283 0.00715463 -9.84527e-05 -0.00500961 -0.0126979  0.0599504  
-0.0065063 0.00701082 -5.8554e-05 -0.00505619  -0.012764  0.0598822  
-0.00331338 0.00344495 -2.24142e-05 -0.00126673 -0.00641356  0.0601971  
-0.00319675 0.00567606 -9.41539e-05 -0.00243214 -0.00935267  0.0552474  
-0.00722745 0.00556822 -4.00922e-05 -0.00211293 -0.0074429  0.0647901  
-0.00317116 0.00562365 -7.59877e-05 -0.00233858 -0.00921453  0.0553029  
-0.00720255 0.00552409 -5.006e-06 -0.00203691  -0.007309  0.0648524  
-0.00664727 0.00722045 -6.3151e-05 -0.00525575 -0.0129765  0.0599464  
-0.00661079 0.00717491 -5.60218e-05 -0.00515217 -0.0128511  0.0599768  
-0.00337856 0.00354053 -6.30507e-05 -0.00141703 -0.0066338  0.0601475  
-0.00333946  0.0057872 -8.14167e-05 -0.00270684 -0.00959574  0.0552877  
-0.00736954 0.00570811 -4.43831e-05 -0.00224073 -0.00755798   0.064831  
-0.00325419 0.00573177 -9.28239e-05 -0.00257279 -0.00947303  0.0552834  
-0.00728552 0.00563948 -5.16059e-05 -0.00217563 -0.00750561  0.0648132  
-0.00681223 0.00737321 -6.96736e-05 -0.00547471 -0.0131819  0.0599989  
-0.00671708 0.00729921 -7.48765e-05 -0.00536666  -0.013076  0.0599769  
-0.00352411 0.00357958 6.85581e-05 -0.00157714 -0.00664436  0.0602012  
-0.00356086 0.00571973 0.000292328 -0.00297341 -0.00939901  0.0552648  
-0.00747705 0.00572336 0.000144059 -0.00241005 -0.0073928  0.0648383  
-0.0034504  0.0057671 7.36464e-05 -0.00283237 -0.00958884  0.0553226  
-0.00743877 0.00572418 4.48551e-05 -0.00230263 -0.00751086  0.0648582  
-0.00700842 0.00739408 0.000181326 -0.00571416 -0.0130656  0.0599617  
-0.00691862 0.00738497 4.99584e-05 -0.00557734 -0.0131722  0.0600113  
-0.00332005 0.00340489 0.000142339 -0.0016709 -0.0063913  0.0601808  
-0.00331689 0.00558027 0.000208495 -0.00306651 -0.00926596  0.0552607  
-0.00727673 0.00563665 5.87117e-05 -0.00230793 -0.00738735  0.0648594  
-0.00681541 0.00724997 0.000139494 -0.0056874 -0.0129594  0.0600116  
 0.0351544 -0.00398292 -0.000960441 -0.0320202  -0.020887 -0.00924425  
 0.0347162 -0.00383763 -0.000449703 -0.0335495 -0.0209278 -0.00942482  
 0.0417344 -0.00872606 -0.000497515 -0.0390246 -0.0280549 -0.0159024  
 0.0416353 -0.00855515 -0.000290292 -0.0401245 -0.0280379 -0.0160741  
 0.0356432 -0.00476167 -0.000203986 -0.0322474 -0.0189128 -0.00921196  
 0.0356017 -0.00443515 -0.000641738 -0.0321204    -0.0196 -0.00907511  
 0.0422577 -0.00936395 -0.000150289 -0.0393878  -0.026789 -0.0160595  
  0.042131 -0.00909014 -0.000383775 -0.0391954 -0.0272665 -0.0158947  
 0.0355765 -0.00517432 0.000423332 -0.0325059 -0.0190595 -0.00952935  
 0.0356116 -0.00496761 9.69236e-05 -0.0323827 -0.0190598 -0.00938221  
 0.0422581 -0.00969892 0.000386927 -0.0397205 -0.0270179 -0.0163051  
 0.0422591 -0.0095306 0.000104407 -0.0395637 -0.0268894  -0.016211  
 0.0361029 -0.00538323 0.000989626 -0.0334898 -0.0213422 -0.00851128  
 0.0356377 -0.00530281 0.000810114 -0.0328447 -0.0199033 -0.00923698  
 0.0429109 -0.00978659 0.000574737 -0.0407321 -0.0287811 -0.0155877  
 0.0424349 -0.00977414 0.000577198 -0.0400973 -0.0277416 -0.0160648  
 0.0364516 -0.00486709 0.000184403 -0.0348086 -0.0211605 -0.00851427  
 0.0430696 -0.00931075 -7.53782e-06 -0.0415143 -0.0285266 -0.0156073  
-0.000818683   0.012861 0.000381408  0.0168081  0.0222788  0.0421927  
-0.00799877   0.012679 0.000249155  0.0174215  0.0213993  0.0587106  
-0.000873965  0.0132284 0.000100235   0.017398  0.0221932  0.0425301  
-0.00805645  0.0129578 6.84702e-05  0.0178008  0.0213327  0.0589526  
-0.00395035  0.0129661 0.00022503  0.0262766  0.0300275  0.0514913  
-0.00402584  0.0132311 4.74939e-05  0.0266692  0.0299105  0.0517029  
-0.000902104  0.0129916 8.45925e-05  0.0168608  0.0219316  0.0414973  
-0.00800251  0.0126988 4.04639e-05  0.0173621   0.021217  0.0581747  
-0.000876946  0.0128928 0.000251284  0.0167708  0.0220836  0.0416671  
-0.00799907  0.0126506 0.000153292   0.017338  0.0212933  0.0583406  
-0.00405674  0.0129761 9.2786e-05   0.026201  0.0297751  0.0509841  
-0.00401332  0.0129335 0.000181949  0.0261913  0.0299003  0.0511482  
-0.000906234  0.0132249 -0.000286605  0.0171213  0.0222059  0.0416801  
-0.00809918  0.0128967 -0.000151656  0.0175387  0.0213891  0.0582887  
-0.000896059   0.013107 -9.37571e-05  0.0170027  0.0220121  0.0416165  
-0.00804224   0.012799 -5.8567e-05  0.0174607  0.0212685  0.0582473  
-0.00413883  0.0132061 -0.000189305  0.0263356   0.029931  0.0511229  
-0.00409099  0.0130936 -5.21025e-05  0.0262814  0.0298032   0.051064  
-0.00128078  0.0132786 -0.000106956  0.0174929  0.0226044  0.0418316  
-0.0083086  0.0129575 -1.78136e-05  0.0177045  0.0214882  0.0584223  
-0.00106981  0.0132904 -0.00024583  0.0172699  0.0224681  0.0417648  
-0.00820489   0.012954 -0.000110225  0.0176163  0.0214858  0.0583674  
-0.00443403  0.0133138 -4.80813e-05  0.0265613  0.0301554  0.0512326  
-0.00427397  0.0132792 -0.00014901  0.0264222  0.0300908  0.0511966  
-0.00126136  0.0133122 -1.19325e-05  0.0178023  0.0222701  0.0419331  
-0.00824327  0.0130423 -5.29705e-05  0.0179303   0.021246  0.0584939  
-0.00437552  0.0133669 -2.83297e-05  0.0268266  0.0298959  0.0513317  
-0.00288275  0.0132922 -8.24663e-05  0.0197357  0.0246765  0.0461116  
-0.00285023  0.0133321 -2.23242e-05  0.0200323  0.0243763  0.0462265  
-0.00512141  0.0133917 -3.88098e-05  0.0311332  0.0331305  0.0535526  
-0.00505719  0.0134439 -2.24017e-05  0.0314027  0.0328989   0.053639  
-0.00254932  0.0132211 -0.000241893  0.0194251  0.0243596  0.0460016  
-0.00269452  0.0132838 -0.00020224  0.0195495  0.0245722  0.0460759  
-0.00483276  0.0132625 -0.000168302  0.0309398  0.0329268  0.0534461  
-0.00496568  0.0133419 -0.000130071  0.0310081  0.0330735   0.053518  
-0.00250942   0.012987 8.90819e-05  0.0192178  0.0241427  0.0458351  
-0.00252179  0.0131066 -7.69588e-05  0.0193361  0.0241988  0.0459414  
-0.00473528  0.0130298  0.0001001  0.0308494  0.0328043  0.0533181  
-0.00477743  0.0131488 -3.95163e-05  0.0309076  0.0328161   0.053386  
-0.00241761  0.0129233 0.000302607  0.0192173  0.0244328  0.0464218  
-0.00247701  0.0129207 0.000214086  0.0191674  0.0242764  0.0460101  
-0.00460582  0.0130482 0.00018921  0.0309732  0.0330585  0.0537893  
-0.00467956  0.0129996 0.000169661  0.0308653  0.0329357  0.0534788  
-0.00248853  0.0132164 8.74371e-05  0.0197087  0.0243349  0.0467095  
-0.00468236  0.0133051 2.2328e-05  0.0313221  0.0329255  0.0539598  
 0.0361037 -0.00538303 0.000986993 -0.0335203 -0.0213631 -0.00851943  
 0.0364507 -0.00486707 0.000183199 -0.0348343 -0.0211804 -0.00852485  
  0.042928 -0.00980299 0.000572288 -0.0407775 -0.0288346  -0.015612  
 0.0430852 -0.0093277 -8.27352e-06 -0.0415561 -0.0285796 -0.0156326  
  0.035577 -0.00517561 0.000423343 -0.0325365  -0.019084 -0.00953672  
 0.0356388 -0.00530371 0.00080906 -0.0328752 -0.0199271 -0.00924444  
 0.0422752 -0.00971648 0.000386482 -0.0397664  -0.027075 -0.0163279  
 0.0424524 -0.00979128 0.000575761 -0.0401431 -0.0277978 -0.0160879  
 0.0356436 -0.00476324 -0.000203776 -0.0322778 -0.0189369 -0.0092196  
  0.035612 -0.00496903 9.69875e-05 -0.0324132 -0.0190838 -0.00938968  
 0.0422744 -0.00938208 -0.000150002 -0.0394336 -0.0268457 -0.0160829  
  0.042276 -0.00954845 0.000104331 -0.0396095 -0.0269461 -0.0162341  
 0.0351545 -0.00398464 -0.000958716 -0.0320516 -0.0209075 -0.00925111  
 0.0356016 -0.00443689 -0.000640693  -0.032151 -0.0196234 -0.00908275  
 0.0417514 -0.00874513 -0.000495751 -0.0390713 -0.0281083 -0.0159254  
 0.0421475 -0.00910867 -0.000382649 -0.0392414 -0.0273223 -0.0159183  
 0.0347178 -0.00384012 -0.000448554 -0.0335786 -0.0209497 -0.00943085  
 0.0416535 -0.00857454 -0.00028917 -0.0401686  -0.028092 -0.0160964  
-0.00194467 0.00266718 7.39236e-05 -0.000808385 -0.00336527  0.0601973  
-0.00167315 0.00253408 -0.000119685 -0.000463239 -0.0031441  0.0601245  
-0.00203892 0.00477433 -7.04114e-05 -0.000944726 -0.00470874  0.0560692  
-0.00176591 0.00461101 -0.000352314 -0.000877976 -0.0048102  0.0556339  
-0.00194923 0.00271391 -5.38298e-05 -0.000826477 -0.00370518  0.0600031  
-0.00194711 0.00267186 7.86364e-06 -0.000790333 -0.00357318  0.0600767  
-0.00204069 0.00478414 -0.000105332 -0.00108147 -0.00503187  0.0558382  
-0.00203376 0.00473427 -6.16776e-05 -0.00100605 -0.00490265  0.0558895  
-0.00200798 0.00275936 -4.32814e-05 -0.000908158 -0.0037752  0.0600156  
-0.00196207 0.00273525 -5.68855e-05 -0.00086513 -0.00375261  0.0600112  
-0.00212935 0.00482744 -6.38075e-05 -0.00130905 -0.0052377  0.0558458  
-0.00206838 0.00480066 -8.474e-05 -0.00119708 -0.00514124  0.0558519  
-0.00208233 0.00269773 0.000191585 -0.00100857 -0.00346671  0.0601334  
-0.00204721 0.00273596 5.57415e-05 -0.000946325 -0.00368693  0.0600784  
  -0.00232 0.00475305 0.000283809 -0.00148306 -0.00501887  0.0559513  
-0.00220891 0.00478577 8.97715e-05 -0.00141114 -0.00518558  0.0559089  
-0.00178514 0.00255806 0.000112965 -0.000948887 -0.00328561  0.0601522  
-0.0020108 0.00445663 0.00040896 -0.00151491 -0.00459636  0.0559711  
-0.00712394  0.0102356 0.000303429  0.0106887  0.0145716  0.0593568  
-0.00712981  0.0105302 9.41374e-05  0.0111273   0.014554  0.0596836  
-0.00709257  0.0103201 1.28343e-05  0.0106377  0.0143298  0.0588347  
-0.00710597   0.010258 0.00014671  0.0106081  0.0144089  0.0589808  
-0.00717545  0.0104877 -0.000133687  0.0108243  0.0145011  0.0589286  
-0.00712356  0.0104029 -6.20143e-05  0.0107393  0.0143897  0.0588939  
-0.00733149  0.0105166 -9.99965e-06  0.0109313  0.0145959  0.0590806  
-0.00726111  0.0105355 -9.6299e-05  0.0108916  0.0145883  0.0590048  
-0.00723818  0.0105951 -8.25336e-05  0.0111737  0.0143545  0.0591222  
 0.0496791  -0.015648 0.00184895 -0.0252045 -0.0111262 -0.0164816  
 0.0281841 -1.30743e-05 0.00165052  -0.024871 -0.0168729 -0.00132442  
 0.0503395 -0.0144016 0.000544678 -0.0276015 -0.0119898  -0.015861  
 0.0289387 0.000455195 0.000646409 -0.0274794 -0.0171844 -0.00114423  
 0.0383377 -0.00736969 0.00173637 -0.0254663  -0.014745 -0.00867978  
 0.0389304 -0.00662583 0.000731287 -0.0279643 -0.0153282 -0.00811948  
   0.04985 -0.0156254 0.000489572 -0.0243158 -0.00862283 -0.0183283  
 0.0281947 0.000425997 0.000332502 -0.0243698 -0.0142844 -0.00266614  
 0.0496535 -0.0156642 0.00111268 -0.0246801 -0.0092754 -0.0177893  
 0.0280169 0.00021009 0.00102496 -0.0245685  -0.014934 -0.00243338  
 0.0383783 -0.00714248 0.000423109 -0.0247735 -0.0121876 -0.0102071  
 0.0381968 -0.00727801 0.00108496  -0.025071 -0.0128646 -0.00981366  
 0.0498001 -0.0152284 5.15162e-05 -0.0240283 -0.00840984 -0.0180621  
  0.028191 0.000913073 -0.000262324 -0.0241712 -0.0142342 -0.00231899  
 0.0498334 -0.0154215 0.000245104 -0.0241596 -0.00855634 -0.0182239  
 0.0281934 0.000660493 3.56112e-05 -0.0242554 -0.0142987 -0.00250021  
 0.0383608 -0.00669869 -0.000120349 -0.0245276   -0.01205 -0.00989445  
 0.0383743 -0.00692199 0.000137004   -0.02464 -0.0121685 -0.0100699  
  0.049878  -0.014148 -0.00129046  -0.023165 -0.00997467 -0.0175355  
 0.0282352 0.00174859 -0.00184626 -0.0240984 -0.0169672 -0.00291331  
 0.0499592  -0.014795 -0.000566284 -0.0238452 -0.00867938 -0.0177056  
 0.0283756 0.00124374 -0.00100285 -0.0241881 -0.0148989 -0.00232415  
 0.0383825 -0.00575978 -0.00159256 -0.0240669 -0.0142081 -0.00996963  
 0.0385337 -0.00631681 -0.000814282   -0.02444 -0.0125446 -0.00974635  
 0.0491333 -0.0131691 -0.00133618 -0.0252347 -0.0107608 -0.0183286  
 0.0269051 0.00185077 -0.000704127 -0.0266633 -0.0175948 -0.00304541  
 0.0375012 -0.00527389 -0.00113897 -0.0264146 -0.0149653   -0.01061  
 0.0498779 -0.0141477 -0.00129142 -0.0231484 -0.00996545 -0.0175284  
 0.0282213 0.00176026 -0.00185077 -0.0240546 -0.0169392 -0.00289712  
 0.0491321 -0.0131675 -0.00133736   -0.02522 -0.0107528 -0.0183231  
 0.0268879 0.00185936 -0.000705189 -0.0266225 -0.0175651 -0.00303318  
 0.0383784 -0.00575525 -0.00159535 -0.0240383 -0.0141886 -0.00995802  
 0.0374949 -0.00526915 -0.00114156   -0.02639 -0.0149481 -0.0106026  
 0.0497991  -0.015228 5.14784e-05  -0.024013 -0.00840067 -0.0180562  
 0.0281754 0.000923821 -0.000262357 -0.0241283 -0.0141989 -0.00230303  
 0.0499583 -0.0147945 -0.000566591 -0.0238297 -0.00867007 -0.0176991  
 0.0283609 0.00125514 -0.00100499 -0.0241454 -0.0148638 -0.00230805  
 0.0383547 -0.00669401 -0.000120476 -0.0245005 -0.0120288 -0.00988343  
 0.0385281 -0.00631182 -0.000815427 -0.0244129 -0.0125233 -0.00973494  
 0.0498491 -0.0156252 0.000489605 -0.0243004 -0.00861345 -0.0183226  
 0.0281792 0.000436681 0.000332063 -0.0243264 -0.0142484 -0.00265026  
 0.0498324 -0.0154212 0.000245143 -0.0241443 -0.00854699  -0.018218  
 0.0281777 0.000671303 3.53374e-05 -0.0242121 -0.0142633 -0.00248397  
 0.0383723 -0.00713805 0.000422968 -0.0247462 -0.0121659 -0.0101962  
 0.0383682 -0.00691741 0.000136922 -0.0246128  -0.012147 -0.0100588  
 0.0496766 -0.0156479 0.00185121 -0.0251891 -0.0111172 -0.0164731  
 0.0281669 -6.04381e-06 0.00165662 -0.0248263 -0.0168419 -0.00130763  
 0.0496522 -0.0156641 0.00111334 -0.0246649 -0.00926582 -0.0177831  
 0.0280001 0.000220053 0.00102628 -0.0245249 -0.0148981 -0.00241758  
 0.0383294 -0.00736667 0.00174048 -0.0254384 -0.0147253 -0.00866707  
   0.03819 -0.00727396 0.00108605 -0.0250438 -0.0128428 -0.00980247  
 0.0503377 -0.0143991 0.000545462 -0.0275896 -0.0119826  -0.015851  
 0.0289248 0.00046489 0.000648563 -0.0274451 -0.0171564 -0.00112045  
 0.0389241 -0.00662123 0.000734017 -0.0279429 -0.0153116 -0.00810179  
-0.00566392  0.0103917 -2.44164e-05 0.00955712  0.0142602  0.0557903  
-0.000827145  0.0140789 -0.000172114  0.0158801  0.0200355  0.0388234  
-0.0055636    0.01048 -0.000108261  0.0098149  0.0139669  0.0558299  
-0.000828443  0.0140622 -2.26706e-05  0.0162474  0.0196399  0.0389573  
-0.00318772  0.0125074 -8.62303e-05  0.0133287  0.0175248  0.0470789  
-0.00313685  0.0125636 -7.64113e-05  0.0136371  0.0171734   0.047172  
-0.00550059  0.0103813 -0.000154502  0.0094276  0.0141621  0.0555904  
-0.000433952  0.0140727 -0.000341432  0.0154215  0.0195446  0.0387087  
-0.00558902  0.0104253 -0.000118359 0.00951572   0.014262  0.0556753  
-0.00059594  0.0141261 -0.000317866  0.0156208  0.0198608  0.0387608  
-0.00290979  0.0125043 -0.000244643  0.0130331  0.0172516  0.0469111  
-0.00303447  0.0125512 -0.000210892  0.0131786  0.0174475   0.046985  
-0.00543314  0.0102285 1.9312e-06   0.009183  0.0139415  0.0554948  
-0.000467549    0.01385 5.45005e-05  0.0151142   0.019212  0.0385263  
-0.0054551  0.0103035 -7.58301e-05 0.00931469  0.0140247  0.0555565  
-0.000445375  0.0139589 -0.000129468  0.0152779  0.0193233  0.0386529  
-0.00288815   0.012321 2.37232e-05  0.0127538  0.0169726   0.046774  
-0.00289062  0.0124111 -0.000104051  0.0129039  0.0170704  0.0468678  
-0.00551173  0.0100987 0.00038486 0.00916524  0.0141699  0.0560586  
-0.000423348  0.0135869 0.000486182  0.0148837  0.0195357  0.0391619  
-0.00546246  0.0101581 0.000160227 0.00913047  0.0140094  0.0556466  
-0.000462216  0.0137162 0.000260007   0.014964  0.0193337   0.038654  
-0.00290888  0.0121415 0.000425658  0.0126281  0.0172168  0.0473763  
-0.00290162  0.0122241 0.000202713  0.0126546  0.0170565  0.0469194  
-0.00550191  0.0104411 0.000142223 0.00970256  0.0142226  0.0565323  
-0.000483187  0.0139583 0.000209997  0.0155903  0.0195125  0.0397012  
-0.00294749  0.0124851 0.000188641  0.0132427  0.0172537  0.0478902  
 0.0601495 -0.0218724   0.000677  -0.013665 -0.00189389 -0.0173235  
 0.0612216 -0.0264761 0.00190154 -0.00341755 0.00538712 -0.0188172  
 0.0634695 -0.0260552 0.00161346 -0.0131412 -0.000724112 -0.0232836  
 0.0603265  -0.022091 0.000378747 -0.00554782 0.00321739 -0.0154485  
 0.0641385  -0.024223 4.78632e-05 -0.0150687 -0.00203335 -0.0229804  
 0.0636982 -0.0268033 0.00130908 -0.00434191 0.00519414 -0.0215796  
 0.0635893 -0.0238293 -0.000389972 -0.00552158  0.0038981 -0.0206077  
 0.0603416 -0.0245377 0.00102972 -0.0101644 0.00182873 -0.0206372  
 0.0619268 -0.0267786 0.000553491 -0.00341119 0.00563141 -0.0209787  
 0.0639253 -0.0264827 0.000498326 -0.0122033 0.000962803 -0.0254635  
 0.0617064 -0.0264266 0.00077726 -0.00357968 0.00544984 -0.0201828  
 0.0637739 -0.0263525 0.000895346 -0.0125536 0.000511648 -0.0248208  
 0.0641422 -0.0273344 0.000471178 -0.0036672 0.00595545 -0.0236922  
 0.0640034 -0.0270427 0.000648408 -0.00388717 0.00568013 -0.0230011  
 0.0605721 -0.0245443 0.000392905 -0.00974141 0.00231407 -0.0212901  
 0.0619469   -0.02666 0.000385204  -0.003276 0.00570176 -0.0209116  
 0.0638867 -0.0262596 0.000275579  -0.011917  0.0012435  -0.025335  
 0.0619267 -0.0266892 0.000439896 -0.00336441 0.00569676 -0.0210328  
 0.0639134 -0.0263724 0.000369661 -0.0120583 0.00111439 -0.0254388  
 0.0641308 -0.0272619 0.000398224 -0.00344412 0.00615143 -0.0236376  
 0.0641353 -0.0272873 0.000417072 -0.0035582 0.00606197 -0.0237228  
 0.0605876 -0.0239697 -5.79627e-05 -0.0095312 0.00247628  -0.020571  
 0.0618241  -0.026014 0.000603673 -0.00288271 0.00568813 -0.0186806  
 0.0639615  -0.025205 -0.000389274  -0.010672 0.00117464 -0.0237916  
  0.061806 -0.0261508 0.000266737 -0.00326135  0.0058064 -0.0202057  
 0.0639283  -0.025874 7.9025e-06 -0.0116935  0.0013563 -0.0247088  
 0.0639192 -0.0265271 0.000611071 -0.00263982 0.00650913 -0.0215728  
 0.0640466 -0.0268881 0.000368602 -0.00327733 0.00635038 -0.0229238  
  0.060136 -0.0208824 -0.00204166 -0.00950048 0.00113611 -0.0205494  
 0.0606967 -0.0216216 -0.00186264 -0.00263199 0.00564228 -0.0180319  
 0.0635949 -0.0234433 -0.00132077 -0.0115238 0.000601436 -0.0244257  
  0.063564 -0.0235957 -0.00104411 -0.00209326 0.00696755 -0.0211321  
-0.00345642 0.00501086 -0.00016667 0.00173024 0.00274907  0.0601543  
-0.00196552 0.00299959 0.000101382 0.000222625 -0.00054993  0.0595114  
-0.00665968 0.00643165 2.30244e-05 0.00303109 0.00411413  0.0642649  
-0.00166654  0.0029472 -0.000135387 0.000349961 -0.000610966   0.059522  
-0.00650071 0.00645411 -9.67191e-05 0.00324675 0.00391609   0.064295  
-0.00461269 0.00441172 9.64786e-05 0.000328319 -0.000677061  0.0623729  
-0.00438623 0.00436869 -4.20926e-05 0.000464753 -0.000757028  0.0623894  
-0.00365093 0.00501134 -5.17416e-05 0.00160078 0.00296307   0.060023  
-0.00191374 0.00304514 -6.48374e-05 0.000253215 -0.000836119  0.0593409  
-0.00659474 0.00641072 -7.51852e-05 0.00306986 0.00400661  0.0641456  
-0.00194079 0.00303591 -7.96521e-06 0.000272155 -0.000742699  0.0594059  
-0.00664746 0.00644487 -3.4561e-05 0.00309116 0.00407082  0.0642007  
-0.00454081 0.00442515 -5.95355e-05 0.000408148 -0.000883477  0.0622681  
-0.00458849 0.00443426 5.44899e-06   0.000402 -0.000810492  0.0623204  
-0.00355901 0.00493371 -6.08706e-05 0.00148464 0.00280352  0.0599342  
-0.00188559  0.0029921 -3.11039e-05 0.000182817 -0.000899467  0.0593153  
-0.00650224 0.00627362 -9.29139e-06 0.00296103 0.00391783   0.064092  
-0.00188314 0.00301974 -5.95179e-05 0.000223367 -0.000882126  0.0593267  
-0.00653605 0.00634243 -4.8198e-05 0.00302166 0.00394964  0.0641195  
-0.00445988 0.00432322 -2.85391e-05 0.000393597 -0.000894127  0.0622322  
-0.00448616 0.00437473 -5.25216e-05 0.000404707 -0.000899354  0.0622508  
-0.00357083  0.0048223 0.000109241 0.00137562 0.00284876  0.0600263  
-0.00194516 0.00285668 0.00026223 0.000123648 -0.000557954  0.0595125  
-0.0065329 0.00614798 0.000273871 0.00305918  0.0042515  0.0644445  
-0.00190798 0.00295072 6.67367e-05 0.000174521 -0.000782976   0.059416  
-0.00651447 0.00622173 0.000100118 0.00296729 0.00401965  0.0642043  
-0.00447048 0.00421683 0.000181091 0.000470624 -0.000544393  0.0624658  
-0.00446371  0.0042771 5.43263e-05 0.000414186 -0.000772759  0.0623246  
-0.00347722   0.004913 0.000170041  0.0020375  0.0033201  0.0608784  
-0.00168279  0.0028674 0.000136134 0.000639816 -0.00017197   0.059954  
-0.00646076 0.00637816 7.93597e-05 0.00351804 0.00429838  0.0648196  
-0.00431186 0.00427353 3.4839e-05 0.000866371 -0.000401446  0.0627173  
  0.060135 -0.0208812 -0.00204207 -0.00949689 0.00113708 -0.0205472  
 0.0618236 -0.0260135  0.0006037 -0.00288209 0.00568797 -0.0186796  
 0.0639609 -0.0252053 -0.00038908 -0.0106689 0.00117599 -0.0237894  
 0.0606961 -0.0216208 -0.00186284 -0.00263133 0.00564217 -0.0180311  
 0.0635942 -0.0234427 -0.00132102 -0.0115204 0.000602913 -0.0244238  
 0.0639186 -0.0265269 0.000611311 -0.00263755 0.00650993 -0.0215714  
 0.0635634 -0.0235951 -0.00104411 -0.00209068 0.00696862 -0.0211308  
 0.0605869 -0.0239693 -5.79231e-05 -0.00952808 0.00247717 -0.0205692  
 0.0619463 -0.0266594 0.000385193 -0.00327541 0.00570171 -0.0209108  
 0.0638862 -0.0262597 0.000275577 -0.0119141 0.00124474 -0.0253333  
 0.0618055 -0.0261502 0.000266716 -0.00326072 0.00580634 -0.0202049  
 0.0639277 -0.0258741 7.96358e-06 -0.0116905 0.00135758  -0.024707  
 0.0641303 -0.0272617 0.000398251 -0.00344201 0.00615218 -0.0236367  
 0.0640461 -0.0268879 0.000368694 -0.00327516 0.00635116 -0.0229227  
 0.0605715 -0.0245439 0.000392912 -0.00973836 0.00231502 -0.0212887  
 0.0619263 -0.0267781 0.000553524 -0.00341069 0.00563147 -0.0209781  
 0.0639247 -0.0264829 0.000498376 -0.0122005 0.000964159 -0.0254621  
 0.0619261 -0.0266886 0.000439886 -0.00336387 0.00569677 -0.0210321  
 0.0639129 -0.0263726 0.000369684 -0.0120554  0.0011157 -0.0254373  
 0.0641418 -0.0273342 0.000471195 -0.00366518  0.0059563 -0.0236915  
 0.0641349 -0.0272871 0.000417088 -0.00355614 0.00606278  -0.023722  
 0.0603409 -0.0245373 0.00102981 -0.0101613  0.0018299 -0.0206356  
  0.061221 -0.0264757 0.00190168 -0.00341687 0.00538745 -0.0188168  
 0.0634686 -0.0260552 0.00161377 -0.0131384 -0.000722522 -0.0232815  
 0.0617058 -0.0264261 0.000777289 -0.00357918 0.00544997 -0.0201822  
 0.0637733 -0.0263526 0.000895476 -0.0125508 0.000513094 -0.0248191  
 0.0636977  -0.026803 0.00130914 -0.00433988 0.00519519 -0.0215787  
  0.064003 -0.0270424 0.000648423 -0.00388514 0.00568105 -0.0230003  
 0.0601481 -0.0218709 0.000677274  -0.013662 -0.00189264 -0.0173207  
 0.0603256 -0.0220902 0.000378952 -0.00554729 0.00321744 -0.0154473  
 0.0641376 -0.0242223 4.78998e-05 -0.0150661 -0.00203207 -0.0229779  
 0.0635887 -0.0238286 -0.000390093 -0.00551955 0.00389904 -0.0206067  
 0.0334712 -0.00114613 -0.00171983  0.0249092  0.0236559 -0.0015614  
 0.0328799 -0.000975692 -0.00128531  0.0276818    0.02426 -0.00228031  
 0.0333226 -0.00196038 -0.000192449  0.0251226  0.0214161 -0.00104288  
 0.0335662 -0.00162366 -0.000937412  0.0251269  0.0219154 -0.00102855  
 0.0332802 -0.00242048 0.000439664  0.0252327    0.02145 -0.00131261  
 0.0332971 -0.00218985 0.000121184  0.0251657   0.021477 -0.00119706  
 0.0330424 -0.00279278 0.00220526  0.0256552    0.02433 0.000291823  
 0.0330339 -0.00260148 0.00123939  0.0254367  0.0221112 -0.000915449  
 0.0343606 -0.00230754 0.000862146   0.028476   0.025388 0.00094217  
 0.0330445 -0.00279127  0.0022023  0.0256904  0.0243598 0.000294632  
 0.0343616 -0.00230557 0.000858945  0.0285069  0.0254119 0.00094212  
 0.0332793 -0.00241901 0.000439843  0.0252651  0.0214781 -0.00130962  
 0.0330337 -0.00260003 0.00123891  0.0254695   0.022141 -0.000912304  
  0.033322 -0.00195905 -0.000192501  0.0251548  0.0214441 -0.00103997  
 0.0332964 -0.00218846 0.000121228   0.025198  0.0215055 -0.00119397  
 0.0334684 -0.00114498 -0.00171712  0.0249407  0.0236843 -0.00155725  
 0.0335649 -0.00162237 -0.000936652  0.0251586  0.0219446 -0.00102541  
 0.0328783 -0.0009745 -0.00128243  0.0277091  0.0242842 -0.00227317  
-0.0022168  0.0127179 0.00014996 -0.0109204 -0.0182194  0.0377994  
-0.00214694  0.0123902 0.000367349 -0.0112343 -0.0177926  0.0380079  
-0.0016768  0.0127184 -0.000267231 -0.0103736 -0.0178013  0.0380231  
-0.00190158  0.0127167 -9.79081e-05 -0.0106144  -0.018076  0.0379539  
-0.00154388  0.0125239 -0.000113023 -0.0100221 -0.0174079  0.0379094  
-0.00160625  0.0126242 -0.00018316 -0.0102059 -0.0175626  0.0379929  
-0.00137718  0.0123173 -0.000226033 -0.00970936 -0.0173773  0.0376671  
 -0.001473  0.0124315 -0.00013486 -0.00985923  -0.017378    0.03784  
-0.0014849  0.0119651 4.85791e-05 -0.0103587 -0.0174889  0.0376486  
 0.0174662  0.0072808 0.00107097 -0.0217758 -0.0182291 0.00664642  
 0.0180732 0.00726621 0.000370154 -0.0234915 -0.0176281 0.00658239  
 0.0231084 0.00345215 0.00229499 -0.0146919 -0.0100328 0.00274453  
  0.023831 0.00333337 0.00211299 -0.0185775 -0.0119759 0.00439179  
  0.017108 0.00801686 0.00018008 -0.0213233 -0.0157945 0.00611215  
 0.0170232 0.00773909 0.000715354 -0.0214131 -0.0164194 0.00610924  
 0.0236886 0.00409277 0.000288001 -0.0149058 -0.00818039 0.00165715  
 0.0234655 0.00379154 0.00106882 -0.0151503 -0.00861383 0.00178635  
 0.0171223 0.00845786 -0.000393609 -0.0212611 -0.0158594  0.0064609  
  0.017115  0.0082366 -0.000112329 -0.0212686 -0.0158833 0.00629297  
 0.0237548 0.00458987 -0.000375985 -0.0147948 -0.00818688 0.00191654  
 0.0237172 0.00433473 -3.76224e-05 -0.0148822 -0.00815745 0.00179337  
 0.0168791 0.00894083 -0.00155034 -0.0218269 -0.0189897 0.00541901  
 0.0172735 0.00867633 -0.00105159 -0.0213346 -0.0166948 0.00622463  
 0.0245991  0.0052797 -0.00285148 -0.0144927 -0.0103197 0.000781458  
 0.0240188  0.0048826 -0.00121556 -0.0149671 -0.00869266 0.00179204  
  0.015596 0.00830037 7.84072e-05   -0.02401 -0.0188172 0.00570415  
  0.023205  0.0050513 -0.00192863 -0.0183673 -0.0130426 -0.000809603  
0.00255951   0.015756 -0.000416058  0.0190163  0.0213883  0.0293753  
0.00238829  0.0155528 4.81264e-05  0.0195972  0.0209943  0.0295682  
-5.75986e-05  0.0151024 -0.000312993   0.011556  0.0138626   0.034208  
-0.000108524  0.0149749 -8.94988e-05  0.0120477  0.0132688  0.0344345  
0.00306066  0.0157622 -0.000471189  0.0182649   0.020335   0.029564  
0.00290357  0.0158171 -0.000537285  0.0185344   0.020863  0.0295013  
0.000319456   0.015193 -0.000419294  0.0109603  0.0131868  0.0342317  
0.000192676  0.0152081 -0.000440268  0.0112481   0.013576  0.0341905  
0.00294172  0.0154734 0.000109836  0.0180104  0.0200145  0.0293267  
 0.0029995  0.0156144 -0.00016127  0.0181471   0.020118  0.0294933  
0.000230508   0.015002 -2.46208e-05  0.0105967   0.012789  0.0340656  
0.000274263   0.015097 -0.000200998  0.0107904  0.0129467  0.0341933  
0.00315941  0.0150765 0.000548058  0.0176455   0.020579  0.0298743  
0.00299217  0.0152698 0.000358586  0.0178168  0.0202443  0.0293821  
0.000188388  0.0145022 0.000638939  0.0100079  0.0129665   0.034391  
0.000198622  0.0148263 0.000219803  0.0103566  0.0128244  0.0340898  
0.00309474  0.0153035 0.000291843  0.0184496  0.0204473  0.0302906  
0.000121653  0.0147545 0.000510961  0.0109001  0.0132008  0.0354275  
0.00321043  0.0149207 0.000509715  0.0190391  0.0221869  0.0303791  
0.00314048   0.015148 0.000254896  0.0198083  0.0220286  0.0307518  
-4.8108e-05  0.0141862 0.000601633  0.0110532  0.0144213  0.0361026  
-0.000110935  0.0144619 0.000434338   0.011887  0.0145847  0.0370232  
0.00297448    0.01527 0.000126935  0.0193479  0.0216225  0.0298186  
 0.0030348  0.0150815 0.000356346  0.0191739  0.0218611  0.0298932  
-2.26135e-05  0.0146234 -5.47075e-06  0.0115469  0.0142138  0.0357113  
-4.55402e-05  0.0144621 0.000224691  0.0113345  0.0142658  0.0357633  
0.00308114  0.0155634 -0.000455491  0.0195887  0.0219272  0.0300573  
0.00302689   0.015414 -0.000147568  0.0194789  0.0217128  0.0299833  
4.83414e-05  0.0148194 -0.000393378  0.0118948  0.0145906  0.0358779  
1.43181e-05  0.0147209 -0.000181969   0.011733  0.0143577   0.035836  
0.00257049  0.0155795 -0.000378403  0.0203044  0.0229348  0.0298947  
0.00291528  0.0156244 -0.000508168  0.0198428  0.0224367  0.0300105  
-0.00032798  0.0147536 -0.000267237  0.0124439  0.0151925  0.0358911  
-8.38405e-05  0.0148428 -0.00040193  0.0121576  0.0149519  0.0358604  
0.00242422  0.0154073 4.44945e-05  0.0208436  0.0225406  0.0300815  
-0.000356673  0.0146578 -7.51302e-05  0.0129045  0.0146667  0.0360917  
 0.0169139  0.0089597 -0.00158257 -0.0216085  -0.018798 0.00538305  
 0.0156135 0.00831463 5.95774e-05 -0.0238324 -0.0186632 0.00566048  
    0.0246  0.0052962 -0.00286428  -0.014384 -0.0102343 0.000799095  
 0.0232031 0.00506268 -0.00194976  -0.018282 -0.0129864 -0.000824361  
 0.0171328 0.00847695 -0.000393916 -0.0210506 -0.0156585 0.00645024  
 0.0172915 0.00869607 -0.00106088 -0.0211238  -0.016489 0.00621312  
 0.0237447 0.00460601 -0.000376354 -0.0146942 -0.00810814  0.0019333  
 0.0240111 0.00489885 -0.00121911  -0.014867 -0.00861177 0.00180685  
 0.0171195  0.0080349 0.000178903 -0.0211118 -0.0155931 0.00610281  
  0.017126 0.00825535 -0.000113065 -0.0210574 -0.0156821 0.00628298  
 0.0236785 0.00410861 0.000287534 -0.0148044 -0.00810186 0.00167409  
  0.023707 0.00435085 -3.8159e-05 -0.0147815 -0.00807823  0.0018104  
 0.0174631 0.00729089 0.00109454 -0.0215506 -0.0180348 0.00663781  
 0.0170289 0.00775506 0.000721955 -0.0212032 -0.0162153 0.00609901  
 0.0230893 0.00346424 0.00230585 -0.0145859 -0.0099519 0.00275691  
 0.0234537 0.00380648 0.00107074 -0.0150504 -0.00853255  0.0018031  
 0.0180823 0.00726638 0.000392411 -0.0233086 -0.0174651 0.00658908  
 0.0238173 0.00333928 0.00213628 -0.0184849 -0.0119123  0.0044341  
-0.00343118 0.00313129 0.000139112 -3.3757e-05 -0.00235398  0.0619071  
-0.00327475 0.00325009 -6.0435e-05 0.000379583 -0.00227904   0.062094  
-0.00640284 0.00522664 0.000117474 0.000549016 -0.00178799  0.0648525  
-0.00630855 0.00528843 3.9097e-06 0.000852208 -0.00176054   0.064979  
-0.00344695  0.0032593 -3.91862e-05 -0.000131853 -0.00273968  0.0616841  
-0.00344461 0.00321664 3.09653e-05 -0.000101334 -0.00261363  0.0617654  
-0.00642316 0.00530606 -2.65243e-05 0.000396788 -0.00212521  0.0646146  
-0.00641598 0.00525676 4.49381e-05 0.000437784 -0.00200342  0.0646978  
-0.0035404 0.00336064 -5.44241e-05 -0.000179532 -0.00278171  0.0617148  
-0.00347981 0.00331017 -5.3491e-05 -0.000154658 -0.00276998  0.0616964  
-0.00653662 0.00543704 -5.38898e-05 0.000375408 -0.00214684   0.064657  
-0.00646712 0.00537153 -4.75314e-05 0.000389089 -0.00214458  0.0646373  
-0.00362268 0.00335219 0.000118438 -0.000310401 -0.00255647   0.061815  
-0.00359551 0.00336185 2.93292e-05 -0.000208073 -0.00270884  0.0617654  
-0.00662152 0.00544613 9.49086e-05 0.000264597 -0.00199562  0.0647205  
-0.0065955 0.00545851 1.2086e-05 0.000350429 -0.00208985   0.064698  
-0.00339056 0.00322895 5.36314e-05 -0.000198205 -0.00259561  0.0618177  
-0.0064346 0.00541091 -1.34024e-05 0.000412582 -0.00207985  0.0647317  
-0.00215464 0.00342413 0.000244532 -0.000215585 -0.00128414  0.0589319  
-0.00189172 0.00332429 0.000201313 0.000265248 -0.000852271  0.0593956  
-0.00208373 0.00354361 -3.29615e-05 -0.000141985 -0.0015857  0.0587933  
-0.0021074 0.00350308 6.08709e-05 -0.000152059 -0.00147319  0.0588938  
-0.00210957 0.00359763 -6.9846e-05 -7.03534e-05 -0.00151768  0.0588202  
-0.00207985 0.00357345 -6.53086e-05 -0.000100314 -0.00156539  0.0588078  
-0.00217045 0.00353762 0.000114213 -9.83005e-05 -0.00121944  0.0589708  
-0.00213987 0.00358806 -1.46327e-05 -4.79962e-05 -0.00142796    0.05888  
-0.0018722 0.00353559 -0.000182243 1.10424e-05 -0.00132897  0.0589912  
 0.0133686 0.00926188 0.000527643 -0.0228835 -0.0211908  0.0114058  
 0.0133333 0.00915187 0.000457165 -0.0240863 -0.0209689  0.0117637  
 0.0128735 0.00981515 0.000162786 -0.0226515 -0.0198203   0.011288  
 0.0129607 0.00958113 0.000427638 -0.0227087 -0.0203592  0.0112617  
 0.0129415  0.0101973 -0.000445671 -0.0226649  -0.019958   0.011595  
 0.0128994   0.010004 -0.000129532 -0.0226729 -0.0199009  0.0114673  
 0.0123183  0.0105256 -0.000823945  -0.023238 -0.0221385  0.0110114  
 0.0128351  0.0103763 -0.000753113 -0.0228091 -0.0207812  0.0114303  
 0.0118471  0.0101407 -2.15737e-06 -0.0245068 -0.0217681  0.0110356  
0.00778968  0.0127437 0.000567211  0.0237923  0.0257676  0.0251787  
 0.0078266  0.0128826 0.000265784  0.0246243  0.0256143  0.0255113  
 0.0074108  0.0130778 0.000226283  0.0239078  0.0248314   0.024671  
0.00749687  0.0129052 0.000459441  0.0238244  0.0252282  0.0247793  
0.00754882  0.0134165 -0.000448547  0.0240473   0.025061  0.0249313  
0.00748044  0.0132476 -0.000104247  0.0239924  0.0248963  0.0248277  
0.00701677  0.0135544 -0.000484649  0.0246821   0.026339  0.0246695  
0.00740185  0.0135176 -0.000563316  0.0242565  0.0256456  0.0248742  
0.00689629  0.0133682 -5.76614e-05  0.0253853  0.0259401  0.0248401  
0.00706014  0.0136998 -0.000521917  0.0239392  0.0255029  0.0241134  
0.00691867  0.0134924 -6.09015e-05  0.0246729   0.025103  0.0242868  
0.00758762  0.0135723 -0.00046174  0.0232739  0.0241648  0.0244095  
0.00744835   0.013671 -0.000591445  0.0234934  0.0247685  0.0243398  
0.00743985  0.0132309  0.0002214  0.0231278  0.0239262  0.0241454  
0.00751371  0.0134019 -0.000111943  0.0232153  0.0240007  0.0243063  
0.00781397  0.0128702 0.000595612  0.0229785   0.024887  0.0246491  
0.00751898  0.0130482 0.000470882  0.0230327  0.0243261  0.0242468  
0.00785967  0.0129954 0.000293408   0.023845  0.0247461   0.024996  
 0.0123485  0.0106188 -0.000861408 -0.0227727 -0.0216674  0.0109125  
 0.0118515  0.0102212 -1.04262e-05 -0.0240822 -0.0213102  0.0109363  
  0.012957  0.0102914 -0.000449497 -0.0221872 -0.0194382  0.0115291  
 0.0128611  0.0104699 -0.000773097 -0.0223357 -0.0202708  0.0113535  
 0.0128866 0.00990707 0.000160339 -0.0221734 -0.0192997  0.0112208  
 0.0129136  0.0100969 -0.000132649 -0.0221945 -0.0193848  0.0114003  
 0.0133757 0.00933924 0.000549337 -0.0223976 -0.0207005  0.0113396  
 0.0129674 0.00966808 0.000437473 -0.0222281 -0.0198432  0.0111909  
 0.0133505 0.00921621 0.000478699 -0.0236378 -0.0204828  0.0117035  
 0.0533286 -0.0197154 0.00280643 -0.0139951 -0.00257247  -0.015282  
 0.0547765 -0.0176039 0.000660524    -0.0181 -0.00552615 -0.0144799  
 0.0567837 -0.0207879 0.00174691 -0.0194814 -0.00619592 -0.0197386  
 0.0574525 -0.0191842  0.0002634 -0.0216193 -0.00718748 -0.0192535  
 0.0546241 -0.0198783 0.000530433 -0.0136746 -0.000822178 -0.0181176  
 0.0543585 -0.0198355 0.00115241 -0.0139907 -0.0011323 -0.0176136  
 0.0570818 -0.0209758 0.000494648 -0.0185538 -0.00404361 -0.0217621  
 0.0569041 -0.0209278 0.00101184  -0.018906 -0.00459489 -0.0211665  
 0.0546121 -0.0195321 0.000149304 -0.0133881 -0.000631088 -0.0180289  
 0.0546203 -0.0197135 0.000332443 -0.0135458 -0.000630223  -0.018136  
 0.0570292 -0.0206692 0.000168082  -0.018273 -0.00380068   -0.02157  
 0.0570636 -0.0208191 0.000308039 -0.0184023 -0.00393469 -0.0216985  
 0.0553753 -0.0183386 -0.00164934 -0.0120813 -0.00125921 -0.0170735  
 0.0546994 -0.0190792 -0.000345704 -0.0133916 -0.000585419 -0.0174689  
 0.0571063 -0.0196209 -0.000851569 -0.0172654 -0.00469172  -0.020579  
 0.0571326 -0.0202577 -0.000286956 -0.0180693 -0.00387656 -0.0210821  
 0.0535752 -0.0164317 -0.00179967 -0.0147568 -0.00339335 -0.0177181  
 0.0564785 -0.0182208 -0.00129633 -0.0187431 -0.00532891 -0.0212143  
-0.0035278  0.0069321 -4.89792e-05 0.00320191 0.00602834  0.0564076  
-0.00335479 0.00691877 -0.000136238 0.00350561 0.00570516  0.0564637  
-0.00614342 0.00846451 -2.27877e-06 0.00657685 0.00944104  0.0602248  
-0.00601393 0.00851577 -0.000100535 0.00682338 0.00920948  0.0602533  
-0.00342849 0.00692921 -0.000131746 0.00316764 0.00586654  0.0562015  
-0.00348995 0.00695349 -9.68991e-05 0.00325171 0.00597289  0.0562687  
-0.00602721 0.00845036 -0.000113778  0.0065251 0.00933435  0.0600644  
-0.00609723 0.00848903 -7.70449e-05 0.00658071 0.00941793  0.0601335  
-0.00338651 0.00681398 -2.30045e-05 0.00293979 0.00566961  0.0561398  
-0.00339493 0.00687231 -7.88494e-05  0.0030603 0.00574913  0.0561686  
-0.00595019   0.008307 -4.27183e-06 0.00634923 0.00918123  0.0599906  
-0.00597687 0.00837786 -6.14805e-05 0.00644499 0.00923841  0.0600343  
-0.0034928 0.00652587 0.000508028 0.00286735 0.00601451  0.0565405  
-0.00343056 0.00675009 0.000134087 0.00287891 0.00573836  0.0562519  
-0.00600244 0.00817916 0.000333994 0.00639155 0.00946776  0.0604564  
-0.00597077   0.008245 0.000132065 0.00632738 0.00926798  0.0601209  
-0.00337703 0.00694889 0.000177899 0.00358297 0.00619168  0.0573692  
-0.00595323 0.00846875 0.000106996 0.00689337   0.009521  0.0608687  
 0.0553749 -0.0183387 -0.00164944 -0.0120718 -0.00125464 -0.0170693  
 0.0535745 -0.0164304 -0.00180144 -0.0147478 -0.00339027 -0.0177167  
 0.0571043 -0.0196198 -0.000851911 -0.0172564 -0.00468717 -0.0205738  
 0.0564758 -0.0182186 -0.0012971  -0.018735 -0.00532478 -0.0212102  
 0.0546113 -0.0195318 0.000149205  -0.013379 -0.000627263 -0.0180261  
 0.0546985 -0.0190789 -0.000345779 -0.0133826 -0.000581433 -0.0174658  
 0.0570269  -0.020668 0.000168037 -0.0182646 -0.00379607 -0.0215656  
 0.0571303 -0.0202564 -0.000287088 -0.0180609 -0.00387187 -0.0210773  
 0.0546232 -0.0198782 0.00053052 -0.0136655 -0.000818174  -0.018115  
 0.0546194 -0.0197133 0.000332444 -0.0135367 -0.000626208 -0.0181332  
 0.0570795 -0.0209747 0.00049469 -0.0185455 -0.00403882 -0.0217579  
 0.0570612 -0.0208179 0.00030806 -0.0183939 -0.00392994 -0.0216941  
 0.0533269 -0.0197153 0.00280748 -0.0139851 -0.00256711 -0.0152787  
 0.0543575 -0.0198354 0.00115264 -0.0139817 -0.00112794 -0.0176106  
 0.0567805 -0.0207867  0.0017481 -0.0194729 -0.00619109 -0.0197329  
 0.0569015 -0.0209267 0.00101222 -0.0188978 -0.00458994 -0.0211619  
 0.0547738 -0.0176023 0.000662143 -0.0180918 -0.00552268 -0.0144731  
 0.0574495 -0.0191817 0.000263904 -0.0216127 -0.00718383 -0.0192467  
 0.0556329 -0.0219471 0.00242799 -0.00512606 0.00359978 -0.0164178  
 0.0542222 -0.0182932 0.00258673 -0.00845542 0.000187723 -0.0103304  
 0.0565001 -0.0219682 0.000627438 -0.00546873 0.00365982 -0.0179892  
 0.0562451  -0.021766   0.001075 -0.00575775 0.00342634 -0.0171124  
 0.0566003 -0.0216869 0.000174263 -0.00532615 0.00372982  -0.017806  
 0.0565366 -0.0218018 0.000383433 -0.00547016 0.00374017  -0.017963  
 0.0568968 -0.0208524 -0.000450716 -0.00461212 0.00392176 -0.0156799  
 0.0565388 -0.0211475 -0.000167122 -0.00542685 0.00373902 -0.0173471  
 0.0563755 -0.0171381 -0.00387804 -0.00598706 0.00177304 -0.0182644  
-0.00223076 0.00520486 4.16787e-05 0.00142362 0.00129642  0.0564443  
-0.00193946 0.00525759 -0.00036273 0.00159757 0.000954835  0.0564651  
-0.00216122 0.00525451 -0.000108342 0.00138167 0.00100626  0.0562487  
-0.00219183  0.0052546 -7.98907e-05 0.00145608   0.001108  0.0563086  
-0.00216143 0.00519394 -2.80055e-05 0.00117779 0.000818414  0.0562054  
-0.00214502 0.00522904 -8.2137e-05  0.0012891 0.000898037  0.0562284  
-0.00229851  0.0049915 0.00040978 0.000999113 0.00107009   0.056344  
-0.00221103 0.00514823 0.000103196 0.00112474 0.000908537  0.0563244  
-0.00205249 0.00499371 0.000421562 0.00162962 0.00166718  0.0572327  
 0.0568969 -0.0208526 -0.000450423 -0.00460884 0.00392369 -0.0156782  
 0.0563757 -0.0171379 -0.00387913 -0.00598379 0.00177443  -0.018264  
 0.0566004  -0.021687 0.000174215 -0.00532298  0.0037312 -0.0178051  
 0.0565388 -0.0211477 -0.000167149 -0.0054237 0.00374037 -0.0173463  
 0.0565001 -0.0219684 0.00062746 -0.0054657  0.0036613 -0.0179886  
 0.0565367 -0.0218019 0.000383416 -0.00546708 0.00374158 -0.0179623  
 0.0556328 -0.0219473 0.00242797 -0.00512267 0.00360202 -0.0164174  
 0.0562452 -0.0217661 0.00107506 -0.00575469 0.00342796 -0.0171117  
 0.0542213 -0.0182927 0.00258781 -0.00845204 0.000189887 -0.0103278  
-0.0711533 -0.0134466 4.25509e-06 -0.00467765 -0.00915942 -0.0757238  
-0.0711747 -0.0134538 2.02149e-05 -0.00466478 -0.00913463 -0.0757072  
-0.0711818 -0.0134436 7.67154e-06 -0.00464358  -0.009116 -0.0756982  
-0.0711791 -0.0134257 -1.07947e-05 -0.00462122 -0.00911581 -0.0757136  
-0.0711925  -0.013414 -1.22574e-05 -0.00460643 -0.00910413 -0.0757101  
 -0.071193 -0.0134327 6.00942e-06 -0.00462798 -0.00910137 -0.0756955  
-0.0711856 -0.0134442 2.09038e-05 -0.00464808 -0.00911911  -0.075705  
 -0.071164 -0.0134375 5.90309e-06 -0.00466084 -0.00914525 -0.0757203  
 -0.071278 -0.0134178 -1.53021e-05 -0.00481809 -0.00933405 -0.0756259  
-0.0712769 -0.0134303 -1.14653e-06 -0.00481454 -0.0093339 -0.0756116  
-0.0712674 -0.0134439 1.81562e-05 -0.00480359 -0.00932369 -0.0756155  
 -0.071254 -0.0134406 1.02526e-05 -0.00479254 -0.0093146 -0.0756237  
-0.0712848 -0.0134224 1.30372e-05 -0.00480936 -0.00933679 -0.0756058  
-0.0712969 -0.0134249 1.87068e-05 -0.00481981 -0.00934675 -0.0756015  
-0.0713066 -0.0134097 -3.86758e-06 -0.00482883 -0.00935563 -0.0755975  
-0.0713097 -0.0133971 -1.73218e-05 -0.00483129 -0.0093531 -0.0756092  
-0.0712926 -0.0134145 -1.1727e-05 -0.00469513 -0.00916778 -0.0755833  
 -0.071289 -0.0134255 -7.09806e-07 -0.00469985 -0.0091608 -0.0755686  
-0.0712772 -0.0134386 1.3625e-05 -0.00470213 -0.00916114 -0.0755749  
 -0.071266 -0.0134382 6.92091e-06 -0.00469807 -0.00916695 -0.0755892  
-0.0712722 -0.0134369 7.42878e-06 -0.00469061 -0.0091613 -0.0755843  
-0.0712832 -0.0134369 1.37065e-05 -0.00469474 -0.00915522 -0.0755706  
-0.0712951 -0.0134234 -1.34197e-06 -0.00469267  -0.009155 -0.0755642  
-0.0712993 -0.0134123 -1.21198e-05 -0.00468817 -0.00916262 -0.0755783  
-0.0711447 -0.0134468 7.62834e-06 -0.00478797 -0.00925579 -0.0757582  
 -0.071168 -0.0134584 2.50711e-05 -0.00481464 -0.00928393 -0.0757498  
-0.0711705   -0.01345 8.77463e-06 -0.00484018 -0.00930927 -0.0757484  
-0.0711615 -0.0134308 -1.37233e-05 -0.00485835 -0.00931905 -0.0757639  
-0.0711655 -0.0134266 -1.44212e-05 -0.00486376 -0.00932407 -0.0757649  
-0.0711737 -0.0134462 8.1684e-06 -0.00484569 -0.00931538 -0.0757497  
-0.0711711 -0.0134552 2.55809e-05 -0.0048205 -0.0092902 -0.0757514  
-0.0711475 -0.0134437 8.48589e-06 -0.00479375 -0.0092609  -0.075759  
-0.0711809 -0.0134313 1.24662e-05 -0.00482656 -0.00930426 -0.0757368  
-0.0712042 -0.0134395 2.63905e-05 -0.00484854 -0.00933299 -0.0757312  
-0.0712087 -0.0134267 2.94781e-06 -0.00486953 -0.00935454 -0.0757276  
-0.0712059 -0.0134072 -1.81469e-05 -0.00488347 -0.0093557 -0.0757422  
-0.0711582 -0.0134748 3.36055e-06 -0.00477069 -0.00925674 -0.0757058  
-0.0711763 -0.0134825 1.90446e-05 -0.00478774 -0.00926991 -0.0756896  
-0.0711809 -0.0134753 7.95848e-06 -0.00480765 -0.0092882 -0.0756881  
-0.0711728  -0.013462 -1.0649e-05 -0.00481763 -0.00929606  -0.075708  
-0.0711368 -0.0134839 -2.16857e-06 -0.0047241 -0.00920703 -0.0757143  
-0.0711517 -0.0134944 1.57147e-05 -0.00474298 -0.00921667 -0.0756948  
-0.0711513  -0.013494 1.31534e-05 -0.0047643 -0.00923563 -0.0756971  
-0.0711368 -0.0134834 -5.64077e-06 -0.00477449 -0.00924855 -0.0757191  
-0.0711452 -0.0134994 -1.56829e-06 -0.00474102 -0.0092276 -0.0756861  
 -0.071159 -0.0135068 1.41091e-05 -0.00475289 -0.00923181 -0.0756644  
-0.0711608 -0.0135045 1.05315e-05 -0.00476605 -0.0092433 -0.0756647  
-0.0711498 -0.0134955 -6.14054e-06 -0.00476983 -0.00925082 -0.0756878  
-0.0711532 -0.0134894 -5.35527e-06 -0.00471237 -0.0091966 -0.0756819  
-0.0711628 -0.0134994 1.08357e-05 -0.00472513 -0.00919881 -0.0756602  
-0.0711587 -0.0135032 1.35602e-05 -0.00473848 -0.00920982 -0.0756641  
-0.0711439 -0.0134967 -2.19899e-06 -0.00474196 -0.00921952 -0.0756872  
-0.0711441 -0.0135052 -3.67071e-06 -0.00473665 -0.00922087 -0.0756778  
-0.0711556 -0.0135129 1.18409e-05 -0.00474514 -0.00922133 -0.0756548  
-0.0711548 -0.0135135 1.16527e-05 -0.00475258 -0.00922759  -0.075656  
-0.0711426 -0.0135063 -3.98468e-06 -0.00475262 -0.00923346 -0.0756798  
-0.0711505 -0.0135071 -1.46443e-06 -0.00474331 -0.00922705 -0.0756684  
-0.0711635 -0.0135127 1.27231e-05 -0.00474761 -0.00922429 -0.0756455  
-0.0711676 -0.0135088 9.24747e-06 -0.00474768 -0.00922476 -0.0756433  
 -0.071159 -0.0135004 -5.86993e-06 -0.00474356 -0.00922773 -0.0756661  
 -0.071144 -0.0135044 -4.88033e-06 -0.00475791  -0.009239 -0.0756811  
-0.0711556 -0.0135122 1.10685e-05 -0.00475695 -0.00923276 -0.0756574  
-0.0711549  -0.013513 1.26664e-05 -0.00474812 -0.00922517 -0.0756568  
-0.0711424 -0.0135057 -2.79661e-06 -0.00473887 -0.00922378 -0.0756796  
-0.0711686  -0.013495 -6.60931e-06 -0.00474596 -0.00923015 -0.0756596  
 -0.071176 -0.0135038 8.26265e-06 -0.00474937 -0.00922673 -0.0756373  
-0.0711706 -0.0135089 1.30326e-05 -0.00474815 -0.00922519 -0.0756399  
-0.0711574 -0.0135039 -5.15267e-07 -0.00474318 -0.00922741  -0.075662  
-0.0711533 -0.0134982 -1.15686e-06 -0.00473642 -0.00921632  -0.075674  
-0.0711674 -0.0135037 1.33301e-05 -0.00473558 -0.00920868 -0.0756514  
-0.0711728 -0.0134986 9.25758e-06 -0.00472609 -0.00920125 -0.0756473  
 -0.071165  -0.013489 -6.11891e-06 -0.00471589 -0.00920106  -0.075669  
-0.0711398 -0.0134964 -3.16577e-06 -0.00474922 -0.00922662 -0.0756942  
-0.0711544 -0.0135038 1.33486e-05 -0.00474442 -0.00921628 -0.0756709  
-0.0711573 -0.0135012 1.20485e-05 -0.00472929 -0.00920351 -0.0756675  
-0.0711463 -0.0134914 -4.53667e-06 -0.00471535 -0.00919986 -0.0756892  
-0.0712007 -0.0134835 2.95537e-06 -0.00473522 -0.00922375 -0.0756297  
 -0.071213 -0.0134865  1.337e-05 -0.00474067 -0.00922163 -0.0756114  
-0.0712222 -0.0134773 4.28541e-06 -0.0047418 -0.00922353 -0.0756069  
-0.0712196 -0.0134675 -8.96273e-06 -0.00473853 -0.00922732 -0.0756259  
-0.0711619 -0.0134944 8.21429e-07 -0.00475432 -0.00924304 -0.0756724  
-0.0711762 -0.0135002 1.48644e-05 -0.00476487 -0.00924699 -0.0756524  
-0.0711814 -0.0134945 7.89709e-06 -0.00477661 -0.00925748 -0.0756507  
-0.0711737 -0.0134846 -8.06082e-06 -0.00477988 -0.00926369 -0.0756724  
-0.0711767 -0.0134839 -6.82605e-06 -0.00471591 -0.00920111 -0.0756593  
 -0.071183 -0.0134936 8.0257e-06 -0.00472472 -0.00920002 -0.0756381  
-0.0711766 -0.0134998 1.33674e-05 -0.00473202 -0.00920548 -0.0756425  
-0.0711626 -0.0134952 -1.92515e-07 -0.0047314 -0.00921224 -0.0756645  
-0.0712306 -0.0134609 -9.47971e-06 -0.00474107 -0.00922852 -0.0756188  
-0.0712323 -0.0134709 3.46527e-06 -0.00474406 -0.00922464 -0.0756006  
-0.0712226 -0.0134808 1.34764e-05 -0.00474263 -0.00922245 -0.0756052  
-0.0712104 -0.0134781 3.71168e-06 -0.00473694 -0.00922435 -0.0756225  
-0.0711996 -0.0134697 -9.88584e-06 -0.00478859 -0.00927942 -0.0756576  
-0.0712045 -0.0134804 5.45957e-06 -0.00478523 -0.00927437 -0.0756377  
-0.0711972 -0.0134887 1.56374e-05 -0.00477363 -0.00926391 -0.0756404  
-0.0711828 -0.0134839 3.20806e-06 -0.00476311 -0.00925905 -0.0756579  
-0.0711554 -0.0134901 -7.16078e-06 -0.00477913 -0.00926027  -0.075689  
-0.0711654 -0.0134999 9.73952e-06 -0.0047744 -0.0092528 -0.0756664  
-0.0711624 -0.0135036 1.50187e-05 -0.00476016 -0.00924022 -0.0756668  
-0.0711476 -0.0134965 -4.80559e-07 -0.0047477 -0.00923476 -0.0756877  
-0.0711841 -0.0134547 -8.58048e-06 -0.00466603 -0.00915259 -0.0756791  
-0.0711885 -0.0134679 7.58357e-06 -0.00468184 -0.00915258 -0.0756602  
-0.0711808 -0.0134765 1.6183e-05 -0.00469795 -0.00916559 -0.0756674  
-0.0711633 -0.0134714 1.60883e-06 -0.00470372 -0.00918028 -0.0756878  
-0.0711845 -0.0134512 -1.21027e-05 -0.00482881 -0.00931024  -0.075708  
-0.0711912 -0.0134654 6.60688e-06 -0.00481852 -0.00930386 -0.0756891  
-0.0711859  -0.013474 2.01492e-05 -0.00479858 -0.00928532 -0.0756912  
-0.0711672 -0.0134666 5.08032e-06 -0.00478119 -0.0092702 -0.0757055  
-0.0711435 -0.0134781 -5.20486e-07 -0.00472334 -0.00919969 -0.0757065  
-0.0711613 -0.0134852 1.61034e-05 -0.00471499 -0.00918392 -0.0756852  
-0.0711669 -0.0134791 1.05838e-05 -0.00469575 -0.00916757 -0.0756791  
-0.0711589 -0.0134661 -6.83621e-06 -0.00467747 -0.00916379 -0.0756985  
-0.0711847 -0.0134767 2.28683e-06 -0.00470846 -0.00918495 -0.0756537  
-0.0711995   -0.01348 1.43489e-05 -0.00470804 -0.00917575 -0.0756335  
-0.0712086 -0.0134706 5.40199e-06 -0.00469867 -0.00916903 -0.0756271  
 -0.071206 -0.0134594 -8.75533e-06 -0.00468839 -0.00917155 -0.0756463  
-0.0712779 -0.0134481 7.95087e-06 -0.00472974 -0.00922734 -0.0755669  
-0.0712874 -0.0134491 1.34068e-05 -0.00473711 -0.00922679  -0.075556  
-0.0712988 -0.0134361 -1.30156e-06 -0.00474007 -0.00923031 -0.0755514  
-0.0713013  -0.013426 -1.21595e-05 -0.0047386 -0.00923469 -0.0755648  
-0.0712136 -0.0134335 6.72871e-06 -0.00465588 -0.00912995 -0.0756595  
-0.0712309 -0.0134357 1.75782e-05 -0.00465135 -0.00911289  -0.075643  
-0.0712411 -0.0134225 1.50197e-06 -0.00463887 -0.00910333  -0.075634  
-0.0712445 -0.0134076 -1.28118e-05 -0.00462598 -0.00911115   -0.07565  
-0.0711212 -0.0134534 1.98018e-07 -0.00471349 -0.00918888 -0.0757689  
-0.0711396 -0.0134698 2.07193e-05 -0.00474425 -0.00921111 -0.0757582  
-0.0711386 -0.0134687 1.6113e-05 -0.0047726 -0.00923853 -0.0757612  
-0.0711215 -0.0134518 -6.32716e-06 -0.00479382 -0.00925978 -0.0757767  
-0.0711399 -0.0134773 -7.01557e-06 -0.00478867 -0.00926198 -0.0757246  
-0.0711534 -0.0134892 1.23739e-05 -0.00477716 -0.00924936 -0.0757033  
-0.0711526 -0.0134914 1.72462e-05 -0.00475478 -0.00922911 -0.0757018  
-0.0711361  -0.013481 -6.82667e-07 -0.00473487 -0.00921699 -0.0757201  
-0.0711225 -0.0134492 -7.14141e-06 -0.0048022 -0.00926685 -0.0757794  
-0.0711389 -0.0134669 1.55937e-05 -0.00478067 -0.00924642 -0.0757642  
-0.0711396 -0.0134687 2.15496e-05 -0.00475231 -0.00921879 -0.0757616  
-0.0711203 -0.0134525 1.19091e-06 -0.00472115 -0.00919474 -0.0757716  
-0.0712432 -0.0134098 -1.72981e-05 -0.00485997 -0.0093562 -0.0756891  
-0.0712435 -0.0134257 3.77221e-07 -0.0048516 -0.00935691  -0.075674  
-0.0712363 -0.0134394 2.26322e-05 -0.00483518 -0.00934083  -0.075678  
-0.0712175  -0.013434 1.15075e-05 -0.00481942 -0.00932211 -0.0756854  
-0.0712172 -0.0134438 9.71931e-06 -0.00480875 -0.00931229 -0.0756716  
-0.0712345 -0.0134487 2.07399e-05 -0.00482287 -0.00932687 -0.0756621  
-0.0712424 -0.0134359 1.08353e-06 -0.0048385 -0.00934173 -0.0756583  
-0.0712413 -0.0134215 -1.56527e-05 -0.00484575 -0.00934279 -0.0756742  
-0.0712137 -0.0134615 -8.7224e-06 -0.00470504 -0.00918646 -0.0756353  
 -0.071216 -0.0134721 4.84783e-06 -0.00471278 -0.0091832 -0.0756162  
-0.0712067 -0.0134814 1.37007e-05 -0.0047187 -0.00918694  -0.075622  
-0.0711931 -0.0134785 2.46461e-06  -0.004717 -0.00919366 -0.0756416  
-0.0713018 -0.0134259 -1.22224e-05 -0.00473996  -0.009234 -0.0755642  
-0.0712991  -0.013436 -1.40757e-06 -0.0047414 -0.00922959 -0.0755508  
-0.0712877  -0.013449 1.34128e-05 -0.00473847 -0.00922609 -0.0755554  
-0.0712783 -0.0134481 8.03913e-06 -0.00473111 -0.00922665 -0.0755661  
-0.0712672 -0.0134049 -1.2889e-05 -0.00463635 -0.00911757 -0.0756268  
-0.0712626 -0.0134187 -2.06904e-08 -0.00464599 -0.00910826 -0.0756114  
-0.0712515 -0.0134324 1.62857e-05 -0.0046548 -0.0091143 -0.0756199  
-0.0712364 -0.0134313 7.19968e-06 -0.00465632 -0.00912796 -0.0756358  
-0.0711453 -0.0134626 -5.88468e-06 -0.00467668 -0.00916319 -0.0757215  
-0.0711557  -0.013477 1.29485e-05 -0.00469898 -0.0091708 -0.0757038  
-0.0711515 -0.0134818 1.69741e-05 -0.00472187 -0.00919113 -0.0757096  
-0.0711327 -0.0134723 -1.45209e-06 -0.00473436 -0.00921004 -0.0757297  
-0.0711293 -0.0134723 -2.5913e-06 -0.00474783 -0.00922137  -0.075736  
-0.0711475 -0.0134829 1.65742e-05 -0.00473424 -0.00920265 -0.0757161  
-0.0711509 -0.0134795 1.43985e-05 -0.00471038 -0.00918118  -0.075711  
-0.0711387 -0.0134653 -4.74805e-06 -0.0046872 -0.00917126 -0.0757283  
 -0.071208 -0.0134018 -1.88662e-05 -0.0048898 -0.0093593 -0.0757464  
-0.0712103  -0.013422 2.50181e-06 -0.00487561 -0.00935897 -0.0757325  
 -0.071206 -0.0134352 2.70611e-05 -0.00485486 -0.00933737 -0.0757362  
-0.0711824 -0.0134267 1.34584e-05 -0.00483241 -0.00930689 -0.0757405  
-0.0712108 -0.0134724 4.90872e-06 -0.00476414 -0.00926662 -0.0756354  
-0.0712238 -0.0134762 1.53043e-05 -0.00477351 -0.00927041 -0.0756202  
-0.0712327 -0.0134661 3.25943e-06 -0.00478287  -0.009279 -0.0756167  
-0.0712301 -0.0134554 -1.08902e-05 -0.00478492 -0.00928295 -0.0756347  
 -0.071141 -0.0134391 -7.16283e-06 -0.00464363 -0.00913571 -0.0757513  
-0.0711503 -0.0134582 1.35198e-05 -0.00467245 -0.00914569 -0.0757384  
 -0.071146 -0.0134644 2.04109e-05 -0.00469858 -0.00917006 -0.0757456  
-0.0711242 -0.0134523 9.01375e-07 -0.00471736 -0.00919737  -0.075761  
-0.0711204 -0.0134533 -1.31267e-07 -0.00472835 -0.00920691  -0.075765  
-0.0711419 -0.0134662 1.99869e-05 -0.00470899 -0.00918013 -0.0757496  
-0.0711457 -0.0134611 1.47254e-05 -0.00468226 -0.00915503 -0.0757428  
-0.0711348 -0.0134422 -6.07722e-06 -0.00465274 -0.00914274 -0.0757555  
-0.0712434 -0.0134539 -1.07936e-05 -0.00476866 -0.00926647 -0.0756145  
-0.0712446 -0.0134641 2.28425e-06 -0.00476878  -0.009263 -0.0755974  
-0.0712349 -0.0134747 1.43571e-05 -0.00476286 -0.00925718 -0.0756013  
-0.0712229 -0.0134718 5.27435e-06 -0.00475494 -0.00925557  -0.075616  
-0.0712985 -0.0134238 -1.35662e-05 -0.00477741 -0.00929346 -0.0755819  
-0.0712966 -0.0134345 -1.58604e-06 -0.00477669 -0.00929147 -0.0755686  
-0.0712859 -0.0134478 1.51203e-05 -0.00477001 -0.00928516 -0.0755724  
-0.0712757 -0.0134458 9.22849e-06 -0.00476103 -0.00928161 -0.0755811  
-0.0712507 -0.0133895 -1.4848e-05 -0.00459834 -0.00908826 -0.0756633  
 -0.071245 -0.0134064 2.6351e-07 -0.00461235 -0.0090767 -0.0756486  
-0.0712354 -0.0134209 1.95202e-05 -0.0046256 -0.00908744 -0.0756584  
-0.0712167 -0.0134184 8.75457e-06 -0.00463288 -0.00910935  -0.075673  
-0.0712704 -0.0134186 8.52049e-06 -0.00465525 -0.00912037 -0.0756048  
-0.0712835 -0.0134184 1.54515e-05 -0.00465596 -0.00910897 -0.0755907  
-0.0712951 -0.0134038 -2.3163e-06 -0.00465058 -0.00910596 -0.0755829  
-0.0713014 -0.0133911 -1.36664e-05 -0.00464412 -0.00911719  -0.075597  
-0.0712851 -0.0134355 1.01859e-05 -0.00476699 -0.00929448 -0.0755815  
-0.0712953 -0.0134375 1.57198e-05 -0.00477623 -0.00929921 -0.0755742  
-0.0713059 -0.0134237 -2.27647e-06 -0.00478334 -0.00930599 -0.0755703  
-0.0713081 -0.0134127 -1.43868e-05 -0.00478441 -0.00930711 -0.0755829  
-0.0712814 -0.0134406 -3.84009e-07 -0.00472938 -0.00923074 -0.0755707  
-0.0712763 -0.0134292 -5.84714e-07 -0.00468987 -0.00916207 -0.0755882  
-0.0711856 -0.0134693 -6.18555e-06 -0.00470419 -0.00918193 -0.0756607  
-0.0712018 -0.0134768 -4.88736e-06 -0.00473433 -0.00922591 -0.0756363  
-0.0712754 -0.0134446 7.56512e-06 -0.00471028 -0.00919413 -0.0755735  
-0.0712381 -0.0134659 5.37909e-06 -0.00473249 -0.00922575 -0.0755977  
-0.0712254 -0.0134575 4.75541e-06 -0.00469895 -0.00917288 -0.0756205  
-0.0711932 -0.0134815 2.4902e-06 -0.00472201 -0.0092045   -0.07564  
-0.0712791 -0.0134371 -5.01679e-07 -0.00470974 -0.00919626 -0.0755773  
-0.0712405 -0.0134588 -2.6802e-06 -0.0047319 -0.00922854 -0.0756029  
 -0.071228 -0.0134499 -3.50159e-06 -0.00469644 -0.00917166  -0.075626  
-0.0711941 -0.0134746 -5.48613e-06 -0.0047195 -0.0092042 -0.0756467  
-0.0712317 -0.0134629 4.93723e-06 -0.00471558 -0.00919866 -0.0756075  
-0.0712341 -0.0134557 -3.07617e-06 -0.00471406 -0.0091995 -0.0756129  
-0.0712821 -0.0134497 1.13412e-05 -0.00473361 -0.00922684 -0.0755621  
-0.0712772 -0.0134379 1.12289e-05 -0.00469286 -0.00915857 -0.0755781  
 -0.071192 -0.0134794 9.09232e-06 -0.00470866 -0.00918091 -0.0756439  
-0.0712065  -0.013486 8.8307e-06 -0.00473805 -0.00922255 -0.0756208  
-0.0712855 -0.0134451 1.33911e-05 -0.00471605 -0.00919089 -0.0755611  
-0.0712491 -0.0134678 1.33786e-05 -0.0047389 -0.00922441 -0.0755831  
-0.0712385 -0.0134592 1.40705e-05 -0.0047007 -0.00916517 -0.0756035  
-0.0712065 -0.0134846 1.36287e-05 -0.0047247 -0.00919908 -0.0756207  
-0.0712799 -0.0134459 1.11265e-05 -0.00471335 -0.00919255 -0.0755679  
-0.0712432 -0.0134679 1.00603e-05 -0.00473584 -0.00922489 -0.0755909  
-0.0712316 -0.0134594 1.01508e-05 -0.00470011 -0.00916947 -0.0756124  
-0.0711996 -0.0134841 8.75524e-06 -0.00472361 -0.00920198 -0.0756306  
-0.0712437 -0.0134647 1.35356e-05 -0.0047197 -0.0091942 -0.0755916  
-0.0712373 -0.0134649 9.92689e-06 -0.00471785 -0.00919656    -0.0756  
-0.0712934 -0.0134429 6.2005e-06 -0.00473888 -0.00922874 -0.0755544  
-0.0712895 -0.0134305 6.39009e-06 -0.00469429 -0.00915428  -0.075568  
-0.0712047 -0.0134756 1.00372e-05 -0.00470399 -0.00917165 -0.0756307  
-0.0712183 -0.0134822 9.01799e-06 -0.00474161 -0.00922262 -0.0756094  
-0.0712972 -0.0134319 -1.2466e-06 -0.00471651 -0.00919257 -0.0755557  
-0.0712596 -0.0134568 1.55537e-06 -0.00474099 -0.00922717 -0.0755786  
-0.0712491 -0.0134478 2.15331e-06 -0.00469491 -0.00916169  -0.075597  
-0.0712156 -0.0134755 4.86423e-06 -0.00472077 -0.00919685 -0.0756153  
-0.0712917 -0.0134388 6.2508e-06 -0.00471672 -0.00919142  -0.075559  
-0.0712548 -0.0134626 7.6356e-06 -0.00474028 -0.00922591 -0.0755813  
-0.0712443 -0.0134538 8.29609e-06 -0.00469842 -0.00916264 -0.0756007  
-0.0712118 -0.0134803 9.43142e-06 -0.00472324 -0.00919764 -0.0756182  
-0.0712542 -0.0134536 1.8987e-06 -0.00471787 -0.00919387 -0.0755862  
-0.0712494 -0.0134595 7.89913e-06 -0.00471926 -0.0091937 -0.0755893  
-0.0713008 -0.0134307 -6.99154e-06 -0.00473957 -0.00923251 -0.0755575  
-0.0712979 -0.0134175 -7.09577e-06 -0.00469005 -0.0091589 -0.0755704  
 -0.071208 -0.0134649 -1.63656e-06 -0.00469296 -0.00917018 -0.0756356  
-0.0712216 -0.0134722 -2.35582e-06 -0.00474031 -0.00922545 -0.0756156  
-0.0713005 -0.0134214 -1.19911e-05 -0.00471357 -0.00919849 -0.0755695  
-0.0712595 -0.0134468 -1.05066e-05 -0.00473866 -0.00923128 -0.0755948  
-0.0712499 -0.0134366 -1.03782e-05 -0.00468745 -0.00916675 -0.0756138  
 -0.071213 -0.0134651 -8.70902e-06 -0.00471417    -0.0092 -0.0756344  
-0.0712996 -0.0134263 -6.92374e-06 -0.00471498 -0.00919558 -0.0755618  
-0.0712603 -0.0134515 -4.63275e-06 -0.00474002 -0.00922925  -0.075586  
-0.0712501  -0.013442 -4.28618e-06 -0.00469071 -0.00916423 -0.0756044  
 -0.071215 -0.0134701 -1.91258e-06 -0.00471727 -0.00919838  -0.075624  
-0.0712545 -0.0134432 -1.02982e-05 -0.00471304 -0.00919845 -0.0756027  
-0.0712551 -0.0134481 -4.36311e-06 -0.00471532 -0.00919617 -0.0755936  
-0.0712957 -0.0134282 -1.01661e-05 -0.00473531 -0.00923487 -0.0755698  
-0.0712934  -0.013415 -9.93854e-06 -0.00468855 -0.00916306  -0.075585  
 -0.071199 -0.0134592 -1.13074e-05 -0.00469174 -0.00917447 -0.0756568  
-0.0712133 -0.0134677 -1.06055e-05 -0.0047365 -0.00922784 -0.0756343  
-0.0712947 -0.0134239 -9.9519e-06 -0.00471209 -0.00919884 -0.0755753  
-0.0712534  -0.013448 -1.03829e-05 -0.00473599 -0.00923161 -0.0756016  
-0.0712433 -0.0134378 -1.06592e-05 -0.00468939 -0.00916836 -0.0756225  
-0.0712064 -0.0134651 -1.0788e-05 -0.00471471 -0.00920167 -0.0756438  
-0.0712482 -0.0134444 -1.03867e-05 -0.00471268 -0.00919943 -0.0756104  
 -0.071342 -0.0134235 1.14136e-05 -0.0047313 -0.00923436 -0.0755151  
-0.0713314 -0.0134111 1.00604e-05 -0.00468402 -0.00914825 -0.0755363  
 -0.071346 -0.0134157 2.62642e-06 -0.00473077 -0.00923823 -0.0755173  
-0.0713364 -0.0134038 2.3474e-06 -0.00468476 -0.00915073 -0.0755389  
-0.0713353 -0.0134162 1.06097e-05 -0.00470927 -0.00919223 -0.0755238  
-0.0713398 -0.0134087 2.4391e-06 -0.00470937 -0.00919548 -0.0755262  
 -0.071349 -0.0134235 1.36336e-05 -0.00473974 -0.0092353 -0.0755106  
-0.0713399 -0.0134099 1.34993e-05 -0.00468951 -0.00914343 -0.0755274  
-0.0713448 -0.0134246 1.32928e-05 -0.00473589 -0.00923461 -0.0755135  
-0.0713351 -0.0134114 1.25125e-05 -0.00468689 -0.00914613 -0.0755323  
-0.0713431 -0.0134156 1.34016e-05 -0.00471631 -0.00919038 -0.0755171  
-0.0713386 -0.0134168 1.27419e-05 -0.00471304 -0.00919132  -0.075521  
-0.0713602 -0.0134089 -4.74563e-06 -0.00474325 -0.00923918 -0.0755073  
-0.0713518 -0.0133951 -4.69193e-06 -0.00469038 -0.00914543 -0.0755224  
-0.0713547 -0.0134163 4.56915e-06 -0.0047417 -0.00923758 -0.0755096  
 -0.071346 -0.0134027 4.63468e-06 -0.00469045 -0.00914371 -0.0755254  
-0.0713547  -0.013401 -4.61517e-06 -0.00471857 -0.00919336  -0.075513  
-0.0713491 -0.0134085 4.56764e-06 -0.00471779 -0.00919171 -0.0755156  
-0.0713647 -0.0133991 -1.43973e-05 -0.00474302 -0.00924308 -0.0755157  
-0.0713584 -0.0133847 -1.38692e-05 -0.00468911 -0.00915522 -0.0755325  
-0.0713631 -0.0134034 -1.01967e-05 -0.00474337 -0.00924111 -0.0755109  
-0.0713556 -0.0133893 -1.00438e-05 -0.00468945 -0.00915048 -0.0755267  
-0.0713601  -0.013391 -1.39704e-05 -0.00471785 -0.00920007 -0.0755223  
 -0.071358 -0.0133954 -9.96542e-06 -0.00471819 -0.00919677  -0.075517  
-0.0713599 -0.0134021 -1.02916e-05 -0.00473894 -0.00924336 -0.0755183  
-0.0713533 -0.0133885 -9.45088e-06 -0.00468844 -0.00915508  -0.075537  
-0.0713551 -0.0133944 -9.78324e-06 -0.00471542 -0.0092002 -0.0755258  
-0.0712961 -0.0134281 -1.0154e-05 -0.0047367 -0.0092342 -0.0755691  
-0.0712865 -0.0134169 -9.98521e-06 -0.00469547 -0.00916835 -0.0755901  
 -0.071207 -0.0134616 -1.07892e-05 -0.00470662 -0.0091885  -0.075645  
-0.0712243 -0.0134614 -1.06008e-05 -0.00473888 -0.00922896 -0.0756268  
-0.0712965 -0.0134223 -1.18519e-05 -0.00471893 -0.00920016  -0.075572  
 -0.071268  -0.013442 -1.08859e-05 -0.00474169  -0.009232 -0.0755892  
-0.0712518  -0.013439 -1.0222e-05 -0.00469868 -0.00917788 -0.0756085  
-0.0712216 -0.0134622 -9.01164e-06 -0.00472276 -0.00920804 -0.0756267  
-0.0712906 -0.0134246 -9.9858e-06 -0.0047175 -0.00920056 -0.0755779  
 -0.071262 -0.0134433 -1.03774e-05 -0.00473892 -0.00923229 -0.0755957  
-0.0712453 -0.0134403 -1.04167e-05 -0.00469965 -0.00917919 -0.0756167  
-0.0712151 -0.0134625 -1.06413e-05 -0.0047224 -0.00920927 -0.0756355  
-0.0712599 -0.0134409 -1.04546e-05 -0.00471919 -0.0092041 -0.0755982  
-0.0712536 -0.0134422 -1.03242e-05 -0.00471833 -0.00920491 -0.0756056  
-0.0713012 -0.0134306 -7.07764e-06 -0.00474091 -0.00923181 -0.0755568  
-0.0712914 -0.0134196 -6.52461e-06 -0.00469714 -0.00916435 -0.0755751  
-0.0712155 -0.0134666 -1.93568e-06 -0.00470854 -0.00918477 -0.0756248  
-0.0712322 -0.0134657 -3.06731e-06 -0.00474273 -0.0092266 -0.0756089  
-0.0712934 -0.0134328 -9.92606e-07  -0.004722 -0.00919448 -0.0755579  
-0.0712675  -0.013452 9.55718e-07 -0.00474383 -0.00922783 -0.0755737  
-0.0712512 -0.0134498 2.08693e-06 -0.0047049 -0.0091728 -0.0755916  
-0.0712237 -0.0134724 4.21689e-06 -0.00472815 -0.00920457  -0.075608  
-0.0712956 -0.0134272 -6.70142e-06 -0.0047204 -0.00919736 -0.0755642  
-0.0712684 -0.0134467 -5.15415e-06 -0.00474296 -0.00922994 -0.0755807  
-0.0712521 -0.0134441 -4.23979e-06 -0.00470144 -0.00917535 -0.0755991  
-0.0712234 -0.0134671 -2.42239e-06 -0.00472536 -0.00920629 -0.0756164  
-0.0712593 -0.0134512 1.57078e-06 -0.00472342 -0.0091995  -0.075582  
-0.0712603 -0.0134457 -4.61903e-06 -0.00472122 -0.00920181 -0.0755893  
-0.0712937 -0.0134428 6.15032e-06 -0.00474023 -0.00922802 -0.0755538  
-0.0712835 -0.0134323 6.65886e-06 -0.00470157 -0.0091602 -0.0755723  
 -0.071212 -0.0134771 9.46211e-06 -0.0047163 -0.00918456 -0.0756194  
-0.0712281 -0.0134762 8.65155e-06 -0.00474371 -0.00922361 -0.0756032  
-0.0712818 -0.0134458 1.33899e-05 -0.00472169 -0.0091929 -0.0755633  
-0.0712568 -0.0134635 1.34428e-05 -0.00474157 -0.00922491 -0.0755782  
-0.0712405  -0.013461 1.36925e-05  -0.004709 -0.00917491 -0.0755976  
-0.0712143 -0.0134819 1.34988e-05 -0.00473033 -0.00920531 -0.0756131  
-0.0712879 -0.0134395 6.37452e-06 -0.00472228 -0.0091934 -0.0755613  
-0.0712626  -0.013458 7.36181e-06 -0.00474303 -0.0092265 -0.0755764  
-0.0712463 -0.0134557 8.08194e-06 -0.00470752 -0.00917323  -0.075595  
-0.0712196 -0.0134775 9.04393e-06 -0.0047297 -0.00920473 -0.0756108  
-0.0712487 -0.0134625 1.34612e-05 -0.00472439 -0.00919915 -0.0755872  
-0.0712545 -0.0134571 7.69549e-06 -0.00472436 -0.00919907  -0.075585  
-0.0712824 -0.0134497 1.13857e-05 -0.00473499 -0.00922615 -0.0755614  
-0.0712711 -0.0134394 1.09265e-05 -0.00470031 -0.00916432 -0.0755827  
-0.0711997  -0.013481 8.78383e-06 -0.00471817 -0.00919064 -0.0756321  
-0.0712162 -0.0134805 9.28008e-06 -0.00473989 -0.00922324 -0.0756142  
-0.0712715 -0.0134451 7.36659e-06  -0.004716 -0.0091961 -0.0755759  
 -0.071246 -0.0134617 5.93761e-06 -0.00473498 -0.00922609 -0.0755919  
 -0.071228 -0.0134594 4.68918e-06 -0.00470613 -0.00918122 -0.0756145  
-0.0712014 -0.0134791 3.00315e-06 -0.00472657 -0.00920956 -0.0756316  
-0.0712761 -0.0134465 1.10243e-05 -0.00471904 -0.00919453 -0.0755703  
 -0.071251 -0.0134637 1.03813e-05 -0.00473843 -0.00922531 -0.0755856  
-0.0712339 -0.0134612 9.89088e-06 -0.00470782 -0.00917838 -0.0756065  
-0.0712076 -0.0134816 8.93583e-06 -0.00472866 -0.00920752 -0.0756227  
 -0.071237 -0.0134608 5.22068e-06 -0.00471968 -0.00920295 -0.0756027  
-0.0712424 -0.0134627 1.00266e-05 -0.00472224 -0.00920111 -0.0755954  
-0.0712818 -0.0134406 -3.04361e-07 -0.00473078 -0.00923006 -0.0755699  
-0.0712699 -0.0134305 -1.07555e-06 -0.00469709 -0.00916767 -0.0755932  
-0.0711942 -0.0134715 -5.5211e-06 -0.00471393 -0.00919247 -0.0756482  
 -0.071212 -0.0134712 -4.26351e-06 -0.00473618 -0.0092267 -0.0756287  
-0.0712752 -0.0134376 -7.11634e-07 -0.00471537 -0.00919817 -0.0755799  
-0.0712486 -0.0134545 -2.2116e-06 -0.00473446 -0.00922901 -0.0755969  
-0.0712305 -0.0134521 -3.31633e-06 -0.00470411 -0.00918093 -0.0756199  
-0.0712027 -0.0134722 -4.91612e-06 -0.00472466 -0.00921014 -0.0756381  
-0.0712396 -0.0134536 -2.77888e-06 -0.00471841 -0.00920422 -0.0756079  
-0.0712719 -0.0134184 -1.3777e-05 -0.00480975 -0.00933258 -0.0756315  
 -0.071193 -0.0134686 -1.25221e-05 -0.00478157 -0.00927714 -0.0756663  
-0.0711769  -0.013448 -1.63931e-05 -0.00481676 -0.00930435  -0.075718  
-0.0712359 -0.0134086 -1.74661e-05 -0.00484771 -0.00935214 -0.0756968  
 -0.071238 -0.0134434 -1.25058e-05 -0.00480359 -0.00930625 -0.0756427  
-0.0712624 -0.0134138 -1.62524e-05 -0.00483897 -0.00934534 -0.0756557  
-0.0711926 -0.0134614 -1.09008e-05 -0.00480855 -0.00929515 -0.0756817  
-0.0712122 -0.0134303 -1.46576e-05 -0.00484543 -0.00933272 -0.0756998  
-0.0712316 -0.0134431 -1.31683e-05 -0.00479589 -0.00930432   -0.07565  
-0.0712558 -0.0134136 -1.54344e-05 -0.00482886 -0.00934272 -0.0756623  
-0.0711856 -0.0134593 -1.42904e-05 -0.00479912 -0.00929116  -0.075691  
-0.0712047  -0.013428 -1.7018e-05 -0.00483321 -0.00932766 -0.0757088  
-0.0712258 -0.0134379 -1.34361e-05 -0.00482378 -0.00931879 -0.0756692  
-0.0712189 -0.0134368 -1.48466e-05 -0.00481405 -0.00931545 -0.0756772  
 -0.071278 -0.0134239 -8.47378e-06 -0.00481751 -0.00933399 -0.0756177  
-0.0712028  -0.013475 -2.13301e-06 -0.00478778 -0.00927709 -0.0756468  
-0.0711885 -0.0134587 -2.47257e-06 -0.00482501 -0.00930736 -0.0756973  
-0.0712438 -0.0134179 -8.58591e-06 -0.00485737 -0.00935662 -0.0756801  
-0.0712399 -0.0134551 2.28851e-06 -0.00480008 -0.00930361 -0.0756257  
 -0.071262 -0.0134278 -5.0001e-07 -0.00483323 -0.00934561 -0.0756411  
-0.0711984 -0.0134736 6.02139e-06 -0.00480189 -0.00928947 -0.0756621  
-0.0712158 -0.0134454 3.63679e-06 -0.00483599 -0.00932984 -0.0756829  
-0.0712396 -0.0134491 -5.20906e-06 -0.00480284 -0.00930504 -0.0756333  
-0.0712627 -0.0134207 -8.57938e-06 -0.00483748 -0.00934551 -0.0756472  
-0.0711962 -0.0134676 -2.27318e-06 -0.00480633 -0.00929256 -0.0756709  
-0.0712145 -0.0134381 -5.45058e-06 -0.00484214 -0.00933147   -0.07569  
-0.0712286 -0.0134511 2.93043e-06 -0.00481754 -0.00931595 -0.0756521  
-0.0712278 -0.0134445 -5.28573e-06 -0.00482187 -0.00931751 -0.0756595  
-0.0712726 -0.0134374 8.53677e-06 -0.0048089 -0.00933052 -0.0756147  
-0.0712016 -0.0134849 1.06646e-05 -0.00477954 -0.00926989 -0.0756395  
-0.0711894   -0.01347 1.32548e-05 -0.00480846 -0.00929606 -0.0756912  
-0.0712405 -0.0134328 1.13597e-05 -0.00484304 -0.00935137 -0.0756776  
-0.0712314 -0.0134661 1.69078e-05 -0.00478879 -0.00929312 -0.0756291  
-0.0712535 -0.0134415 2.02145e-05 -0.00481974 -0.00933272  -0.075645  
-0.0711921  -0.013482 1.77221e-05 -0.00478622 -0.00927515 -0.0756645  
-0.0712096 -0.0134565 2.1465e-05 -0.00481774 -0.00931233 -0.0756859  
-0.0712363 -0.0134609 9.66759e-06 -0.00479441 -0.00929957 -0.0756282  
-0.0712583 -0.0134349 9.81567e-06 -0.00482624 -0.00934125 -0.0756444  
-0.0711961 -0.0134782 1.18837e-05 -0.00479406 -0.0092834 -0.0756641  
-0.0712134 -0.0134513 1.24074e-05 -0.00482664 -0.00932302 -0.0756857  
-0.0712211 -0.0134621 1.89237e-05 -0.00480296 -0.00930221 -0.0756553  
-0.0712255 -0.0134569 1.09096e-05 -0.00481013 -0.00931061 -0.0756547  
-0.0712604 -0.0134437 1.53341e-05 -0.00479809 -0.00931816 -0.0756203  
  -0.07119 -0.0134874 1.03182e-05 -0.00476809 -0.00926069 -0.0756493  
-0.0711771 -0.0134717 1.40412e-05 -0.00478958 -0.00927656 -0.0756983  
-0.0712273 -0.0134383 1.87028e-05 -0.00482737 -0.00933015 -0.0756823  
-0.0712173  -0.013462 6.59851e-06 -0.00477798 -0.00928604  -0.075642  
-0.0712376 -0.0134372 1.08172e-05 -0.0048067 -0.00931931  -0.075653  
-0.0711757  -0.013476 4.00481e-06 -0.00477252 -0.00926548 -0.0756807  
-0.0711907   -0.01345   8.22e-06 -0.00480109 -0.00929515 -0.0756969  
-0.0712242 -0.0134654 1.27879e-05 -0.00478328 -0.00928867 -0.0756359  
-0.0712456 -0.0134409 1.68715e-05 -0.00481326 -0.00932487 -0.0756496  
-0.0711842 -0.0134803 1.19987e-05 -0.00477907 -0.00926933 -0.0756726  
-0.0712007 -0.0134548 1.64011e-05 -0.00480932 -0.00930245 -0.0756916  
-0.0712049  -0.013457 7.22522e-06 -0.00478963 -0.00929069 -0.0756675  
-0.0712132 -0.0134609 1.43352e-05 -0.00479617 -0.00929536 -0.0756617  
-0.0712564  -0.013431 -1.62013e-06 -0.00479332 -0.00932205 -0.0756297  
-0.0711825 -0.0134767 -6.32769e-06 -0.00476574 -0.00926597 -0.0756663  
-0.0711651 -0.0134569 -8.43029e-06 -0.00478641 -0.00928174 -0.0757163  
-0.0712181 -0.0134223 -4.01059e-06 -0.00482132 -0.00933303 -0.0756939  
-0.0712184 -0.0134536 -4.07814e-06 -0.00477974 -0.00929329 -0.0756492  
-0.0712393 -0.0134268 -2.67342e-06 -0.00480801 -0.00932835 -0.0756601  
-0.0711745 -0.0134677 -7.3189e-06 -0.0047764 -0.00927458 -0.0756902  
-0.0711899 -0.0134393 -6.33988e-06 -0.00480471 -0.00930649 -0.0757065  
-0.0712051 -0.0134476 -5.11251e-06 -0.0047923 -0.00929981 -0.0756758  
-0.0712881 -0.0134123 5.87393e-07 -0.0048087 -0.00934349 -0.0756104  
-0.0712181 -0.0134332 -4.12171e-06 -0.00481115 -0.00932244 -0.0756797  
-0.0712499 -0.0134093 1.60644e-05 -0.00484659 -0.0093541 -0.0756809  
-0.0713221  -0.013398 1.69881e-05 -0.00482423 -0.00937322 -0.0755967  
-0.0712485 -0.0134336 1.12121e-05 -0.00480895 -0.00932423  -0.075642  
-0.0712518 -0.0133964 -8.98767e-07 -0.00484548 -0.00936382  -0.075688  
-0.0713263 -0.0133869 3.39907e-06 -0.0048215 -0.00937906 -0.0756001  
-0.0712505 -0.0134233 -1.95027e-06 -0.00480991 -0.00933278 -0.0756485  
-0.0712832  -0.013404 1.64166e-05 -0.00483585 -0.00936336 -0.0756437  
-0.0712863  -0.013392 1.16957e-06 -0.0048341 -0.0093712  -0.075649  
-0.0712905 -0.0134251 1.70299e-05 -0.00481479 -0.00934078 -0.0756045  
-0.0712261 -0.0134478 1.66566e-05 -0.00481574 -0.00931835 -0.0756673  
-0.0712684 -0.0134138 2.46042e-05 -0.00486186 -0.00937706 -0.0756789  
-0.0713333 -0.0134001 2.03713e-05 -0.0048348 -0.00938634 -0.0755982  
-0.0712634 -0.0134374 1.97949e-05 -0.00482128 -0.00933651 -0.0756348  
-0.0712597 -0.0134133 2.22437e-05 -0.00485475 -0.00936401 -0.0756805  
-0.0713274 -0.0134006 2.01281e-05 -0.00483008 -0.00937849 -0.0755983  
-0.0712559  -0.013437 1.68019e-05 -0.00481516 -0.00932926  -0.075639  
-0.0712982 -0.0134074 2.25585e-05 -0.0048486 -0.00938124 -0.0756432  
-0.0712908 -0.0134074 2.11607e-05 -0.00484273 -0.00937085 -0.0756442  
-0.0713021 -0.0134175 7.44947e-06 -0.00482409 -0.00935318 -0.0756008  
-0.0712391 -0.0134426 1.08423e-05 -0.00483044 -0.0093364 -0.0756615  
-0.0712751 -0.0133975 -3.55281e-06 -0.0048752 -0.00939147 -0.0756742  
-0.0713422 -0.0133827 -7.23528e-06 -0.00484183 -0.00939412 -0.0755943  
-0.0712722 -0.0134235 -1.2132e-06 -0.00483382 -0.00934852 -0.0756309  
-0.0712722 -0.0134059 1.03398e-05  -0.004868 -0.00938705 -0.0756781  
-0.0713381 -0.0133915 6.56665e-06 -0.00483795 -0.00939241 -0.0755973  
-0.0712683 -0.0134307 9.27197e-06 -0.00482731 -0.0093446 -0.0756341  
-0.0713059 -0.0133906 -5.35036e-06 -0.0048589 -0.00939237 -0.0756389  
-0.0713025 -0.0133992 8.51714e-06 -0.00485331 -0.0093893 -0.0756424  
-0.0713086 -0.0134032 -1.10396e-05 -0.00483129 -0.00935429 -0.0756024  
-0.0712424 -0.0134287 -7.38162e-06 -0.00484357 -0.00934235  -0.075665  
-0.0712781 -0.0133806 -2.10305e-05 -0.00488149 -0.00938387 -0.0756863  
-0.0713476 -0.0133697 -2.04972e-05 -0.00484277 -0.00938612 -0.0756025  
-0.0712731 -0.0134099 -1.64178e-05 -0.00483873 -0.00934793 -0.0756449  
-0.0712767  -0.013389 -1.29377e-05 -0.0048799 -0.00938759 -0.0756786  
-0.0713451 -0.0133758 -1.48718e-05 -0.00484351 -0.00938987 -0.0755972  
-0.0712731 -0.0134166 -9.07302e-06 -0.00483763 -0.00934824 -0.0756368  
-0.0713101 -0.0133755 -2.07655e-05 -0.00486267 -0.0093846 -0.0756491  
-0.0713081 -0.0133829 -1.38732e-05 -0.00486217 -0.00938832 -0.0756426  
-0.0713042 -0.0133984 -1.40271e-05 -0.00482312 -0.00935226 -0.0756133  
-0.0712342 -0.0134206 -1.59956e-05 -0.0048349 -0.00933933 -0.0756818  
-0.0712718 -0.0133801 -1.8747e-05 -0.00486848 -0.00938069 -0.0756927  
-0.0713432 -0.0133714 -1.5222e-05 -0.00483386 -0.00938596 -0.0756053  
-0.0712668   -0.01341 -1.50506e-05 -0.00482916 -0.00934575 -0.0756509  
-0.0713047  -0.013376 -1.69742e-05 -0.00485181 -0.00938299 -0.0756538  
-0.0711524 -0.0134344 -9.87279e-06 -0.00466969 -0.00914839 -0.0757332  
-0.0712166 -0.0134236 -4.04914e-06 -0.00465251 -0.0091244 -0.0756659  
-0.0711838   -0.01344 5.55736e-06 -0.0046648 -0.00914314 -0.0756923  
-0.0711671 -0.0134173 9.74486e-06 -0.00462649 -0.00912334 -0.0757352  
-0.0712443 -0.0134001 1.04633e-05 -0.00461368 -0.00908999 -0.0756563  
-0.0711849 -0.0134289 -6.86576e-06 -0.0046592 -0.00913481 -0.0757001  
-0.0711676  -0.013402 -7.51175e-06 -0.00462268 -0.00911251 -0.0757444  
-0.0712492 -0.0133891 -1.08934e-06 -0.00461384 -0.00908531 -0.0756622  
-0.0712059 -0.0134086 1.01249e-05 -0.00462121 -0.00910562 -0.0756982  
-0.0712088 -0.0133954 -4.24196e-06 -0.00461931 -0.00909772 -0.0757057  
-0.0711647 -0.0134517 1.37612e-05 -0.00467148 -0.00914816 -0.0757157  
-0.0712222 -0.0134359 1.32363e-05 -0.00465379 -0.00912246 -0.0756518  
-0.0712032 -0.0134447 1.89636e-05 -0.00465606 -0.00912228 -0.0756757  
-0.0711902 -0.0134249 2.37191e-05 -0.00460993 -0.00908899 -0.0757243  
-0.0712618 -0.0134014 1.95404e-05 -0.00460738 -0.00906773 -0.0756431  
-0.0711938 -0.0134437 1.35652e-05 -0.00466065 -0.00913382 -0.0756844  
-0.0711798 -0.0134229 1.87218e-05 -0.00461766 -0.00910743 -0.0757301  
-0.0712532  -0.013402 1.63424e-05 -0.00461017 -0.00908028 -0.0756503  
-0.0712263 -0.0134131 2.17422e-05 -0.00460968 -0.00907749 -0.0756862  
-0.0712167 -0.0134124 1.75998e-05  -0.004615 -0.00909295 -0.0756927  
-0.0711789 -0.0134491 1.37417e-05 -0.00465498 -0.00912338 -0.0757042  
-0.0712365 -0.0134294 9.65207e-06 -0.00464596 -0.00910609 -0.0756394  
-0.0712118  -0.013433 4.46084e-06 -0.00463915 -0.00910826 -0.0756666  
-0.0711963 -0.0134117 4.20162e-06 -0.00459052 -0.00907061  -0.075714  
-0.0712715 -0.0133857 -2.39708e-06 -0.00459726 -0.00905928 -0.0756336  
-0.0712081 -0.0134392 1.16792e-05 -0.00464844 -0.00911326 -0.0756724  
-0.0711938 -0.0134187 1.36666e-05 -0.0046012 -0.00907729  -0.075721  
-0.0712671 -0.0133938 8.74763e-06 -0.00460328 -0.00906097 -0.0756394  
-0.0712341 -0.0133987 8.05254e-07 -0.00459478 -0.00906408 -0.0756764  
-0.0712307 -0.0134063 1.12284e-05 -0.00460321 -0.00906822 -0.0756827  
 -0.071181 -0.0134352 -1.20593e-06 -0.00463144 -0.00911575  -0.075704  
-0.0712432  -0.013415 -5.90867e-06 -0.0046314 -0.00910727 -0.0756405  
-0.0712124 -0.0134165 -1.19414e-05 -0.0046216 -0.00911238 -0.0756824  
-0.0711993 -0.0133897 -1.55212e-05 -0.00456851 -0.00907979 -0.0757258  
-0.0712798 -0.0133692 -1.64875e-05 -0.00458699 -0.00907617 -0.0756474  
-0.0712126  -0.013425 -3.71349e-06 -0.00462936 -0.00911027 -0.0756728  
-0.0711977 -0.0134014 -5.79534e-06 -0.00457861 -0.00907505 -0.0757176  
-0.0712755 -0.0133772 -1.02948e-05 -0.00459101 -0.00906786 -0.0756387  
-0.0712399 -0.0133794 -1.61631e-05 -0.00457855 -0.00907736 -0.0756892  
-0.0712369 -0.0133893 -8.19196e-06 -0.00458564 -0.00907072 -0.0756807  
-0.0711704 -0.0134218 -1.64242e-05 -0.00463255 -0.00912292 -0.0757282  
-0.0712373 -0.0134082 -1.29305e-05 -0.00463318 -0.00911393  -0.075661  
-0.0712045 -0.0134149 -1.46651e-05 -0.00463097 -0.00911716 -0.0756952  
-0.0711916 -0.0133853 -1.90814e-05 -0.00458324 -0.0090864 -0.0757406  
-0.0712739 -0.0133707 -1.37059e-05 -0.00459619 -0.0090779 -0.0756581  
-0.0712332 -0.0133778 -1.63942e-05 -0.00459058 -0.00908132 -0.0757018  
-0.0713666 -0.0133977 -1.44793e-05 -0.00474179 -0.00924401 -0.0755141  
-0.0713491 -0.0133867 -1.36822e-05 -0.00469405 -0.0091586 -0.0755342  
-0.0713618 -0.0134007 -1.02893e-05 -0.0047377 -0.00924431 -0.0755166  
 -0.071344 -0.0133905 -9.47296e-06 -0.00469333 -0.00915851 -0.0755388  
-0.0713566 -0.0133919 -1.39404e-05 -0.00471577 -0.00920121 -0.0755228  
-0.0713516 -0.0133953 -9.79403e-06 -0.00471334 -0.00920136 -0.0755263  
-0.0713619 -0.0134074 -4.88275e-06 -0.00474197 -0.0092401 -0.0755058  
-0.0713428 -0.0133971 -4.39401e-06 -0.00469543 -0.00914916 -0.0755238  
-0.0713649  -0.013402 -1.03221e-05 -0.00474212 -0.00924204 -0.0755094  
-0.0713465 -0.0133914 -9.75733e-06 -0.00469446 -0.00915403 -0.0755283  
-0.0713512 -0.0134018 -4.55895e-06 -0.0047165 -0.00919457 -0.0755134  
-0.0713545 -0.0133963 -9.91461e-06 -0.00471612 -0.00919795 -0.0755175  
-0.0713507 -0.0134221 1.36345e-05 -0.00473844 -0.00923621 -0.0755091  
-0.0713309 -0.0134118 1.34547e-05 -0.00469462 -0.0091472 -0.0755288  
-0.0713565 -0.0134149 4.49981e-06 -0.00474041 -0.0092385 -0.0755081  
 -0.071337 -0.0134047 4.75578e-06 -0.00469552 -0.0091475 -0.0755269  
-0.0713396 -0.0134164 1.34029e-05 -0.00471425 -0.00919162 -0.0755175  
-0.0713456 -0.0134093 4.59479e-06 -0.00471573 -0.00919294 -0.0755161  
-0.0713438 -0.0134222 1.1545e-05 -0.00472993 -0.00923524 -0.0755133  
-0.0713222 -0.0134128 9.83426e-06 -0.00468906 -0.00915185  -0.075538  
-0.0713466 -0.0134232 1.33654e-05 -0.00473457 -0.00923551 -0.0755118  
-0.0713259 -0.0134132 1.23658e-05 -0.00469198 -0.00914979 -0.0755339  
-0.0713318  -0.013417 1.05707e-05 -0.00470718 -0.00919348 -0.0755243  
-0.0713351 -0.0134177 1.27233e-05 -0.00471097 -0.00919256 -0.0755215  
-0.0713479 -0.0134144 2.74624e-06 -0.00472942 -0.00923915 -0.0755154  
-0.0713271 -0.0134055 2.10867e-06 -0.00468969 -0.00915431 -0.0755407  
-0.0713363 -0.0134095 2.39053e-06 -0.00470728 -0.00919672 -0.0755267  
-0.0711562 -0.0134196 -2.18024e-05 -0.0048466 -0.00931398 -0.0757766  
 -0.071114 -0.0134381 -2.03519e-05 -0.00478577 -0.0092532 -0.0757923  
-0.0711042 -0.0134314 -4.93818e-06 -0.00479954 -0.00926314 -0.0758193  
-0.0711505 -0.0134074 -1.62423e-05 -0.00489132 -0.00933128 -0.0758047  
-0.0711408 -0.0134384 -1.08196e-05 -0.00483412 -0.00929558 -0.0757732  
-0.0710943 -0.0134141 -2.38417e-05 -0.0047826 -0.00924807 -0.0758326  
-0.0711404  -0.013396 -2.67803e-05 -0.00487064 -0.00931937  -0.075817  
-0.0711319 -0.0134293 -2.12737e-05 -0.00481718 -0.00928356 -0.0757856  
-0.0711237  -0.013421 -1.06051e-05 -0.00484387 -0.00929699 -0.0758111  
-0.0711134 -0.0134067 -2.5578e-05 -0.00482494 -0.00928332 -0.0758241  
-0.0711704 -0.0134373 -2.4668e-06 -0.00485613 -0.00931998 -0.0757555  
-0.0711318 -0.0134596 5.60814e-06 -0.00479229 -0.00925717 -0.0757706  
-0.0711213 -0.0134545 1.83314e-05 -0.00477131 -0.00923495 -0.0758129  
-0.0711579 -0.0134329 8.6763e-06 -0.00486825 -0.00932234 -0.0757957  
-0.0711533 -0.0134572 1.20301e-05 -0.00481422 -0.0092808 -0.0757579  
-0.0711141 -0.0134452 8.48058e-06 -0.00478533 -0.00924899 -0.0758149  
-0.0711547 -0.0134218 -3.07692e-06 -0.00488063 -0.0093268 -0.0757981  
 -0.071148 -0.0134491 1.64124e-06 -0.00482531 -0.00928858  -0.075764  
-0.0711361 -0.0134452 1.37145e-05 -0.00481818 -0.00927807 -0.0758028  
-0.0711308  -0.013435 2.82991e-06 -0.00483141 -0.00928749 -0.0758053  
-0.0711731 -0.0134511 1.6305e-05 -0.00483286 -0.00930493 -0.0757527  
-0.0711399 -0.0134682 1.78917e-05 -0.00476665 -0.00923318 -0.0757652  
-0.0711225 -0.0134557 2.36281e-05 -0.00474329 -0.00920597 -0.0758098  
-0.0711572 -0.0134427 2.95524e-05 -0.00484319 -0.00929568 -0.0757976  
-0.0711524 -0.0134626 2.37626e-05 -0.0047873 -0.00925408 -0.0757575  
-0.0711222 -0.0134554 1.9807e-05 -0.00475742 -0.00922082 -0.0758144  
-0.0711579 -0.0134381 1.80867e-05 -0.00485531 -0.00931107 -0.0757995  
-0.0711535 -0.0134603 1.7258e-05 -0.00480072 -0.00926881 -0.0757599  
-0.0711365 -0.0134506 2.68027e-05 -0.00479151 -0.00924992 -0.0758022  
-0.0711366 -0.0134482 1.91397e-05 -0.0048047 -0.00926521 -0.0758055  
-0.0711608 -0.0134514 1.92189e-05 -0.00480736 -0.00927448 -0.0757549  
-0.0711314 -0.0134623 1.32324e-05 -0.00473669 -0.00920613 -0.0757655  
-0.0711044 -0.0134333 2.92127e-06 -0.00470552 -0.00917486 -0.0758098  
-0.0711322 -0.0134273 1.35615e-05 -0.00481006 -0.00925335 -0.0757955  
-0.0711306 -0.0134487 4.87476e-06 -0.00475815 -0.00922691 -0.0757662  
-0.0711151 -0.0134469 1.55067e-05 -0.00472539 -0.00919045 -0.0758088  
-0.0711469 -0.0134375 2.43748e-05 -0.00482792 -0.00927412 -0.0757966  
 -0.071143 -0.0134575 1.63699e-05 -0.00477283 -0.00923964 -0.0757612  
-0.0711146 -0.0134317 8.32992e-06 -0.0047559 -0.00921255 -0.0758014  
-0.0711275 -0.0134436 2.01224e-05 -0.00477485 -0.0092311 -0.0758013  
-0.0711426 -0.0134297 -1.12548e-05 -0.00480005 -0.00927671 -0.0757725  
-0.0711119 -0.0134399 -1.63804e-05 -0.00473166 -0.00921006 -0.0757877  
-0.0710939 -0.0134151 -1.99527e-05 -0.00471646 -0.00919082 -0.0758268  
-0.0711249 -0.0134079 -1.26043e-05 -0.00481394 -0.00926947 -0.0758099  
-0.0711238 -0.0134353 -1.39954e-05 -0.00476653 -0.00924268 -0.0757812  
-0.0711054 -0.0134131 -1.6514e-05 -0.0047633 -0.00922884 -0.0758174  
-0.0711393 -0.0135007 -1.10408e-05 -0.00475276 -0.00923688  -0.075691  
-0.0711494 -0.0134868 -1.26875e-05 -0.0047713 -0.00925632 -0.0756991  
-0.0711627 -0.0134934 -1.08275e-05 -0.00474402 -0.00923079 -0.0756694  
-0.0711499 -0.0134974 -5.9271e-06 -0.00476811 -0.00924918 -0.0756851  
-0.0711565 -0.0135002 -5.79253e-06 -0.00475291 -0.00923596 -0.0756706  
 -0.071178  -0.013479 -8.6705e-06 -0.00478491 -0.00927104  -0.075673  
 -0.071184 -0.0134837 -8.03268e-06 -0.00476583 -0.00925273 -0.0756575  
-0.0711446 -0.0134939 -1.18144e-05 -0.00476165 -0.00924613  -0.075695  
-0.0711512 -0.0134976 -1.09409e-05 -0.00474943 -0.00923538 -0.0756804  
-0.0711716 -0.0134769 -1.26669e-05 -0.00477748 -0.00926799 -0.0756823  
-0.0711778 -0.0134823 -1.15052e-05 -0.00476137 -0.0092518 -0.0756668  
-0.0711678 -0.0134902 -7.08148e-06 -0.00476715 -0.00925209 -0.0756713  
-0.0711619 -0.0134878 -1.16955e-05 -0.00476175 -0.00925025 -0.0756809  
-0.0711502 -0.0135087 3.52913e-06  -0.004758 -0.00923615 -0.0756688  
 -0.071161 -0.0134953 1.66275e-06 -0.00477767 -0.00925691  -0.075677  
-0.0711729 -0.0134995 1.0397e-06 -0.00474783 -0.00922845 -0.0756477  
-0.0711608 -0.0135062 1.0481e-05 -0.0047653 -0.00924239 -0.0756619  
 -0.071166 -0.0135085 9.63234e-06 -0.0047542 -0.00923119 -0.0756475  
-0.0711853 -0.0134893 7.47498e-06 -0.00478089 -0.00926485 -0.0756518  
-0.0711902 -0.0134933 6.97003e-06 -0.00476588 -0.0092484 -0.0756364  
-0.0711559 -0.0135022 2.68527e-06 -0.00476744 -0.00924611 -0.0756729  
-0.0711618 -0.0135046 2.23592e-06 -0.00475391 -0.0092337 -0.0756584  
-0.0711822 -0.0134842 -3.84526e-07 -0.00478379 -0.00926823 -0.0756615  
-0.0711877 -0.0134885 -3.81931e-07 -0.00476636 -0.00925069 -0.0756462  
-0.0711761 -0.0134994 8.63531e-06 -0.00476589 -0.00924663 -0.0756492  
-0.0711725  -0.013495 1.04535e-06 -0.00476713 -0.00924957 -0.0756595  
-0.0711562 -0.0135129 1.20559e-05 -0.00475288 -0.00922908 -0.0756572  
-0.0711648 -0.0135021 1.24898e-05 -0.00476751 -0.00924696  -0.075667  
-0.0711742 -0.0135067 1.08637e-05 -0.00474913 -0.00922602 -0.0756387  
 -0.071159 -0.0135084 1.37632e-05 -0.00475378 -0.00923235 -0.0756618  
-0.0711629 -0.0135115 1.28809e-05 -0.00474931 -0.00922678 -0.0756486  
-0.0711798 -0.0134955 1.54483e-05 -0.00476802 -0.00925332 -0.0756535  
-0.0711839 -0.0134998 1.40895e-05 -0.00475946 -0.00924235  -0.075639  
-0.0711608 -0.0135076 1.22745e-05 -0.00475983 -0.00923765 -0.0756621  
-0.0711653 -0.0135103 1.14642e-05 -0.00475211 -0.00922909 -0.0756481  
-0.0711834 -0.0134927 1.15763e-05 -0.00477462 -0.0092597  -0.075653  
-0.0711879 -0.0134968 1.0705e-05 -0.00476292 -0.00924575  -0.075638  
-0.0711719  -0.013504 1.40051e-05 -0.00475715 -0.00923879 -0.0756506  
-0.0711749  -0.013502 1.14863e-05 -0.00476179 -0.00924304 -0.0756502  
-0.0711491 -0.0135099 5.49957e-06 -0.00474317 -0.00922406 -0.0756677  
-0.0711554 -0.0135009 8.08804e-06 -0.00475346 -0.00923675 -0.0756769  
-0.0711641 -0.0135072 6.85956e-06 -0.00474572 -0.00922616 -0.0756509  
-0.0711455 -0.0135011 -1.74129e-06 -0.00474297 -0.00922892 -0.0756837  
  -0.07115 -0.0135054 -1.63241e-06 -0.00474234 -0.00922735 -0.0756711  
-0.0711651 -0.0134896 1.50564e-06 -0.00475658 -0.00924814 -0.0756725  
-0.0711704 -0.0134949 1.13551e-06 -0.00475166 -0.0092411  -0.075659  
-0.0711526 -0.0135054 6.69377e-06 -0.00474797 -0.00923007 -0.0756723  
-0.0711567 -0.0135091 6.20558e-06 -0.00474569 -0.00922678 -0.0756596  
-0.0711727 -0.0134936 9.34456e-06 -0.00476194 -0.00924995 -0.0756629  
-0.0711772 -0.0134983 8.33395e-06 -0.00475544 -0.00924128  -0.075649  
-0.0711583  -0.013498 -2.08308e-07 -0.00474796 -0.00923657 -0.0756715  
-0.0711653 -0.0135018 7.60612e-06 -0.00475231 -0.00923717 -0.0756608  
-0.0711383 -0.0135014 -1.00438e-05 -0.00474102 -0.00922842 -0.0756901  
-0.0711444 -0.0134905 -9.55317e-06 -0.00475179 -0.00924213 -0.0756983  
-0.0711559 -0.0134985 -7.93549e-06 -0.0047423 -0.00922933 -0.0756707  
-0.0711418  -0.013496 -9.83908e-06 -0.0047461 -0.00923485 -0.0756943  
-0.0711472 -0.0135006 -8.96482e-06 -0.00474291 -0.00923064 -0.0756806  
-0.0711635  -0.013483 -7.86947e-06 -0.00475989 -0.00925534  -0.075682  
-0.0711694 -0.0134887 -7.15178e-06 -0.00475257 -0.00924542 -0.0756675  
 -0.071156 -0.0134922 -8.44229e-06 -0.00474985 -0.00924167 -0.0756809  
-0.0712606 -0.0134065 -1.17184e-05 -0.00464149 -0.00911915 -0.0756363  
-0.0712807 -0.0134105 -1.22009e-05 -0.0046631 -0.00914275 -0.0756036  
-0.0713254   -0.01337 -1.51117e-05 -0.00462605 -0.00909499  -0.075591  
-0.0712743 -0.0134126 -1.07209e-05 -0.00466579 -0.00914382 -0.0756118  
-0.0713201 -0.0133734 -1.08659e-05 -0.00463057 -0.00909514 -0.0755987  
-0.0713377 -0.0133759 -1.42211e-05 -0.00466285 -0.00912842  -0.075561  
-0.0713324 -0.0133796 -9.98821e-06 -0.00466456 -0.00912843 -0.0755671  
-0.0712653 -0.0134116 -6.82339e-06 -0.00464028  -0.009113 -0.0756178  
-0.0712766 -0.0134228 -3.64884e-07 -0.00467019 -0.00913469 -0.0755884  
-0.0713169 -0.0133831 -4.16087e-06 -0.00463092 -0.00907976 -0.0755784  
-0.0712792 -0.0134164 -6.62246e-06 -0.00466603 -0.00913879  -0.075595  
-0.0713214 -0.0133761 -1.05531e-05 -0.00462764 -0.00908762 -0.0755834  
-0.0713305 -0.0133875 -4.26291e-06 -0.00466591 -0.00911642 -0.0755495  
-0.0713345 -0.0133812 -1.005e-05 -0.00466383 -0.00912261 -0.0755543  
-0.0712575 -0.0134259 8.3123e-06 -0.00465122 -0.0091095 -0.0756165  
-0.0712652 -0.0134362 1.48037e-05 -0.00467567 -0.00913781 -0.0755958  
-0.0713056 -0.0133987 1.61603e-05 -0.00463534 -0.00908243  -0.075586  
-0.0712713 -0.0134298 7.41762e-06 -0.00467363 -0.00913499 -0.0755928  
-0.0713116 -0.0133912 6.28377e-06 -0.00463392 -0.00907921 -0.0755829  
-0.0713188 -0.0134026 1.45816e-05 -0.00466755 -0.00911661 -0.0755557  
-0.0713249 -0.0133953 5.41965e-06 -0.00466737 -0.00911528 -0.0755532  
-0.0712438  -0.013433 1.26613e-05 -0.00465571 -0.00912201 -0.0756285  
-0.0712521 -0.0134356 6.95045e-06 -0.00467429 -0.00914735 -0.0756111  
-0.0712928 -0.0133993 9.94045e-06 -0.00463564 -0.0090959 -0.0755985  
-0.0712582  -0.013437 1.16446e-05 -0.00467515 -0.00914315 -0.0756041  
-0.0712988    -0.0134 1.40101e-05 -0.00463533 -0.00909015 -0.0755927  
-0.0713082 -0.0134035 9.73787e-06 -0.00466465 -0.00912531 -0.0755667  
 -0.071313  -0.013404 1.29732e-05 -0.0046661 -0.00912156 -0.0755617  
-0.0712403  -0.013422 -2.43173e-06 -0.0046543 -0.0091247  -0.075641  
 -0.071256 -0.0134272 -1.71881e-06 -0.00467282 -0.00914616 -0.0756157  
-0.0712985 -0.0133907 1.1252e-06 -0.0046367 -0.00909506 -0.0756025  
-0.0713134 -0.0133957 1.64537e-06 -0.00466547 -0.00912622   -0.07557  
-0.0711361 -0.0134906 -1.11617e-05 -0.00474163 -0.00922141 -0.0757039  
-0.0711483 -0.0135021 -8.64171e-06 -0.00474197 -0.00922843 -0.0756774  
-0.0711515 -0.0134923 -8.89733e-06 -0.00473139 -0.00921354 -0.0756827  
-0.0711429 -0.0135005 -4.08363e-06 -0.00475421 -0.00923307 -0.0756878  
-0.0711469  -0.013497 -2.17722e-06 -0.00474322 -0.00922129 -0.0756845  
-0.0711467  -0.013506 -3.15665e-06 -0.00474929 -0.00923125 -0.0756752  
-0.0711523 -0.0135037 -1.36566e-06 -0.00474036 -0.00922232 -0.0756705  
-0.0711387 -0.0134958 -1.10982e-05 -0.0047479 -0.00922952 -0.0756975  
-0.0711442 -0.0134911 -1.00372e-05 -0.00473691 -0.00921727 -0.0756937  
-0.0711432 -0.0135017 -9.83895e-06 -0.00474601 -0.00923073 -0.0756846  
-0.0711503 -0.0134983 -8.71813e-06 -0.00473731 -0.00922181 -0.0756792  
-0.0711481 -0.0135017 -2.71532e-06 -0.0047467 -0.00922633  -0.075679  
 -0.071145 -0.0134966 -9.87283e-06 -0.00474208 -0.00922428 -0.0756882  
-0.0711475 -0.0135008 5.78279e-06 -0.00474758 -0.00922203 -0.0756822  
-0.0711572 -0.0135106 6.19352e-06 -0.00474556 -0.00922559 -0.0756567  
-0.0711605 -0.0135018 6.74294e-06 -0.00473651 -0.0092129 -0.0756626  
-0.0711559 -0.0135081 1.21368e-05 -0.00475137 -0.0092248 -0.0756643  
-0.0711613 -0.0135034 1.33374e-05 -0.00474039 -0.00921242 -0.0756616  
 -0.071159 -0.0135127 1.19443e-05 -0.00475094 -0.00922674 -0.0756518  
-0.0711658 -0.0135091 1.29033e-05 -0.00474231 -0.00921732 -0.0756476  
-0.0711498 -0.0135049 4.58005e-06 -0.00475345 -0.00922935 -0.0756756  
-0.0711543  -0.013501 6.25251e-06 -0.00474244 -0.00921735 -0.0756728  
-0.0711531 -0.0135099 4.89296e-06 -0.00475045 -0.00922911 -0.0756632  
-0.0711592 -0.0135071 6.36361e-06 -0.00474163 -0.00921996 -0.0756589  
-0.0711612 -0.0135082 1.25095e-05 -0.0047463 -0.00921976 -0.0756559  
-0.0711549 -0.0135056 5.46662e-06 -0.00474697 -0.00922333 -0.0756672  
-0.0711568 -0.0135028 1.27965e-05 -0.0047373 -0.00920973 -0.0756696  
-0.0711665 -0.0135111 1.12077e-05 -0.00474802 -0.00922456 -0.0756444  
 -0.071171 -0.0135015 1.14669e-05 -0.00473132 -0.00920472 -0.0756496  
-0.0711569 -0.0135073 1.23854e-05 -0.00473948 -0.0092147 -0.0756624  
-0.0711654 -0.0134996 1.06627e-05 -0.00472809 -0.00920235 -0.0756579  
-0.0711607 -0.0135111 1.09455e-05 -0.00474643 -0.00922309 -0.0756504  
-0.0711704 -0.0135047 9.23534e-06 -0.00473793 -0.00921413 -0.0756446  
-0.0711574  -0.013508 1.24084e-05 -0.00474582 -0.00921973 -0.0756636  
-0.0711642 -0.0135019 1.2137e-05 -0.00473471 -0.00920718   -0.07566  
-0.0711608 -0.0135122 1.16555e-05 -0.00474905 -0.00922497 -0.0756512  
 -0.071169 -0.0135072 1.12744e-05 -0.00474055 -0.00921563 -0.0756462  
-0.0711641 -0.0135056 1.07721e-05 -0.00473824 -0.00921319 -0.0756534  
-0.0711636 -0.0135072 1.18221e-05 -0.00474268 -0.00921641 -0.0756548  
-0.0711524 -0.0134968 4.31411e-06 -0.00472169 -0.00920118 -0.0756775  
-0.0711639 -0.0135047 1.9658e-06 -0.00474572 -0.00922622  -0.075654  
-0.0711696 -0.0134939 1.87363e-06 -0.00472056 -0.00920089 -0.0756573  
-0.0711452 -0.0134987 -3.61539e-06 -0.00472799 -0.00921231 -0.0756845  
 -0.071156 -0.0134899 -5.31915e-06 -0.00471604 -0.00920036 -0.0756795  
-0.0711502 -0.0135032 -4.37918e-06 -0.00473965 -0.00922385 -0.0756733  
-0.0711622 -0.0134958 -5.93431e-06 -0.00473105 -0.00921567 -0.0756669  
-0.0711516 -0.0135035 4.94644e-06 -0.00473326 -0.00921304 -0.0756728  
-0.0711614 -0.0134951 3.10223e-06 -0.00472153 -0.00920097 -0.0756678  
 -0.071156 -0.0135075 3.69734e-06 -0.00474292 -0.00922326 -0.0756613  
 -0.071167 -0.0135004 1.93614e-06 -0.00473434 -0.00921476  -0.075655  
-0.0711542 -0.0134969 -4.79256e-06 -0.00472912 -0.00921284 -0.0756756  
-0.0711597 -0.0135016 3.40614e-06 -0.00473336 -0.00921272 -0.0756638  
-0.0711402 -0.0134876 -1.17317e-05 -0.00472053 -0.00920635 -0.0757013  
-0.0711534 -0.0134982 -1.07253e-05 -0.00474213 -0.00922876 -0.0756762  
-0.0711587 -0.0134869 -1.11861e-05 -0.0047187 -0.00920498   -0.07568  
-0.0711402 -0.0134947 -1.08367e-05 -0.00473162 -0.00921789 -0.0756958  
-0.0711499 -0.0134869 -1.14546e-05 -0.00472002 -0.0092055  -0.075691  
-0.0711453    -0.0135 -1.04069e-05 -0.00474009 -0.0092266 -0.0756836  
-0.0711564 -0.0134937 -1.0856e-05 -0.00473158 -0.00921806 -0.0756774  
-0.0711488 -0.0134938 -1.0822e-05 -0.00473119 -0.00921672 -0.0756865  
-0.0711394 -0.0135016 -1.03331e-05 -0.0047383 -0.00922479 -0.0756884  
-0.0711556 -0.0135004 -5.1622e-06 -0.00473979 -0.0092239 -0.0756696  
-0.0711474 -0.0135066 -2.50638e-06 -0.00474133 -0.00922558 -0.0756732  
-0.0711503 -0.0134978 -1.05998e-05 -0.00473971 -0.0092261 -0.0756798  
 -0.071144 -0.0135022 -9.4535e-06 -0.00474147 -0.0092283  -0.075683  
-0.0711512 -0.0135041 -4.17111e-06 -0.00474637 -0.00922909 -0.0756733  
-0.0711468 -0.0135005 -1.0234e-05 -0.00474469 -0.00923003 -0.0756832  
-0.0711503 -0.0135095 4.57344e-06 -0.00474062 -0.00922077 -0.0756657  
-0.0711651 -0.0135087 1.00714e-05 -0.00474585 -0.00922249 -0.0756469  
-0.0711597 -0.0135132 1.2348e-05 -0.00474766 -0.00922436 -0.0756502  
-0.0711609 -0.0135048 2.80026e-06 -0.00474276 -0.00922304 -0.0756576  
-0.0711538 -0.0135105 5.44882e-06 -0.00474441 -0.00922475 -0.0756614  
-0.0711621 -0.0135115 1.10387e-05 -0.00475015 -0.0092261 -0.0756502  
 -0.071157 -0.0135082 3.85392e-06 -0.00474839 -0.00922756 -0.0756613  
-0.0711562 -0.0135135 1.19467e-05 -0.00474924 -0.00922451 -0.0756555  
 -0.071162 -0.0135116 1.23834e-05 -0.00474909 -0.00922493 -0.0756488  
-0.0711615 -0.0135114 1.03976e-05 -0.00475138 -0.00922768 -0.0756497  
-0.0711644 -0.0135105 1.14408e-05 -0.00474785 -0.00922374 -0.0756479  
-0.0711615 -0.0135126 1.15881e-05 -0.00474989 -0.00922607   -0.07565  
-0.0711614 -0.0135122 1.16869e-05 -0.0047495 -0.00922549 -0.0756505  
-0.0711627 -0.0135122 1.15794e-05 -0.00475019 -0.00922585 -0.0756505  
-0.0711491 -0.0135104 4.31186e-06 -0.00475307 -0.00923076 -0.0756675  
-0.0711492 -0.0135055 -2.26536e-06 -0.00474665 -0.00922896 -0.0756719  
-0.0711511 -0.0135036 -5.01147e-06 -0.00474936 -0.00923209 -0.0756731  
-0.0711558 -0.0135092 5.59721e-06 -0.00474814 -0.00922701 -0.0756601  
-0.0711568 -0.0135078 3.06217e-06 -0.00475066 -0.00922997 -0.0756608  
-0.0711498 -0.0135052 -3.34601e-06 -0.00474495 -0.00922792 -0.0756735  
 -0.071156 -0.0135092 4.64392e-06 -0.0047473 -0.00922662 -0.0756616  
-0.0711385 -0.0135022 -1.04989e-05 -0.00474813 -0.00923181 -0.0756895  
-0.0711464 -0.0135007 -9.23853e-06 -0.00474392 -0.00922895  -0.075681  
-0.0711463 -0.0135005 -1.06456e-05 -0.00474641 -0.00923189 -0.0756829  
 -0.071146 -0.0135012 -9.84323e-06 -0.00474382 -0.00922939 -0.0756833  
-0.0711703 -0.0134825 -1.10167e-05 -0.0047178 -0.00920415 -0.0756699  
-0.0711469 -0.0134864 -1.16482e-05 -0.00471689 -0.00920212 -0.0756937  
-0.0711731 -0.0134903 -6.66397e-06 -0.00473232 -0.00921727 -0.0756591  
-0.0711642 -0.0134869 -6.01995e-06 -0.00471456 -0.00919894  -0.075672  
-0.0711497 -0.0134974 -4.48233e-06 -0.00472521 -0.00920909 -0.0756798  
 -0.071167 -0.0134888 -1.08519e-05 -0.00473214 -0.00921904 -0.0756692  
-0.0711579 -0.0134846 -1.13458e-05 -0.00471783 -0.00920324 -0.0756832  
-0.0711443  -0.013494 -1.09475e-05 -0.00472826 -0.00921382  -0.075691  
-0.0711611 -0.0134939 -5.53797e-06 -0.00472868 -0.00921222 -0.0756699  
-0.0711553 -0.0134914 -1.08748e-05 -0.00473013 -0.0092154 -0.0756806  
-0.0711805 -0.0134888 8.09834e-07 -0.00471997 -0.00920038 -0.0756478  
-0.0711587 -0.0134947 3.18681e-06 -0.00471816 -0.0091973 -0.0756701  
  -0.07118 -0.0134995 8.14484e-06 -0.00473823 -0.00921497 -0.0756372  
-0.0711723 -0.0134968 9.5501e-06 -0.00472547 -0.00919969 -0.0756505  
-0.0711602 -0.0135062 1.13434e-05 -0.00473573 -0.00921028 -0.0756575  
-0.0711772 -0.0134949 9.50498e-07 -0.0047352 -0.00921604 -0.0756474  
-0.0711689 -0.0134921 2.10131e-06 -0.00471955 -0.00919902 -0.0756603  
-0.0711555 -0.0135021 3.89649e-06 -0.00473004 -0.00920931  -0.075668  
-0.0711698 -0.0135029 9.78136e-06 -0.00473686 -0.00921165 -0.0756479  
 -0.071166 -0.0134986 2.45809e-06 -0.00473251 -0.00921172 -0.0756582  
-0.0711806 -0.0134971 1.08844e-05 -0.00472887 -0.00920247 -0.0756405  
-0.0711616 -0.0135016 1.23233e-05 -0.00473229 -0.00920406 -0.0756625  
-0.0711741 -0.0135051 1.31042e-05 -0.00474102 -0.00921671 -0.0756407  
-0.0711671 -0.0135017 1.34601e-05 -0.00473596 -0.00920806 -0.0756546  
-0.0711578 -0.0135083 1.25497e-05 -0.00474602 -0.00921883 -0.0756601  
-0.0711779 -0.0135026 1.08309e-05 -0.00474005 -0.00921576 -0.0756391  
-0.0711706 -0.0134996 1.16612e-05 -0.0047312 -0.00920362 -0.0756528  
-0.0711599 -0.0135076 1.21129e-05 -0.0047413 -0.00921445  -0.075659  
-0.0711657 -0.0135067 1.27997e-05 -0.00474337 -0.00921676 -0.0756508  
-0.0711686 -0.0135051 1.14815e-05 -0.00474055 -0.0092141 -0.0756495  
-0.0711696 -0.0134984 7.24428e-06 -0.00473212 -0.00920918 -0.0756535  
-0.0711516 -0.0135008 6.37952e-06 -0.00474089 -0.00921522 -0.0756754  
-0.0711607 -0.0135002 -3.99913e-07 -0.00473804 -0.00922098 -0.0756628  
-0.0711527  -0.013496 -1.29427e-06 -0.00473752 -0.00921625 -0.0756772  
-0.0711444 -0.0135015 -3.12691e-06 -0.00474772 -0.00922661 -0.0756835  
-0.0711674 -0.0135035 6.96969e-06 -0.00473976 -0.00921892 -0.0756517  
  -0.07116 -0.0134997 6.7601e-06 -0.00473729 -0.0092126 -0.0756658  
-0.0711514 -0.0135056 5.29189e-06 -0.00474744 -0.0092231 -0.0756715  
-0.0711523 -0.0135008 -1.82088e-06 -0.00474274 -0.00922273 -0.0756736  
-0.0711592 -0.0135045 6.08244e-06 -0.00474345 -0.00921998  -0.075662  
-0.0711616  -0.013489 -7.92183e-06 -0.00472735 -0.00921039 -0.0756726  
 -0.071141 -0.0134907 -1.02414e-05 -0.00473529 -0.00921501 -0.0756965  
-0.0711594 -0.0134945 -7.89916e-06 -0.00473565 -0.00922116 -0.0756711  
-0.0711507 -0.0134899 -9.1769e-06 -0.00473207 -0.00921297 -0.0756859  
 -0.071141 -0.0134964 -1.03538e-05 -0.00474221 -0.00922363 -0.0756929  
  -0.07115 -0.0134954 -9.14726e-06 -0.00473882 -0.0092213 -0.0756825  
-0.0711601 -0.0134881 -8.05745e-06 -0.00475737 -0.00924963 -0.0756819  
-0.0711414 -0.0134941 -9.95278e-06 -0.00474481 -0.00923422 -0.0756969  
-0.0711568 -0.0135016 -4.39387e-07 -0.00474758 -0.00923428  -0.075669  
-0.0711538 -0.0134964 -2.57347e-07 -0.00474786 -0.00923614 -0.0756785  
-0.0711451 -0.0135022 -2.72947e-06 -0.00473859 -0.00922373 -0.0756821  
-0.0711548 -0.0134961 -8.30103e-06 -0.00474838 -0.00923814 -0.0756782  
-0.0711512 -0.0134906 -8.93565e-06 -0.00475124 -0.00924278 -0.0756885  
-0.0711408 -0.0134978 -1.01865e-05 -0.0047413 -0.00922891 -0.0756928  
-0.0711513 -0.0135017 -1.51673e-06 -0.00474341 -0.00923015 -0.0756754  
-0.0711482 -0.0134967 -9.2058e-06 -0.00474504 -0.00923463 -0.0756853  
-0.0711692 -0.0134982 8.64209e-06 -0.00475923 -0.00924431 -0.0756623  
-0.0711525 -0.0135038 6.9911e-06 -0.00474648 -0.00922907 -0.0756748  
-0.0711703 -0.0135073 1.35802e-05  -0.004755 -0.00923483 -0.0756475  
 -0.071168 -0.0135029 1.45592e-05 -0.00475908 -0.00924021 -0.0756577  
-0.0711576 -0.0135099 1.2884e-05 -0.00474871 -0.00922605 -0.0756597  
-0.0711637 -0.0135052 7.22878e-06 -0.00475116 -0.00923418 -0.0756581  
-0.0711612 -0.0135005 7.91679e-06 -0.00475306 -0.0092375 -0.0756678  
-0.0711518 -0.0135066 5.67226e-06 -0.00474328 -0.00922442 -0.0756704  
-0.0711643 -0.0135083 1.3286e-05 -0.00475209 -0.00923147 -0.0756535  
-0.0711581 -0.0135057 6.51429e-06 -0.00474752 -0.00923039 -0.0756642  
-0.0711796 -0.0134977 1.15227e-05 -0.00477094 -0.00925272 -0.0756518  
-0.0711609  -0.013506 1.24557e-05 -0.00475976 -0.00923784 -0.0756648  
-0.0711749 -0.0135026 8.57891e-06 -0.0047608 -0.00924021 -0.0756456  
-0.0711716 -0.0134988 9.1069e-06 -0.0047715 -0.00925119 -0.0756569  
-0.0711581 -0.0135091 1.1174e-05 -0.00475894 -0.00923483 -0.0756605  
-0.0711734 -0.0135052 1.12705e-05 -0.0047582 -0.00923777 -0.0756467  
-0.0711707 -0.0135012 1.19721e-05 -0.00476553 -0.0092461 -0.0756576  
-0.0711588 -0.0135098 1.21988e-05 -0.00475416 -0.00923059 -0.0756603  
 -0.071167 -0.0135055 9.81625e-06 -0.00475987 -0.00923836 -0.0756529  
-0.0711666 -0.0135072 1.17333e-05 -0.00475629 -0.00923513 -0.0756534  
-0.0711782 -0.0134897 1.44154e-07 -0.00477904 -0.00926085 -0.0756608  
-0.0711559 -0.0135004 2.61765e-06 -0.00476875 -0.00924744 -0.0756756  
-0.0711667 -0.0134935 -6.82385e-06 -0.00476025 -0.00924474 -0.0756679  
-0.0711624 -0.0134893 -7.209e-06 -0.00477499 -0.00925804 -0.0756793  
-0.0711464  -0.013501 -4.95619e-06 -0.0047608 -0.00924147 -0.0756839  
-0.0711714 -0.0134982 1.12549e-06 -0.00476097 -0.00924259  -0.075656  
-0.0711676 -0.0134943 1.26428e-06 -0.00477406 -0.00925494 -0.0756674  
-0.0711527 -0.0135055 3.56411e-06 -0.00476051 -0.00923846 -0.0756717  
-0.0711572 -0.0134969 -5.96242e-06 -0.00476039 -0.00924387 -0.0756757  
-0.0711626 -0.0135014 2.27181e-06 -0.00476066 -0.00924131 -0.0756637  
-0.0711675 -0.0134825 -1.22515e-05 -0.00477317 -0.00926101 -0.0756819  
-0.0711444 -0.0134919 -1.21117e-05 -0.00476264 -0.00924714 -0.0756978  
-0.0711609 -0.0134914 -1.13238e-05 -0.00475621 -0.00924389 -0.0756776  
-0.0711566 -0.0134865 -1.22176e-05 -0.00476803 -0.0092549  -0.075689  
-0.0711417 -0.0134971 -1.12487e-05 -0.00475502 -0.00923879 -0.0756938  
-0.0711519 -0.0134939 -1.13136e-05 -0.00475555 -0.00924224 -0.0756855  
 -0.071131 -0.0134774 -1.24762e-05 -0.0047317 -0.00921705 -0.0757274  
 -0.071145 -0.0134869 -3.89544e-06 -0.00471655 -0.00920035  -0.075698  
-0.0711411 -0.0134914 -1.86705e-06 -0.00473284 -0.00921699 -0.0757008  
-0.0711389 -0.0134822 -1.20841e-05 -0.00472259 -0.00920794 -0.0757104  
-0.0711362 -0.0134855 -1.12492e-05 -0.00473864 -0.00922544 -0.0757128  
 -0.071146  -0.013494 -3.25839e-06 -0.00472802 -0.00921212 -0.0756902  
-0.0711409 -0.0134894 -1.10967e-05 -0.0047325 -0.00921864 -0.0757018  
 -0.071145   -0.01349 7.74266e-06 -0.00473285 -0.00921104 -0.0757036  
 -0.071157 -0.0134972 1.31413e-05 -0.00473234 -0.00920611 -0.0756773  
-0.0711554 -0.0135004 1.49464e-05 -0.00474837 -0.00922406 -0.0756803  
-0.0711517 -0.0134926 5.31066e-06 -0.00472381 -0.00920264 -0.0756867  
-0.0711488 -0.0134967 7.38796e-06 -0.00474002 -0.0092198 -0.0756898  
-0.0711583  -0.013503 1.30568e-05 -0.00474108 -0.00921618 -0.0756688  
-0.0711527 -0.0134991 5.54334e-06 -0.00473403 -0.0092136 -0.0756788  
-0.0711524 -0.0134946 1.43619e-05 -0.00475396 -0.00922634 -0.0756968  
-0.0711547 -0.0134989 1.34453e-05 -0.00474958 -0.00922101 -0.0756804  
 -0.071156 -0.0134991 1.1873e-05 -0.00476584 -0.00923948 -0.0756816  
-0.0711568 -0.0134984 1.33277e-05 -0.00474137 -0.00921349 -0.0756794  
-0.0711567 -0.0135001 1.34398e-05 -0.00475741 -0.00923201 -0.0756815  
-0.0711574 -0.0135035 1.22514e-05 -0.00475504 -0.00922822 -0.0756708  
-0.0711588 -0.0135036 1.27582e-05 -0.00474843 -0.00922224 -0.0756702  
-0.0711447 -0.0134895 4.52762e-06 -0.00477043 -0.00924278 -0.0757074  
  -0.07114 -0.0134905 -3.80078e-06 -0.00475633 -0.00923235  -0.075703  
-0.0711433 -0.0134893 -5.89171e-06 -0.00477304 -0.00924989 -0.0757042  
-0.0711479 -0.0134955 5.56015e-06 -0.00475379 -0.0092273 -0.0756913  
-0.0711502 -0.0134948 3.58888e-06 -0.00477036 -0.00924522 -0.0756923  
-0.0711443 -0.0134952 -4.44613e-06 -0.0047595 -0.00923732 -0.0756937  
-0.0711513 -0.0134999 4.49229e-06 -0.00475802 -0.00923324 -0.0756818  
-0.0711311 -0.0134772 -1.4156e-05 -0.00476358 -0.00924064   -0.07573  
-0.0711358 -0.0134843 -1.21144e-05 -0.00474761 -0.00922608 -0.0757131  
-0.0711377 -0.0134843 -1.31674e-05 -0.0047639 -0.00924404 -0.0757147  
-0.0711399 -0.0134901 -1.16971e-05 -0.00475217 -0.00923282 -0.0757036  
-0.0711556 -0.0134659 -9.21864e-06 -0.00477642 -0.00926787 -0.0757169  
-0.0711597 -0.0134851 1.96896e-06 -0.0047619 -0.00925012 -0.0756889  
-0.0711455 -0.0134796 5.6486e-07 -0.00474776 -0.00923203 -0.0757104  
-0.0711574 -0.0134776 -8.66047e-06 -0.00476625 -0.00925891 -0.0756992  
-0.0711412 -0.0134719 -1.09509e-05 -0.00475442 -0.00924271 -0.0757225  
-0.0711494 -0.0134879 1.57628e-07 -0.00474851 -0.00923447 -0.0756949  
-0.0711459 -0.0134811 -9.96794e-06 -0.00475356 -0.00924319  -0.075706  
-0.0711678 -0.0134799 1.25042e-05 -0.0047788 -0.0092622 -0.0756975  
-0.0711759 -0.0134918 1.68616e-05 -0.00477575 -0.00925869 -0.0756706  
-0.0711622 -0.0134887 1.74996e-05 -0.00476579 -0.00924357 -0.0756925  
-0.0711681 -0.0134896 1.04528e-05 -0.00476844 -0.0092535 -0.0756795  
-0.0711545 -0.0134853 1.01787e-05 -0.00475623 -0.00923682 -0.0757009  
-0.0711649 -0.0134958 1.60681e-05 -0.00476326 -0.00924252 -0.0756756  
-0.0711577 -0.0134928 9.07175e-06 -0.00475541 -0.00923767 -0.0756848  
-0.0711795 -0.0134792 1.34148e-05 -0.0047977 -0.00928021 -0.0756898  
-0.0711807 -0.0134855 7.99356e-06 -0.00479165 -0.00927311 -0.0756691  
-0.0711645 -0.0134849  1.065e-05 -0.00478643 -0.00926235 -0.0756928  
-0.0711792  -0.013489 1.24619e-05 -0.0047838 -0.00926672 -0.0756705  
-0.0711642 -0.0134872 1.39946e-05 -0.00477627 -0.00925364 -0.0756935  
-0.0711677 -0.0134918 9.89958e-06 -0.00477998 -0.00925757 -0.0756754  
-0.0711672 -0.0134941 1.30131e-05 -0.00477181 -0.0092506 -0.0756761  
-0.0711775  -0.013469 -9.88708e-07 -0.00481389 -0.0092925 -0.0756969  
-0.0711727  -0.013474 -9.26561e-06 -0.00479822 -0.00928013   -0.07569  
-0.0711531 -0.0134729 -8.17197e-06 -0.00479655 -0.00927279 -0.0757139  
-0.0711774   -0.01348 -3.45709e-07 -0.00479597 -0.00927695 -0.0756786  
-0.0711594 -0.0134795 1.80569e-06 -0.00479264 -0.00926809 -0.0757024  
-0.0711574 -0.0134811 -7.70517e-06 -0.00478692 -0.00926624 -0.0756972  
-0.0711632 -0.0134869 1.53777e-06 -0.00478444 -0.00926232 -0.0756855  
-0.0711654 -0.0134585 -1.57117e-05 -0.00480617 -0.00929005 -0.0757183  
-0.0711659 -0.0134712 -1.39085e-05 -0.00478906 -0.00927573 -0.0756999  
-0.0711464 -0.0134681 -1.50281e-05 -0.00478531 -0.00926578 -0.0757245  
-0.0711511 -0.0134772 -1.36546e-05 -0.0047777 -0.00926109 -0.0757073  
-0.0712118 -0.0134649 -4.48586e-06 -0.00476577 -0.00927274 -0.0756425  
-0.0711846 -0.0134838 2.83086e-06 -0.00475937 -0.00925536 -0.0756542  
-0.0712154 -0.0134586 7.12759e-06 -0.00478558 -0.00928985 -0.0756515  
-0.0711861 -0.0134586 6.57114e-06 -0.00479079 -0.00928447 -0.0756901  
-0.0711842 -0.0134769 -6.3291e-06 -0.00476169 -0.00926175 -0.0756625  
-0.0712164 -0.0134497 -4.2547e-06 -0.00478754 -0.00929776  -0.075659  
-0.0711852 -0.0134488 -6.74026e-06 -0.00479485 -0.00929523 -0.0756997  
 -0.071186 -0.0134719 4.54675e-06 -0.00477425 -0.0092704 -0.0756703  
-0.0711854 -0.0134636 -6.49776e-06 -0.00477739 -0.00927884 -0.0756792  
-0.0712171 -0.0134755 1.09746e-05 -0.00476868 -0.0092678 -0.0756281  
-0.0711984 -0.0134886 1.51433e-05 -0.00476933 -0.00925924 -0.0756364  
-0.0712304 -0.0134629 1.77778e-05 -0.00479726 -0.0092988  -0.075639  
 -0.071204 -0.0134649 2.0049e-05 -0.0048065 -0.0092987 -0.0756773  
-0.0711914 -0.0134872 9.82674e-06 -0.0047641 -0.00925658 -0.0756454  
-0.0712229 -0.0134621 1.35845e-05 -0.00479133 -0.00929334 -0.0756456  
-0.0711955 -0.0134632 1.47077e-05 -0.00479843 -0.00929037 -0.0756838  
-0.0712018 -0.0134774 1.73986e-05 -0.00478702 -0.00927923 -0.0756548  
-0.0711941 -0.0134759 1.20668e-05 -0.0047804 -0.00927386 -0.0756626  
-0.0712289 -0.0134714 9.40386e-06 -0.00477828 -0.0092755 -0.0756189  
-0.0712055 -0.0134806 5.62883e-06 -0.0047799 -0.0092688 -0.0756338  
-0.0712387 -0.0134516 2.22122e-06 -0.00480965 -0.0093104 -0.0756354  
-0.0712103 -0.0134549 4.57544e-06 -0.00482434 -0.00931546 -0.0756746  
-0.0712027 -0.0134849 1.05192e-05 -0.00477476 -0.00926466 -0.0756355  
-0.0712352 -0.0134575 1.00347e-05 -0.00480338 -0.00930596  -0.075638  
-0.0712079 -0.0134602 1.22263e-05 -0.00481528 -0.00930869  -0.075677  
-0.0712086 -0.0134684 5.1199e-06 -0.00480119 -0.0092923 -0.0756522  
-0.0712059 -0.0134732 1.12941e-05 -0.00479411 -0.00928687 -0.0756542  
-0.0712321 -0.0134606 -3.86321e-06 -0.00478468 -0.00928109 -0.0756248  
-0.0712004 -0.0134703 -9.48091e-06 -0.00478253 -0.00927387 -0.0756538  
-0.0712369 -0.0134392 -1.30937e-05 -0.00481414 -0.00931281 -0.0756523  
-0.0712057 -0.0134409 -1.32147e-05 -0.00483305 -0.00931981 -0.0756924  
-0.0712036 -0.0134754 -1.83904e-06 -0.00478201 -0.00927152  -0.075643  
-0.0712384 -0.0134453 -5.5314e-06 -0.00481299 -0.00931171 -0.0756428  
-0.0712086 -0.0134481 -4.21122e-06 -0.00483002 -0.00931787 -0.0756822  
-0.0712037 -0.0134564 -1.12127e-05 -0.00480672 -0.00929702 -0.0756712  
-0.0712068 -0.0134625 -2.95195e-06 -0.00480502 -0.00929487 -0.0756607  
-0.0712238 -0.0134553 -1.20294e-05 -0.00477875 -0.00928162 -0.0756423  
 -0.071194 -0.0134692 -1.21778e-05 -0.00477607 -0.00927189 -0.0756624  
-0.0712303 -0.0134387 -1.38331e-05 -0.00480565 -0.00931041 -0.0756599  
-0.0711984 -0.0134387 -1.59825e-05 -0.00482177 -0.00931503 -0.0757014  
-0.0711969 -0.0134548 -1.39112e-05 -0.00479786 -0.00929364 -0.0756799  
-0.0711396 -0.0134332 -1.16331e-05 -0.00479483 -0.00927162 -0.0757718  
-0.0711127 -0.0134414 -1.65731e-05 -0.00472444 -0.00920389 -0.0757851  
-0.0711049 -0.0134338 2.28228e-06 -0.00470091 -0.00917188 -0.0758081  
-0.0711307  -0.013429 1.30033e-05 -0.00480633 -0.00925065 -0.0757949  
-0.0711296 -0.0134507 3.94575e-06 -0.00475134 -0.00922161 -0.0757644  
-0.0710944  -0.013416 -2.00637e-05 -0.00471211 -0.00918768 -0.0758251  
-0.0711234 -0.0134098 -1.28441e-05 -0.00481053 -0.0092668 -0.0758093  
-0.0711227 -0.0134378 -1.42852e-05 -0.00476022 -0.00923725 -0.0757795  
-0.0711141 -0.0134328 7.74779e-06 -0.00475195 -0.00921009 -0.0758003  
 -0.071105 -0.0134145 -1.66825e-05 -0.00475962 -0.0092263 -0.0758163  
-0.0711578 -0.0134545 1.84775e-05 -0.00480146 -0.00926878 -0.0757536  
-0.0711318 -0.0134632 1.22219e-05 -0.00472873 -0.00919934 -0.0757623  
-0.0711226 -0.0134562 2.31466e-05 -0.00473847 -0.00920192 -0.0758075  
-0.0711555 -0.0134445 2.92471e-05 -0.00483943 -0.00929228 -0.0757964  
-0.0711508 -0.0134648 2.30961e-05 -0.00478025 -0.0092473 -0.0757548  
-0.0711154 -0.0134474 1.4889e-05 -0.00472061 -0.00918693 -0.0758067  
-0.0711453 -0.0134392 2.39053e-05 -0.00482412 -0.00927107 -0.0757956  
-0.0711416 -0.0134595 1.5494e-05 -0.00476581 -0.00923359 -0.0757589  
-0.0711358 -0.0134517 2.64243e-05 -0.00478747 -0.00924661 -0.0758005  
-0.0711269 -0.0134447 1.95965e-05 -0.00477081 -0.00922821 -0.0757998  
-0.0711699 -0.0134546 1.63681e-05 -0.00482722 -0.00929861 -0.0757512  
-0.0711398 -0.0134696 1.77686e-05 -0.00475864 -0.00922522 -0.0757619  
-0.0711213 -0.0134554 1.86197e-05 -0.00476652 -0.00923083 -0.0758108  
-0.0711562  -0.013435 9.0237e-06 -0.00486469 -0.00931906 -0.0757946  
-0.0711516 -0.0134601 1.25977e-05 -0.00480734  -0.009274 -0.0757557  
-0.0711223 -0.0134562 1.97327e-05 -0.00475264 -0.00921665 -0.0758122  
-0.0711562   -0.01344 1.81195e-05 -0.00485167 -0.00930767 -0.0757984  
-0.0711519 -0.0134628 1.7232e-05 -0.0047938 -0.00926186 -0.0757574  
-0.0711354 -0.0134466 1.40201e-05 -0.00481426 -0.00927478 -0.0758014  
-0.0711359 -0.0134495  1.912e-05 -0.00480074 -0.00926184 -0.0758039  
-0.0711668 -0.0134414 -1.76411e-06 -0.00485065 -0.00931444 -0.0757544  
-0.0711312 -0.0134618 6.30728e-06 -0.00478404 -0.00924974 -0.0757678  
-0.0711038 -0.0134328 -4.47499e-06 -0.00479454 -0.00925947 -0.0758175  
-0.0711485 -0.0134098 -1.58142e-05 -0.0048878 -0.00932864 -0.0758039  
-0.0711384 -0.0134418 -1.00619e-05 -0.00482715 -0.00928973 -0.0757713  
-0.0711139 -0.0134464 8.88057e-06 -0.00478043 -0.00924513 -0.0758131  
-0.0711529  -0.013424 -2.64858e-06 -0.00487709 -0.00932385 -0.0757972  
-0.0711459 -0.0134522 2.34551e-06 -0.00481835 -0.0092823  -0.075762  
-0.0711226 -0.0134228 -1.01764e-05 -0.00483984 -0.0092942 -0.0758099  
  -0.07113 -0.0134367 3.22774e-06 -0.00482743 -0.00928447  -0.075804  
-0.0711523 -0.0134238 -2.14484e-05 -0.00484149 -0.00930886 -0.0757757  
-0.0711134 -0.0134406 -1.97246e-05 -0.00477792 -0.00924616 -0.0757895  
-0.0710941 -0.0134156 -2.34386e-05 -0.00477787 -0.00924435 -0.0758308  
-0.0711383 -0.0133983 -2.65321e-05 -0.00486729 -0.00931663 -0.0758162  
-0.0711296 -0.0134326 -2.07863e-05 -0.00481061 -0.00927767 -0.0757837  
-0.0711124 -0.0134085 -2.52618e-05 -0.0048211 -0.00928045 -0.0758229  
-0.0711738 -0.0134951 7.08565e-07 -0.00473927 -0.00922554   -0.07565  
-0.0711688  -0.013487 6.46013e-07 -0.00472169 -0.00919984 -0.0756636  
-0.0711733 -0.0134892 -6.8528e-06 -0.00473812 -0.00922725 -0.0756578  
-0.0711684 -0.0134802 -7.52199e-06 -0.00471703 -0.00919689 -0.0756714  
 -0.071172 -0.0134922 6.23753e-07 -0.00473129 -0.00921411 -0.0756547  
-0.0711715  -0.013486 -7.10143e-06 -0.00472847 -0.00921367 -0.0756624  
-0.0711867 -0.0134994 1.31374e-05 -0.00474407 -0.00922301 -0.0756293  
-0.0711834 -0.0134913 1.3921e-05 -0.00472098 -0.00919124 -0.0756423  
-0.0711802 -0.0134981 7.54776e-06 -0.00474177 -0.00922417 -0.0756397  
-0.0711761 -0.0134901 8.00873e-06 -0.00472179 -0.00919602  -0.075653  
-0.0711856 -0.0134964 1.33471e-05 -0.00473359 -0.00920888 -0.0756336  
-0.0711787 -0.0134952 7.64006e-06 -0.00473272 -0.00921166 -0.0756442  
-0.0711935 -0.0134928 6.84759e-06 -0.00474457 -0.00922411 -0.0756259  
-0.0711907 -0.0134839 7.28201e-06 -0.00471148 -0.00918405 -0.0756369  
-0.0711909 -0.0134964 1.0199e-05 -0.0047447 -0.0092236 -0.0756278  
-0.0711878 -0.0134879 1.07671e-05 -0.0047168 -0.00918714 -0.0756399  
-0.0711926 -0.0134895 7.02458e-06 -0.0047294 -0.0092061 -0.0756294  
-0.0711899 -0.0134933 1.03789e-05 -0.00473196 -0.00920729 -0.0756317  
-0.0711879 -0.0134836 -7.42778e-06 -0.00474081 -0.00922744 -0.0756469  
-0.0711856 -0.0134734 -7.51651e-06 -0.00470118 -0.0091853 -0.0756573  
-0.0711913 -0.0134882 -1.59416e-07 -0.00474281 -0.00922577 -0.0756356  
-0.0711889 -0.0134787 4.95117e-08 -0.00470583 -0.00918449 -0.0756461  
-0.0711873 -0.0134798 -7.38763e-06 -0.00472261 -0.00920835 -0.0756501  
-0.0711906 -0.0134846 -3.67134e-08 -0.00472583 -0.00920713 -0.0756389  
-0.0711818 -0.0134826 -1.07345e-05 -0.00473913 -0.00922825 -0.0756562  
 -0.071179 -0.0134722 -1.13033e-05 -0.00470433 -0.00918877 -0.0756681  
-0.0711809 -0.0134788 -1.08808e-05 -0.00472315 -0.00921042   -0.07566  
-0.0711972 -0.0134784 -7.96856e-06 -0.00474366 -0.00922947 -0.0756409  
-0.0711959 -0.0134719 -7.84001e-06 -0.00470986 -0.00919347 -0.0756463  
 -0.071191 -0.0134777 -1.0768e-05 -0.00474166 -0.00923006 -0.0756499  
-0.0711893 -0.0134713 -1.09134e-05 -0.00471157 -0.00919598 -0.0756564  
-0.0711966  -0.013476 -7.85057e-06 -0.00472791 -0.0092133 -0.0756427  
-0.0711903 -0.0134754 -1.07836e-05 -0.00472764 -0.00921483 -0.0756522  
 -0.071202 -0.0134878 6.05343e-06 -0.00474695 -0.00922587 -0.0756206  
-0.0712001 -0.0134821 6.35337e-06 -0.00471808 -0.0091912 -0.0756262  
-0.0712003  -0.013483 -8.7267e-07 -0.00474546 -0.00922769   -0.07563  
-0.0711987 -0.0134769 -6.44897e-07 -0.00471362 -0.00919222 -0.0756353  
-0.0712012 -0.0134857 6.20889e-06 -0.00473356 -0.00921047 -0.0756224  
-0.0711996 -0.0134808 -7.27897e-07 -0.00473065 -0.00921183 -0.0756317  
-0.0711944 -0.0134953 1.33043e-05 -0.00474573 -0.00922412 -0.0756243  
-0.0711921 -0.0134899 1.35657e-05 -0.00472461 -0.00919575 -0.0756313  
-0.0711989 -0.0134918 9.8774e-06 -0.00474671 -0.00922506 -0.0756226  
-0.0711969 -0.0134863 1.01477e-05 -0.00472188 -0.00919307  -0.075629  
-0.0711935 -0.0134933 1.33461e-05 -0.00473606 -0.00921175 -0.0756267  
-0.0711981 -0.0134898 9.97265e-06 -0.00473525 -0.00921097 -0.0756248  
-0.0711816 -0.0134913 1.45511e-06 -0.0047405 -0.00922627 -0.0756441  
-0.0711783 -0.0134862 1.2152e-06 -0.00472339 -0.00920251 -0.0756521  
-0.0711878 -0.0134942 8.02824e-06 -0.0047432 -0.00922505 -0.0756343  
-0.0711851  -0.013489 8.07296e-06 -0.00472436 -0.00919946 -0.0756418  
-0.0711802 -0.0134894 1.29982e-06 -0.00473272 -0.00921602  -0.075647  
-0.0711867 -0.0134923 7.97946e-06 -0.00473461 -0.00921396  -0.075637  
-0.0711815 -0.0134852 -6.26493e-06 -0.00473963 -0.00922835 -0.0756516  
-0.0711784 -0.0134796 -6.66233e-06 -0.00471987 -0.00920101 -0.0756594  
-0.0711802 -0.0134831 -6.44063e-06 -0.00473054 -0.00921639 -0.0756544  
-0.0711333 -0.0134714 -1.52507e-05 -0.0047768 -0.00925374 -0.0757357  
-0.0711482 -0.0134838 -7.13343e-06 -0.00478511 -0.00926157 -0.0757067  
-0.0711604 -0.0134645 -9.59481e-06 -0.00480934 -0.00928648 -0.0757167  
-0.0711419 -0.0134792 -1.39656e-05 -0.00477524 -0.00925551 -0.0757172  
-0.0711531   -0.01346 -1.59113e-05 -0.00479732 -0.00927937 -0.0757273  
-0.0711691 -0.0134723 -9.1302e-06 -0.00479818 -0.00927931 -0.0756946  
-0.0711623 -0.0134691 -1.42351e-05 -0.00478848 -0.00927429 -0.0757046  
-0.0711473  -0.013484 3.41622e-06 -0.00478403 -0.0092563  -0.075713  
-0.0711599 -0.0134946 1.10061e-05 -0.00477686 -0.00925143 -0.0756846  
-0.0711705 -0.0134776 9.56468e-06 -0.00479841 -0.00927697 -0.0756965  
-0.0711547 -0.0134897 2.48314e-06  -0.004782  -0.009257 -0.0756949  
-0.0711661 -0.0134716 4.91609e-07 -0.00480511 -0.00928219 -0.0757055  
-0.0711778  -0.013484 8.49729e-06 -0.00479072 -0.00927149 -0.0756738  
-0.0711741 -0.0134785 3.35519e-08 -0.00479552 -0.00927577 -0.0756833  
-0.0711539 -0.0134906 1.46801e-05 -0.0047662 -0.0092397 -0.0757035  
-0.0711579 -0.0134975 1.61528e-05 -0.00475842 -0.00923491 -0.0756841  
-0.0711673 -0.0134831 1.88216e-05 -0.00477721 -0.00925742 -0.0756969  
-0.0711598 -0.0134964 1.35737e-05 -0.00476787 -0.00924363 -0.0756851  
-0.0711698 -0.0134807 1.40655e-05 -0.00478787 -0.00926818 -0.0756977  
-0.0711736 -0.0134898 1.70986e-05 -0.00477369 -0.00925598 -0.0756748  
-0.0711766 -0.0134872 1.28003e-05 -0.00478231 -0.00926454  -0.075675  
-0.0711451 -0.0134872 9.4263e-06 -0.00474421 -0.00922213 -0.0757102  
-0.0711424 -0.0134888 -5.47529e-07 -0.00474225 -0.00922612 -0.0757037  
-0.0711494 -0.0134742 2.17987e-06 -0.00475852 -0.0092436 -0.0757133  
-0.0711508 -0.0134941 8.78321e-06 -0.00474979 -0.00922968 -0.0756933  
-0.0711591 -0.0134799 1.17991e-05 -0.00476742 -0.00924944 -0.0757047  
-0.0711573 -0.0134825 1.8055e-06 -0.00475876 -0.00924653 -0.0756927  
-0.0711659 -0.0134872 1.05256e-05 -0.00476581 -0.00925033 -0.0756835  
-0.0711306 -0.0134734 -1.22719e-05 -0.00474259 -0.00922807 -0.0757332  
 -0.071138  -0.013482 -1.08744e-05 -0.00474823 -0.00923544 -0.0757156  
-0.0711456 -0.0134655 -1.0445e-05 -0.00476497 -0.00925503 -0.0757253  
-0.0711546 -0.0134748 -9.12428e-06 -0.00476362 -0.00925583 -0.0757034  
-0.0712789 -0.0133733 -2.20529e-05 -0.00489118 -0.00939122  -0.075695  
-0.0713289   -0.01338 -1.93592e-05 -0.00483819 -0.00937512 -0.0756113  
-0.0712726 -0.0133726 -1.96286e-05 -0.00487737 -0.00938782 -0.0757016  
 -0.071324 -0.0133814 -1.50455e-05 -0.00482923 -0.00937452 -0.0756149  
-0.0713055 -0.0133758 -2.06388e-05 -0.00486377 -0.00938266  -0.075653  
-0.0713001 -0.0133762 -1.71003e-05 -0.00485275 -0.00938086  -0.075658  
-0.0712754 -0.0133909 -4.03507e-06 -0.0048845 -0.00940024 -0.0756834  
-0.0713246 -0.0133931 -5.7017e-06 -0.00483642 -0.00938127 -0.0756016  
-0.0712772 -0.0133821 -1.37756e-05 -0.00488946 -0.00939562 -0.0756874  
 -0.071327 -0.0133862 -1.33282e-05 -0.00483852 -0.00937801 -0.0756053  
-0.0713017  -0.013391 -5.00244e-06 -0.00485965 -0.00939009 -0.0756424  
-0.0713038 -0.0133832 -1.35964e-05 -0.00486311 -0.00938622 -0.0756463  
-0.0712692 -0.0134077 2.56887e-05 -0.00487087 -0.0093853 -0.0756881  
-0.0713156 -0.0134096 2.00874e-05 -0.00482824 -0.00937261 -0.0756055  
-0.0712728 -0.0133996 1.05952e-05 -0.00487711 -0.00939571 -0.0756874  
-0.0713205 -0.0134015 7.19233e-06  -0.004832 -0.00937908 -0.0756047  
 -0.071294 -0.0134077 2.26923e-05 -0.00484894 -0.00937856 -0.0756468  
-0.0712983 -0.0133996 8.74961e-06 -0.00485385 -0.00938684  -0.075646  
-0.0712499 -0.0134029 1.72008e-05 -0.0048548 -0.00935988 -0.0756889  
-0.0713036 -0.0134071 1.54191e-05 -0.00481737 -0.00935997 -0.0756063  
-0.0712602 -0.0134072 2.35005e-05 -0.00486346 -0.00937094 -0.0756891  
-0.0713094   -0.01341 1.91411e-05 -0.00482326 -0.00936505 -0.0756067  
-0.0712786 -0.0134041 1.61893e-05 -0.00483596 -0.00936034 -0.0756477  
-0.0712865 -0.0134076 2.11276e-05 -0.00484294 -0.00936801  -0.075648  
-0.0712517 -0.0133895 -6.91536e-07 -0.00485328 -0.00936991 -0.0756962  
-0.0713073 -0.0133963 2.04026e-06 -0.0048155 -0.00936637 -0.0756105  
-0.0712815 -0.0133921 8.19465e-07 -0.00483441 -0.00936842 -0.0756533  
-0.0711411 -0.0134697 -1.08864e-05 -0.00471463 -0.00919152 -0.0757161  
-0.0711492 -0.0134621 1.78113e-06 -0.00470053 -0.00917948 -0.0757162  
 -0.071164 -0.0134778 8.85359e-07 -0.00471525 -0.00919128 -0.0756802  
-0.0711998 -0.0134563 4.29874e-06 -0.00468396 -0.00915901  -0.075656  
-0.0711475 -0.0134518 -1.04508e-05 -0.00469225 -0.00916997 -0.0757256  
-0.0711633   -0.01347 -8.45898e-06 -0.00470881 -0.00918569 -0.0756884  
-0.0712017 -0.0134476 -5.19736e-06 -0.00468006 -0.0091548 -0.0756626  
-0.0711751 -0.0134593 3.07222e-06 -0.00469132 -0.00916743 -0.0756858  
-0.0711753 -0.0134498 -7.67381e-06 -0.0046853 -0.00916062 -0.0756938  
-0.0711529 -0.0134827 8.82889e-06 -0.00471986 -0.0091927 -0.0756957  
-0.0711687 -0.0134694 1.81539e-05 -0.00468971  -0.009159 -0.0756973  
-0.0711803 -0.0134829 1.52264e-05 -0.00471099 -0.00917901 -0.0756593  
-0.0712157  -0.013459 1.57994e-05 -0.00468151 -0.00914606 -0.0756375  
-0.0711595 -0.0134671 1.12632e-05 -0.00469557 -0.00917028 -0.0757068  
-0.0711723 -0.0134814 8.95289e-06 -0.00471368 -0.00918589 -0.0756698  
-0.0712077 -0.0134588 1.09759e-05 -0.00468303 -0.00915334 -0.0756472  
-0.0711927 -0.0134642 1.69561e-05 -0.00468487  -0.009151 -0.0756671  
-0.0711842  -0.013463 1.1113e-05 -0.00468847 -0.00916015 -0.0756767  
 -0.071165 -0.0134825 1.33122e-05 -0.00470598 -0.00917497  -0.075683  
 -0.071175 -0.0134613 9.2569e-06 -0.00466941 -0.00914136 -0.0756897  
-0.0711877 -0.0134752 7.9071e-06 -0.00469674 -0.00916763  -0.075653  
-0.0712253 -0.0134478 3.61434e-06 -0.00467059 -0.00913785 -0.0756298  
-0.0711726 -0.0134657 1.35833e-05 -0.00468028 -0.00914889 -0.0756947  
-0.0711848 -0.0134794 1.16463e-05 -0.00470449 -0.00917255 -0.0756568  
-0.0712211 -0.0134537 9.84285e-06 -0.0046768 -0.00914067 -0.0756343  
-0.0712008 -0.0134545 6.26698e-06 -0.00466934 -0.00913829 -0.0756594  
-0.0711975 -0.0134597 1.16369e-05 -0.00467784 -0.00914333 -0.0756641  
-0.0711637  -0.013473 2.37657e-06 -0.00468578 -0.00916528 -0.0756875  
-0.0711696 -0.0134457 -8.75586e-06 -0.00464903 -0.00913951 -0.0757069  
-0.0711824 -0.0134631 -7.85952e-06 -0.00468258 -0.00916715 -0.0756725  
-0.0712255 -0.0134348 -1.05796e-05 -0.00465902 -0.00914285 -0.0756474  
-0.0711729  -0.013454 6.72075e-07 -0.00465834 -0.00914013 -0.0756967  
-0.0711858 -0.0134693 2.74706e-07 -0.00468895 -0.00916715 -0.0756616  
 -0.071226 -0.0134412 -3.58692e-06 -0.00466404 -0.0091403 -0.0756373  
-0.0711984 -0.0134402 -9.76908e-06 -0.00465354 -0.00914016 -0.0756769  
-0.0712002 -0.0134475 -1.62141e-06 -0.00466061 -0.00913906 -0.0756667  
-0.0711512 -0.0134625 -1.36312e-05 -0.00468548 -0.00917103 -0.0757119  
-0.0711615 -0.0134419 -1.50678e-05 -0.00465887 -0.00914688  -0.075721  
-0.0711751 -0.0134613 -1.24149e-05 -0.00468823 -0.00917204 -0.0756844  
-0.0712184  -0.013435 -1.20345e-05 -0.00466424 -0.00914582 -0.0756581  
-0.0711908 -0.0134385 -1.34547e-05 -0.00466103 -0.00914509 -0.0756892  
-0.0711516 -0.0134617 5.3925e-06 -0.00477984 -0.0092571 -0.0757303  
-0.0711298 -0.0134686 -1.12105e-06 -0.00471876 -0.00919786  -0.075741  
-0.0711478 -0.0134506 -1.02853e-05 -0.00478598 -0.0092703 -0.0757425  
-0.0711226 -0.0134595 -1.44597e-05 -0.00472811 -0.0092103 -0.0757556  
-0.0711376 -0.0134659  2.076e-06 -0.00474897 -0.00922675 -0.0757362  
 -0.071132 -0.0134558 -1.25432e-05 -0.00475675 -0.00923974 -0.0757497  
-0.0711721 -0.0134712 2.18963e-05 -0.00480134 -0.00927747 -0.0757177  
-0.0711462 -0.0134819 1.81053e-05 -0.00474335 -0.00921356 -0.0757256  
-0.0711628  -0.013468 1.5332e-05 -0.00479046 -0.00926618 -0.0757237  
 -0.071139 -0.0134765 9.82987e-06 -0.00473061 -0.00920496 -0.0757323  
-0.0711563 -0.0134773 2.01338e-05 -0.00477217 -0.00924504  -0.075722  
 -0.071148  -0.013473 1.26326e-05 -0.00476029 -0.00923496 -0.0757284  
-0.0711757 -0.0134634 8.2874e-06 -0.00482393 -0.0092991 -0.0757162  
-0.0711455 -0.0134812 1.4619e-05 -0.00476833 -0.00923678 -0.0757283  
-0.0711747 -0.0134676 1.47895e-05 -0.00481252 -0.0092898 -0.0757184  
-0.0711467 -0.0134819 1.60179e-05 -0.0047561 -0.00922544 -0.0757285  
-0.0711578 -0.0134731 1.16225e-05 -0.00479611 -0.00926773 -0.0757226  
-0.0711579 -0.0134755 1.55498e-05 -0.00478422 -0.00925728 -0.0757238  
-0.0711673 -0.0134473 -1.21515e-05 -0.00483777 -0.00930774 -0.0757341  
-0.0711298 -0.0134676 -5.94719e-06 -0.00478395 -0.00925386 -0.0757473  
-0.0711722  -0.013456 -1.43722e-06 -0.00483215 -0.00930375 -0.0757238  
-0.0711385 -0.0134755 5.40422e-06 -0.00477708 -0.00924596 -0.0757369  
-0.0711456 -0.0134583 -9.04108e-06 -0.00481092 -0.00928078 -0.0757413  
-0.0711525 -0.0134665 2.08394e-06 -0.00480464 -0.00927474 -0.0757308  
 -0.071159 -0.0134422 -1.8399e-05 -0.00482367 -0.00929975 -0.0757451  
-0.0711229  -0.013459 -1.67922e-05 -0.00477062 -0.00924321 -0.0757591  
-0.0711379 -0.0134514 -1.77232e-05 -0.00479709 -0.00927135 -0.0757528  
-0.0711394 -0.0134873 -4.94088e-06 -0.00476708 -0.00924257 -0.0757092  
-0.0711344 -0.0134814 -1.31188e-05 -0.00475743 -0.00923576 -0.0757196  
 -0.071146 -0.0134918 -5.52679e-06 -0.00476873 -0.00924646 -0.0756971  
-0.0711408  -0.013487 -1.24764e-05 -0.00476061 -0.00924154 -0.0757072  
-0.0711536 -0.0134968 1.29908e-05 -0.00475894 -0.00923094 -0.0756869  
-0.0711471 -0.0134928 4.74578e-06 -0.00476394 -0.00923737 -0.0756975  
-0.0711584  -0.013501 1.16426e-05 -0.00476313 -0.00923719 -0.0756745  
-0.0711527 -0.0134969 3.6121e-06 -0.00476677 -0.00924229 -0.0756852  
-0.0711546 -0.0134966 1.45041e-05 -0.00474022 -0.00921444 -0.0756845  
 -0.071155 -0.0134971 1.37389e-05 -0.00474992 -0.00922279 -0.0756864  
 -0.071158  -0.013502 1.41819e-05 -0.00474783 -0.00922377 -0.0756732  
-0.0711591 -0.0135018 1.29874e-05 -0.00475579 -0.00923068 -0.0756743  
 -0.071141 -0.0134865 -2.78772e-06 -0.00472331 -0.00920678 -0.0757045  
-0.0711485 -0.0134923 6.68821e-06 -0.00473114 -0.00920992 -0.0756937  
-0.0711445 -0.0134933 -2.18663e-06 -0.00473392 -0.00921823  -0.075694  
-0.0711518 -0.0134984 6.75638e-06 -0.00474035 -0.00922035  -0.075683  
-0.0711353 -0.0134808 -1.20541e-05 -0.0047298 -0.00921543 -0.0757171  
-0.0711397 -0.0134879 -1.08795e-05 -0.00473881 -0.00922564 -0.0757056  
-0.0711425 -0.0134873 -1.90696e-06 -0.00473687 -0.00921355 -0.0757006  
-0.0711395 -0.0134801 -1.10427e-05 -0.00472873 -0.00920695 -0.0757102  
-0.0711559  -0.013487 -5.92179e-07 -0.0047285 -0.00920575 -0.0756831  
-0.0711543   -0.01348 -9.2603e-06 -0.00472214 -0.00920094 -0.0756918  
-0.0711587 -0.0134945 1.46749e-05 -0.00473032 -0.00920054 -0.0756783  
 -0.071151 -0.0134918 7.24165e-06 -0.00473432 -0.00920778 -0.0756892  
-0.0711713 -0.0134928 1.43609e-05 -0.00472491 -0.00919503 -0.0756613  
-0.0711638 -0.0134908 7.67858e-06 -0.00472729 -0.00920101 -0.0756722  
-0.0711628 -0.0134902 1.13684e-05 -0.00471318  -0.009186 -0.0756735  
-0.0711616 -0.0134927 1.3057e-05 -0.00472228 -0.00919282 -0.0756765  
-0.0711771 -0.0134869 9.27785e-06 -0.00471165 -0.00918426 -0.0756562  
 -0.071175 -0.0134901 1.19245e-05 -0.00471883 -0.00918915 -0.0756592  
-0.0711533 -0.0134788 -5.63697e-06 -0.00469707 -0.00918232  -0.075694  
-0.0711588 -0.0134849 3.39923e-06 -0.0047044 -0.0091837 -0.0756827  
-0.0711699 -0.0134758 -6.64544e-06 -0.00469846 -0.00918311 -0.0756766  
-0.0711742 -0.0134816 1.65634e-06 -0.00470444 -0.00918338 -0.0756654  
-0.0711465 -0.0134751 -1.26551e-05 -0.00470363 -0.00918924 -0.0757067  
-0.0711631 -0.0134734 -1.19991e-05 -0.0047033 -0.00918817 -0.0756884  
-0.0712752   -0.01341 -3.14365e-07 -0.00465481 -0.00911917 -0.0756089  
-0.0712395 -0.0134268 7.52744e-06 -0.00465553 -0.00912489 -0.0756351  
-0.0712717  -0.013429 7.87951e-06 -0.00467426 -0.00914289 -0.0755931  
-0.0712433 -0.0134175 -2.33982e-06 -0.00465354 -0.00912132 -0.0756404  
-0.0712762 -0.0134209 -4.63427e-07 -0.00467368 -0.0091428  -0.075597  
-0.0712326 -0.0134434 5.9322e-06 -0.00467983 -0.00915052 -0.0756268  
-0.0712358  -0.013435 -2.98567e-06 -0.00467755 -0.00914825 -0.0756322  
-0.0712765 -0.0134195 1.27828e-05 -0.0046557 -0.00911542 -0.0755984  
-0.0712548  -0.013428 1.65982e-05 -0.00465335 -0.00911049 -0.0756196  
-0.0712837 -0.0134289 1.44419e-05 -0.00467683 -0.00913443 -0.0755791  
-0.0712469 -0.0134285 1.30145e-05 -0.00465457 -0.0091186  -0.075628  
-0.0712772   -0.01343 1.18789e-05 -0.00467568 -0.00913917 -0.0755867  
-0.0712467 -0.0134448 1.51571e-05 -0.00467966 -0.00913971 -0.0756105  
-0.0712394 -0.0134452 1.13866e-05 -0.00467995 -0.00914578 -0.0756192  
-0.0712896 -0.0134114 6.80458e-06 -0.00465404 -0.00910575 -0.0755876  
-0.0712657 -0.0134141 -2.4848e-07 -0.00464413 -0.00910398 -0.0756112  
-0.0712955 -0.0134149 -1.76961e-06 -0.00467329 -0.00913296  -0.075572  
-0.0712607 -0.0134214 8.34669e-06 -0.00464956 -0.00910535 -0.0756163  
-0.0712899 -0.0134222 6.55823e-06 -0.00467573 -0.00913248 -0.0755763  
-0.0712574 -0.0134323 1.10457e-06 -0.00467224 -0.00913477 -0.0756031  
-0.0712525 -0.0134389 8.31055e-06 -0.00467666 -0.00913599 -0.0756074  
-0.0712987 -0.0133971 -8.53167e-06 -0.00464654 -0.00911171 -0.0755888  
-0.0712704 -0.0134002 -1.31938e-05 -0.00463424 -0.00911336 -0.0756263  
-0.0713007  -0.013403 -1.27697e-05 -0.00466796 -0.00914221 -0.0755862  
-0.0712684  -0.013407 -7.11084e-06 -0.00463826 -0.00910875 -0.0756174  
-0.0712986 -0.0134086 -7.71237e-06 -0.00467006 -0.00913769 -0.0755781  
  -0.07126 -0.0134199 -1.15828e-05 -0.00466369 -0.00914186 -0.0756191  
-0.0712592 -0.0134259 -5.52339e-06 -0.0046673 -0.00913835   -0.07561  
-0.0712954  -0.013394 -1.07413e-05 -0.0046477 -0.00911781 -0.0756048  
-0.0712638 -0.0134018 -1.19106e-05 -0.00463982 -0.00911509 -0.0756359  
-0.0712947 -0.0134058 -1.02613e-05 -0.00466979 -0.00914273 -0.0755934  
-0.0712534 -0.0134212 -1.11881e-05 -0.00466738 -0.00914359 -0.0756282  
 -0.071175 -0.0134395 -1.32688e-05 -0.00484656 -0.00931698 -0.0757352  
-0.0711319 -0.0134631 -7.09068e-06 -0.00479611 -0.00926432 -0.0757518  
-0.0711666 -0.0134346 -1.8968e-05 -0.00483206 -0.00930915  -0.075746  
-0.0711245 -0.0134546 -1.77138e-05 -0.0047821 -0.00925356 -0.0757637  
-0.0711505 -0.0134521 -1.01734e-05 -0.00482151 -0.00929044  -0.075744  
-0.0711425 -0.0134454 -1.84571e-05 -0.00480715 -0.00928104 -0.0757555  
-0.0711824 -0.0134563 7.29366e-06 -0.00483255 -0.00930956  -0.075718  
-0.0711468 -0.0134778 1.39408e-05 -0.00477962 -0.00924775 -0.0757334  
-0.0711794 -0.0134485 -2.55744e-06 -0.0048409 -0.00931355 -0.0757251  
-0.0711402 -0.0134716 4.46074e-06 -0.00478885 -0.00925661 -0.0757416  
-0.0711618 -0.0134679 1.07725e-05 -0.00480617 -0.00927826 -0.0757261  
 -0.071157 -0.0134608 1.04246e-06 -0.00481501 -0.00928478 -0.0757338  
-0.0711784 -0.0134651 2.27624e-05 -0.00481014 -0.0092879 -0.0757199  
-0.0711467 -0.0134798 1.93642e-05 -0.00475417 -0.00922381 -0.0757314  
-0.0711811 -0.0134611 1.46962e-05 -0.00482117 -0.00930047 -0.0757206  
-0.0711475 -0.0134791 1.62579e-05 -0.00476708 -0.0092363  -0.075734  
-0.0711597 -0.0134732 2.11889e-05 -0.0047821 -0.00925521  -0.075726  
-0.0711615 -0.0134709 1.5613e-05 -0.00479414 -0.00926787 -0.0757276  
-0.0711573 -0.0134559 6.74055e-06 -0.00478847 -0.00926594 -0.0757312  
 -0.071129 -0.0134665 1.9416e-07 -0.0047289 -0.00920594 -0.0757457  
-0.0711688 -0.0134622 1.65379e-05 -0.00479927 -0.00927578 -0.0757254  
-0.0711389 -0.0134745 1.12641e-05 -0.00474119 -0.00921407 -0.0757376  
-0.0711401  -0.013462 3.41033e-06 -0.00475849 -0.00923503 -0.0757389  
 -0.071151 -0.0134691 1.39503e-05 -0.00477011 -0.00924414 -0.0757319  
-0.0711539 -0.0134441 -9.70859e-06 -0.0047941 -0.00927938 -0.0757432  
-0.0711221 -0.0134566 -1.42689e-05 -0.0047381 -0.00921913 -0.0757603  
-0.0711348 -0.0134511 -1.21488e-05 -0.00476594 -0.00924852 -0.0757523  
-0.0711372  -0.013457 -1.49444e-05 -0.00468646 -0.00917261 -0.0757361  
-0.0711315 -0.0134311 -1.81915e-05 -0.00465632 -0.00914677 -0.0757676  
-0.0711399 -0.0134743 -3.78676e-06 -0.00470309 -0.00918752 -0.0757176  
-0.0711435 -0.0134504 -6.60649e-06 -0.00465947 -0.00914861  -0.075737  
 -0.071129 -0.0134468 -3.35783e-06 -0.0046799 -0.00916361 -0.0757606  
 -0.071133 -0.0134683 -1.3616e-05 -0.00471165 -0.00919737 -0.0757314  
-0.0711347 -0.0134435 -1.6681e-05 -0.00467095 -0.00915896 -0.0757524  
-0.0711199 -0.0134367 -1.74762e-05 -0.00469172 -0.00917681 -0.0757768  
-0.0711346 -0.0134601 -3.55581e-06 -0.00469174 -0.0091754 -0.0757391  
-0.0711267  -0.013452 -1.55433e-05 -0.00470201 -0.00918698 -0.0757541  
-0.0711514 -0.0134705 4.31132e-06 -0.00468705 -0.0091665 -0.0757112  
-0.0711466 -0.0134498 4.18787e-06 -0.00465744 -0.00914042  -0.075743  
-0.0711529 -0.0134867 1.45835e-05 -0.00472364 -0.00919642 -0.0756989  
-0.0711531 -0.0134673 1.32209e-05 -0.00468496 -0.00915711 -0.0757218  
-0.0711431 -0.0134645 1.73725e-05 -0.00470978 -0.00918015 -0.0757487  
-0.0711472 -0.0134813 6.2932e-06 -0.00471264 -0.00919129 -0.0757071  
-0.0711492 -0.0134598 4.18436e-06 -0.00467154 -0.00915245 -0.0757278  
-0.0711373  -0.013457 8.42033e-06 -0.00469448 -0.00917141 -0.0757531  
-0.0711481 -0.0134751 1.60164e-05 -0.00471687 -0.00918816 -0.0757239  
-0.0711424 -0.0134688 7.37465e-06 -0.00470377 -0.00918119 -0.0757302  
-0.0711545 -0.0134797 1.47749e-05 -0.00471098 -0.00918029 -0.0757079  
-0.0711489 -0.0134617 1.64725e-05 -0.00468612 -0.00915664  -0.075744  
-0.0711507 -0.0134886 1.4887e-05 -0.00474575 -0.00921614 -0.0757029  
-0.0711489 -0.0134728 1.8778e-05 -0.00470944 -0.00917946 -0.0757284  
-0.0711406 -0.0134669 1.83019e-05 -0.00473711 -0.00920631 -0.0757537  
-0.0711527  -0.013488 1.46097e-05 -0.00473512 -0.00920609 -0.0757019  
-0.0711518 -0.0134704 1.56508e-05 -0.00469779 -0.00916737 -0.0757267  
-0.0711426 -0.0134661 1.72564e-05 -0.00472385 -0.00919284 -0.0757533  
-0.0711458 -0.0134773 1.65637e-05 -0.00474167 -0.00921113 -0.0757284  
-0.0711478 -0.0134766 1.59363e-05 -0.00472968 -0.00919939 -0.0757277  
-0.0711428 -0.0134783 8.9682e-06 -0.00472884 -0.00920153 -0.0757193  
-0.0711362 -0.0134601 1.23858e-05 -0.00470835 -0.00918465  -0.075753  
-0.0711342 -0.0134785 -3.84359e-06 -0.00475694 -0.00923174 -0.0757241  
-0.0711286  -0.013462 -1.31622e-07 -0.00472529 -0.00920303 -0.0757459  
 -0.071121 -0.0134523 -2.85606e-06 -0.00475725 -0.00923069 -0.0757692  
-0.0711431 -0.0134846 6.49035e-06 -0.00475226 -0.00922475  -0.075713  
-0.0711397 -0.0134689 1.08036e-05 -0.00471786 -0.00919216 -0.0757368  
-0.0711319 -0.0134612 9.30524e-06 -0.00474779 -0.00921926 -0.0757607  
-0.0711279 -0.0134649 -3.36171e-06 -0.00475741 -0.0092312 -0.0757467  
-0.0711378 -0.0134724 7.8648e-06 -0.00475028 -0.00922193 -0.0757369  
-0.0711288 -0.0134629 -1.311e-05 -0.00472367 -0.00919973 -0.0757403  
-0.0711196 -0.0134391 -1.48547e-05 -0.00470537 -0.00918344 -0.0757726  
-0.0711293 -0.0134709 -1.37773e-05 -0.00474602 -0.00922271 -0.0757349  
-0.0711244 -0.0134505 -1.39578e-05 -0.00471424 -0.00919112  -0.075757  
-0.0711145 -0.0134401 -1.75058e-05 -0.0047432 -0.00921676 -0.0757815  
-0.0711222  -0.013455 -1.56325e-05 -0.00474501 -0.00921988 -0.0757582  
-0.0712054 -0.0134792 3.84184e-06 -0.0047483 -0.0092449 -0.0756312  
-0.0712065 -0.0134722 -4.66955e-06 -0.00474859 -0.00924894  -0.075638  
-0.0711787 -0.0134909 1.62779e-06 -0.00474783 -0.00923982 -0.0756508  
-0.0711782 -0.0134846 -6.58787e-06 -0.00474835 -0.00924376 -0.0756589  
-0.0712182 -0.0134826 1.41856e-05 -0.00475571 -0.00924568 -0.0756143  
-0.0712116  -0.013482 9.76804e-06  -0.004752 -0.00924487  -0.075623  
-0.0711919 -0.0134954 1.39509e-05 -0.00475524 -0.00924045 -0.0756315  
-0.0711852 -0.0134941 8.50123e-06 -0.00475147 -0.00923974 -0.0756412  
-0.0712272  -0.013473 3.80138e-06 -0.00476085 -0.00925081 -0.0756104  
-0.0712233 -0.0134781 9.15333e-06 -0.00475852 -0.00924865 -0.0756127  
-0.0711989 -0.0134883 6.29714e-06 -0.0047607 -0.00924569 -0.0756286  
-0.0711962 -0.0134921 1.0301e-05 -0.00475824 -0.0092434 -0.0756303  
-0.0712246 -0.0134628 -9.81427e-06 -0.00476012 -0.00925461 -0.0756289  
-0.0712266 -0.0134677 -3.03902e-06 -0.00476095 -0.00925278 -0.0756188  
-0.0711935 -0.0134786 -8.3024e-06 -0.00476001 -0.00924985 -0.0756491  
-0.0711968 -0.0134834 -8.93377e-07 -0.0047608 -0.00924786 -0.0756381  
-0.0712183 -0.0134629 -1.12128e-05 -0.00475603 -0.00925421 -0.0756369  
-0.0711873 -0.0134776 -1.1321e-05 -0.00475594 -0.00924924  -0.075658  
-0.0711789 -0.0134172 -7.10753e-06 -0.00482981 -0.0093185  -0.075748  
-0.0712013 -0.0134381 1.08037e-05 -0.00481763 -0.00930934 -0.0757012  
-0.0711882 -0.0134071 1.84573e-05 -0.00486122 -0.00932013 -0.0757604  
-0.0712009 -0.0134262 -5.43745e-06 -0.00482043 -0.00932127 -0.0757108  
-0.0711858 -0.0133898 -5.43191e-06 -0.00486074 -0.00933398 -0.0757714  
-0.0712226 -0.0134079 1.70483e-05 -0.00485293 -0.00934032 -0.0757189  
-0.0712227 -0.0133931 -2.90449e-06 -0.00485225  -0.009352 -0.0757278  
-0.0711937 -0.0134373 2.15794e-05 -0.00483785 -0.00931733 -0.0757343  
-0.0712213 -0.0134445 2.32306e-05 -0.00483515   -0.00933 -0.0756931  
-0.0712137 -0.0134162 3.03304e-05 -0.00488599 -0.00936027 -0.0757621  
-0.0712119  -0.013443 1.87489e-05 -0.00482645 -0.0093184 -0.0756975  
-0.0712028 -0.0134139 2.71654e-05 -0.00487471 -0.00933894 -0.0757617  
-0.0712442 -0.0134147 2.7267e-05 -0.00487249 -0.00937065 -0.0757185  
-0.0712345 -0.0134133 2.44528e-05 -0.00486346 -0.00935399 -0.0757193  
-0.0712071 -0.0134335 1.42452e-05 -0.00485862 -0.00934661 -0.0757315  
-0.0712277 -0.0134318 1.89456e-06 -0.00485331 -0.00934782 -0.0756894  
-0.0712165  -0.013401 3.98931e-07 -0.00490555 -0.00938195 -0.0757575  
-0.0712251 -0.0134385 1.23512e-05 -0.00484391 -0.00934135 -0.0756929  
-0.0712155 -0.0134089 1.46882e-05 -0.00489509 -0.0093741 -0.0757621  
-0.0712491 -0.0133989 -1.85254e-06 -0.00488875 -0.00938838  -0.075714  
-0.0712471 -0.0134071 1.23159e-05 -0.00488002 -0.00938244 -0.0757182  
-0.0712078 -0.0134176 -7.43408e-06 -0.00487816 -0.0093552 -0.0757331  
-0.0712258 -0.0134152 -1.67655e-05 -0.00486349 -0.00934891  -0.075705  
-0.0712167 -0.0133777 -2.25266e-05 -0.00492026 -0.00937613 -0.0757685  
-0.0712273 -0.0134237 -7.41757e-06 -0.00485997 -0.00934845 -0.0756957  
-0.0712165 -0.0133901 -1.13627e-05 -0.00491441 -0.00937906 -0.0757607  
-0.0712508 -0.0133791 -2.18063e-05 -0.00489887 -0.00938147 -0.0757257  
  -0.07125 -0.0133894 -1.23311e-05 -0.00489536 -0.00938488 -0.0757179  
-0.0711975 -0.0134032 -2.1283e-05 -0.00486758 -0.00934851 -0.0757521  
-0.0712181  -0.013413 -1.82451e-05 -0.00485036 -0.00934381 -0.0757136  
-0.0712083 -0.0133725 -2.5059e-05 -0.00490107 -0.00936843 -0.0757784  
-0.0712437 -0.0133764 -2.15331e-05 -0.0048831 -0.00937637 -0.0757336  
-0.0711614  -0.013439 9.89636e-06 -0.00480542 -0.00927859 -0.0757476  
-0.0711578 -0.0134251 -9.48832e-06 -0.00481053 -0.00929371 -0.0757601  
-0.0711584 -0.0134184 1.58159e-05 -0.00483115 -0.0092837 -0.0757772  
-0.0711533 -0.0134001 -9.28108e-06 -0.00483275 -0.00929882 -0.0757901  
-0.0711847 -0.0134489 2.56932e-05 -0.00482995 -0.00930702 -0.0757405  
-0.0711743 -0.0134458 1.9936e-05 -0.00481792 -0.00929161  -0.075744  
-0.0711838 -0.0134309 2.99218e-05 -0.00486067 -0.00932511 -0.0757791  
-0.0711731  -0.013427 2.56657e-05 -0.00484715 -0.00930363 -0.0757784  
-0.0711883 -0.0134385 6.01275e-06 -0.00485332 -0.0093306 -0.0757381  
-0.0711872  -0.013444 1.53616e-05 -0.00484134 -0.00932123 -0.0757414  
-0.0711854 -0.0134186 4.84974e-06 -0.00488312 -0.00934947 -0.0757761  
 -0.071185  -0.013425 1.65255e-05 -0.00487137 -0.00933979 -0.0757802  
-0.0711822 -0.0134191 -1.58196e-05 -0.00486941 -0.00933629 -0.0757532  
-0.0711859 -0.0134296 -4.45714e-06 -0.00486287 -0.00933364 -0.0757439  
-0.0711817 -0.0133944 -1.92095e-05 -0.00490199 -0.00935144 -0.0757865  
-0.0711838 -0.0134077 -6.93537e-06 -0.00489374 -0.00935048 -0.0757791  
-0.0711733 -0.0134136 -2.13521e-05 -0.00485298 -0.00932754 -0.0757641  
-0.0711722 -0.0133859 -2.59748e-05 -0.00488177 -0.00934149 -0.0757976  
-0.0711765 -0.0134528 -1.30622e-05 -0.00467298 -0.00915784 -0.0756916  
-0.0711653 -0.0134585 -7.38836e-06 -0.00467038 -0.0091572 -0.0756996  
-0.0711683 -0.0134726 -6.87362e-06 -0.00469033 -0.00917561 -0.0756807  
-0.0711574 -0.0134549 -1.39954e-05 -0.00467875 -0.00916437 -0.0757131  
-0.0711613 -0.0134701 -1.23681e-05 -0.00469605 -0.00918113 -0.0756929  
-0.0711541 -0.0134738 -5.49654e-06 -0.00469506 -0.00918022 -0.0756999  
-0.0711471 -0.0134696 -1.30669e-05 -0.00470224 -0.00918776 -0.0757129  
 -0.071187 -0.0134615 -2.6667e-07 -0.0046731 -0.00915236 -0.0756683  
-0.0711725 -0.0134723 1.01068e-05 -0.00468928 -0.00916079 -0.0756811  
-0.0711754 -0.0134842 9.35454e-06 -0.00470466 -0.00917686 -0.0756604  
-0.0711696 -0.0134659 1.84102e-06 -0.00467901 -0.00915864  -0.075689  
-0.0711725 -0.0134786 1.59165e-06 -0.00469679 -0.0091759 -0.0756694  
-0.0711639 -0.0134859 1.18573e-05 -0.00471253 -0.00918514 -0.0756803  
-0.0711598 -0.0134804 3.78557e-06 -0.00470307 -0.0091822 -0.0756889  
-0.0711854 -0.0134725 1.19276e-05 -0.0046906 -0.00915802 -0.0756645  
-0.0711664 -0.0134791 1.6644e-05 -0.00470873 -0.00917735 -0.0756877  
-0.0711695 -0.0134904 1.48403e-05 -0.00471943 -0.00918899 -0.0756659  
-0.0711702  -0.013476 1.33153e-05 -0.00469963 -0.00916818 -0.0756853  
-0.0711733 -0.0134876  1.218e-05 -0.00471264 -0.0091823 -0.0756637  
-0.0711599   -0.01349 1.50091e-05 -0.00473094  -0.009201 -0.0756851  
-0.0711628 -0.0134883 1.34169e-05 -0.00472225 -0.00919263 -0.0756835  
-0.0711723 -0.0134751 9.90537e-06 -0.00470137 -0.00917383 -0.0756777  
-0.0711483 -0.0134719 1.85593e-07 -0.00471772 -0.00919405  -0.075708  
-0.0711534 -0.0134845 -4.07107e-07 -0.00472409 -0.00920119 -0.0756877  
-0.0711578 -0.0134767 9.52308e-06 -0.00471386 -0.00918664 -0.0756977  
-0.0711617 -0.0134884 8.06911e-06 -0.00472236 -0.0091958 -0.0756768  
-0.0711435 -0.0134821 -1.98434e-06 -0.00473885 -0.00921497 -0.0757066  
-0.0711522 -0.0134871 7.43237e-06 -0.00473564 -0.00920875 -0.0756956  
-0.0711629 -0.0134627 -8.50416e-06 -0.00469686 -0.00917351 -0.0756961  
-0.0711462 -0.0134629 -1.0684e-05 -0.00470903 -0.00918549 -0.0757174  
-0.0711517 -0.0134771 -9.47261e-06 -0.00471727 -0.00919558 -0.0756965  
-0.0711403 -0.0134745 -1.15679e-05 -0.00473004 -0.00920758 -0.0757164  
-0.0711989 -0.0134587 -8.59816e-06 -0.00468433 -0.0091691 -0.0756572  
-0.0711917 -0.0134579 -1.18234e-05 -0.00468862 -0.0091727 -0.0756683  
-0.0711823 -0.0134718 -7.35579e-06 -0.00469855 -0.00918355 -0.0756646  
-0.0711755 -0.0134702 -1.16379e-05 -0.00470235 -0.00918754 -0.0756757  
-0.0712022 -0.0134705 6.21066e-06 -0.00469609 -0.00916746  -0.075638  
-0.0712012 -0.0134646 -1.08679e-06 -0.0046896 -0.00916814 -0.0756465  
-0.0711879 -0.0134827 7.86688e-06   -0.00471 -0.00918313 -0.0756444  
-0.0711858 -0.0134774 4.77084e-07 -0.00470374 -0.00918312 -0.0756535  
-0.0711937 -0.0134794 1.48411e-05 -0.00470716 -0.00917584 -0.0756445  
-0.0711987 -0.0134753 1.06536e-05 -0.00470226 -0.00917087 -0.0756418  
 -0.071181 -0.0134897 1.42189e-05 -0.00472083 -0.0091916 -0.0756498  
-0.0711852 -0.0134866 1.11814e-05 -0.00471598 -0.00918683 -0.0756474  
-0.0711783 -0.0134755  1.948e-06 -0.00470913 -0.00918642 -0.0756648  
 -0.071186 -0.0134785 9.23317e-06 -0.00470858 -0.00918175 -0.0756549  
 -0.071166 -0.0134849 3.7589e-07 -0.00472261 -0.0092011 -0.0756711  
-0.0711736 -0.0134883 8.06428e-06 -0.00472221 -0.00919688 -0.0756605  
-0.0711786 -0.0134677 -6.97666e-06 -0.00470418 -0.00918244 -0.0756722  
-0.0711652 -0.0134779 -8.08487e-06 -0.00471737 -0.00919741 -0.0756791  
-0.0711841 -0.0134106 -1.66703e-05 -0.00461806 -0.00911049 -0.0757244  
-0.0712437 -0.0133898 -1.4216e-05 -0.00460761 -0.00909112 -0.0756748  
-0.0711895 -0.0134346 -1.02927e-05 -0.0046367 -0.00912881 -0.0756938  
-0.0712192 -0.0134026 -1.35102e-05 -0.00460121 -0.00909637 -0.0756892  
-0.0712234   -0.01343 -1.07016e-05 -0.00465085 -0.00913505 -0.0756542  
-0.0712602 -0.0133981 -1.37494e-05 -0.00461831 -0.00910478 -0.0756428  
-0.0711815 -0.0134321 -1.47507e-05 -0.00464608 -0.00913475 -0.0757072  
-0.0712115 -0.0134008 -1.55828e-05 -0.00461193 -0.00910108 -0.0757022  
-0.0712161 -0.0134298 -1.24903e-05 -0.00465702 -0.00913848 -0.0756653  
-0.0712534 -0.0133992 -1.2791e-05 -0.0046253 -0.00910694 -0.0756532  
-0.0712219 -0.0134173 -1.1962e-05 -0.0046281 -0.00911704 -0.0756699  
-0.0712144 -0.0134165 -1.38506e-05 -0.00463647 -0.00912113 -0.0756819  
-0.0711932 -0.0134239 -2.94136e-06 -0.00461621 -0.00910266 -0.0757008  
 -0.071248  -0.013398 -7.70241e-06 -0.0046042 -0.00908252 -0.0756542  
-0.0711919 -0.0134505 6.86989e-06 -0.0046553 -0.00912738  -0.075677  
-0.0712167 -0.0134205 3.35117e-06 -0.0046192 -0.00908946 -0.0756745  
-0.0712233 -0.0134436 3.92761e-06 -0.00466376 -0.0091305 -0.0756369  
-0.0712551 -0.0134133 8.79445e-08 -0.00462981 -0.00909448 -0.0756276  
-0.0711912 -0.0134429 -1.51216e-06 -0.00464509 -0.00912791 -0.0756837  
-0.0712182 -0.0134119 -5.17673e-06 -0.00460912 -0.00909289   -0.07568  
-0.0712239 -0.0134368 -3.4612e-06 -0.00465646 -0.00913271 -0.0756442  
-0.0712579 -0.0134056 -7.22233e-06 -0.00462305 -0.0090997 -0.0756337  
-0.0712207 -0.0134328 3.66027e-06 -0.00464322 -0.00911126 -0.0756538  
-0.0712217 -0.0134252 -4.25447e-06 -0.00463471 -0.00911409 -0.0756602  
-0.0711899 -0.0134388 1.32723e-05 -0.00463889 -0.00910803 -0.0757018  
-0.0712407  -0.013414 9.97238e-06 -0.00461991 -0.00907951 -0.0756548  
-0.0711845 -0.0134605 1.84014e-05 -0.00467344 -0.00914279 -0.0756853  
-0.0712083 -0.0134333 2.03374e-05 -0.00463623  -0.009104 -0.0756841  
-0.0712139 -0.0134547 1.63389e-05 -0.00467639 -0.00914024 -0.0756448  
-0.0712447 -0.0134274 1.77068e-05 -0.00464056 -0.00910263 -0.0756367  
-0.0711889 -0.0134558 1.25714e-05 -0.00466516 -0.00913352 -0.0756823  
-0.0712131 -0.0134273 1.17825e-05 -0.00462861 -0.00909434 -0.0756807  
-0.0712192 -0.0134495 1.02397e-05 -0.00467083 -0.00913395 -0.0756416  
-0.0712504 -0.0134207 9.03715e-06 -0.00463606 -0.00909644 -0.0756332  
-0.0712118 -0.0134447 1.81231e-05 -0.00465786 -0.00912325 -0.0756624  
-0.0712169 -0.0134391 1.09268e-05 -0.00465137 -0.00911543 -0.0756591  
-0.0711756 -0.0134424 1.49913e-05 -0.00465457 -0.00913338  -0.075713  
-0.0712263  -0.013421 1.54255e-05 -0.00462918 -0.00909963 -0.0756663  
-0.0711651 -0.0134546 3.57101e-06 -0.00468273 -0.00916309 -0.0757034  
-0.0711881 -0.0134285 7.25115e-06 -0.00464664 -0.00912828  -0.075699  
-0.0711974 -0.0134515 4.33732e-06 -0.00468021 -0.00915462  -0.075663  
 -0.071228 -0.0134257 7.8561e-06 -0.00464458 -0.00911994 -0.0756522  
-0.0711752 -0.0134589 1.22756e-05 -0.0046784  -0.009154 -0.0756946  
-0.0711987 -0.0134324 1.52531e-05 -0.00464145 -0.00911736  -0.075692  
-0.0712057 -0.0134543 1.13313e-05 -0.00467862 -0.00914834 -0.0756543  
-0.0712363 -0.0134278 1.3861e-05 -0.00464261 -0.00911233 -0.0756451  
-0.0711935 -0.0134408 5.59732e-06 -0.00466478 -0.00914221 -0.0756793  
-0.0712029 -0.0134441 1.30686e-05 -0.00466148 -0.0091338 -0.0756712  
 -0.071164 -0.0134248 -8.652e-06 -0.0046541 -0.00913451 -0.0757293  
-0.0712201  -0.013407 -3.47948e-06 -0.0046305 -0.00910293 -0.0756795  
-0.0711649  -0.013444 -8.5841e-06 -0.00467598 -0.0091545  -0.075712  
-0.0711897 -0.0134163 -6.27612e-06  -0.004642 -0.00911948 -0.0757069  
-0.0711991 -0.0134425 -5.61948e-06 -0.0046757 -0.00914941 -0.0756699  
-0.0712317 -0.0134155 -2.88476e-06 -0.00464245 -0.00911528 -0.0756579  
-0.0711952 -0.0134305 -5.89024e-06 -0.0046603 -0.00913544 -0.0756866  
-0.0712883 -0.0134268 -5.38272e-08 -0.00476689 -0.00929995 -0.0755859  
-0.0712805 -0.0134448 8.90567e-06 -0.00474641   -0.00926 -0.0755721  
-0.0713342 -0.0134117 1.41539e-05 -0.00478226 -0.00932354 -0.0755411  
-0.0712839 -0.0134368 -2.63157e-07 -0.0047462 -0.00926439 -0.0755762  
-0.0713382 -0.0134023 3.13461e-06 -0.00478055 -0.00932825 -0.0755435  
-0.0713377 -0.0134161 1.26404e-05 -0.00475542 -0.00927684 -0.0755252  
-0.0713417 -0.0134076 2.82703e-06 -0.00475435 -0.00928113 -0.0755274  
-0.0712897 -0.0134378 1.38391e-05 -0.00477175 -0.00929617 -0.0755786  
-0.0712903 -0.0134463 1.43851e-05 -0.00475469 -0.00926192 -0.0755628  
-0.0713422 -0.0134128 1.63362e-05 -0.0047918 -0.00932977 -0.0755406  
-0.0712849 -0.0134467 1.24059e-05 -0.00475072 -0.00926052 -0.0755682  
-0.0713377 -0.0134136 1.62752e-05 -0.00478752 -0.00932597 -0.0755416  
-0.0713452 -0.0134167 1.47971e-05 -0.00476436 -0.00928021 -0.0755226  
-0.0713408 -0.0134176 1.45998e-05 -0.00476032 -0.00927809 -0.0755246  
 -0.071301 -0.0134308 6.80426e-06 -0.00477977 -0.00930376 -0.0755732  
-0.0713013 -0.0134331 -1.67833e-06 -0.00475968 -0.00926699 -0.0755587  
-0.0713524 -0.0133972 -5.88028e-06 -0.00479708 -0.0093352 -0.0755375  
-0.0712962 -0.0134399 6.47037e-06 -0.00475733 -0.0092651 -0.0755616  
-0.0713475 -0.0134051 5.28822e-06 -0.00479435 -0.0093338 -0.0755399  
-0.0713559 -0.0134017 -5.19621e-06 -0.00476875 -0.00928481 -0.0755195  
-0.0713507 -0.0134093 4.89224e-06 -0.00476662 -0.00928331 -0.0755218  
-0.0713076 -0.0134179 -8.63896e-06 -0.0047847 -0.00930652 -0.0755758  
-0.0713037 -0.0134226 -1.30971e-05 -0.00475945 -0.00926984 -0.0755717  
-0.0713567 -0.0133864 -1.7067e-05 -0.00479728 -0.00933334 -0.0755452  
-0.0713032 -0.0134275 -7.66353e-06 -0.00476009 -0.00926841 -0.0755645  
-0.0713551 -0.0133913 -1.22179e-05 -0.00479794 -0.00933411 -0.0755406  
-0.0713602 -0.0133915 -1.55519e-05 -0.00476876 -0.00928608 -0.0755275  
-0.0713587 -0.0133961 -1.10374e-05 -0.00476924 -0.00928536 -0.0755229  
-0.0713026 -0.0134142 -1.19506e-05 -0.00477825 -0.0093068 -0.0755872  
-0.0712981 -0.0134244 -1.09495e-05 -0.00475476 -0.00926981 -0.0755764  
-0.0713522 -0.0133886 -1.24801e-05 -0.00479078 -0.00933369 -0.0755472  
-0.0713556 -0.0133941 -1.12817e-05 -0.00476353 -0.00928643 -0.0755298  
-0.0712372 -0.0134544 -1.12143e-05 -0.00476399 -0.00926605 -0.0756216  
-0.0712191 -0.0134627 -1.02934e-05 -0.00477997 -0.00927438 -0.0756386  
-0.0712373 -0.0134578 -1.00811e-05 -0.00475337 -0.00924634  -0.075616  
-0.0712127 -0.0134623 -1.19349e-05  -0.004774 -0.00927299 -0.0756466  
 -0.071231 -0.0134583 -1.0858e-05   -0.00475 -0.00924637 -0.0756236  
-0.0712076 -0.0134718 -8.96175e-06 -0.00475985 -0.00925099 -0.0756392  
-0.0712013 -0.0134713 -1.12329e-05 -0.00475588 -0.00925056 -0.0756477  
-0.0712447 -0.0134587 -4.36347e-06 -0.00476927 -0.00926479 -0.0756051  
-0.0712223 -0.0134732 4.03535e-06 -0.00477817 -0.00927003   -0.07562  
-0.0712387 -0.0134679 2.88872e-06  -0.004755 -0.00924265 -0.0755984  
-0.0712214 -0.0134678 -3.1353e-06 -0.0047798 -0.00927233 -0.0756284  
-0.0712387 -0.0134625 -3.67991e-06 -0.00475453 -0.00924453 -0.0756064  
-0.0712116 -0.0134817 5.15385e-06 -0.00476071 -0.00924705 -0.0756196  
-0.0712103 -0.0134766 -1.86157e-06 -0.00476072 -0.0092491 -0.0756286  
-0.0712403 -0.0134697 8.46441e-06  -0.004766 -0.00926066 -0.0755998  
-0.0712139 -0.0134826 1.50672e-05 -0.00476911 -0.00926171 -0.0756232  
-0.0712289 -0.0134781 1.38479e-05 -0.00475142 -0.00923875 -0.0756027  
-0.0712188 -0.0134782 9.68057e-06 -0.00477378 -0.00926654  -0.075622  
-0.0712344 -0.0134733 8.53185e-06 -0.00475349  -0.009241 -0.0756009  
-0.0712037   -0.01349 1.40107e-05 -0.00475564 -0.00924208  -0.075623  
-0.0712084 -0.0134861 9.75334e-06 -0.00475844 -0.00924491 -0.0756216  
-0.0712285 -0.0134744 1.05957e-05 -0.00475892 -0.00925587  -0.075609  
-0.0712005 -0.0134786 4.13219e-06 -0.00475976 -0.00925835 -0.0756395  
-0.0712169 -0.0134754 4.44757e-06 -0.00474465 -0.00923899 -0.0756187  
-0.0712071 -0.0134817 1.04442e-05 -0.00476429 -0.00925937 -0.0756316  
-0.0712226 -0.0134779 9.87485e-06 -0.0047481 -0.00923855 -0.0756111  
-0.0711908  -0.013486 2.61403e-06 -0.00474831 -0.00924156 -0.0756412  
-0.0711971  -0.013489 9.03941e-06 -0.00475195 -0.00924144 -0.0756323  
-0.0712246 -0.0134646 -3.48232e-06 -0.00475532 -0.00926014 -0.0756221  
-0.0712012 -0.0134714 -5.0546e-06 -0.00476137 -0.00926423 -0.0756469  
-0.0712185 -0.0134683 -3.86879e-06 -0.00474444 -0.00924239 -0.0756249  
 -0.071191 -0.0134794 -5.69831e-06 -0.00474865 -0.00924543 -0.0756486  
-0.0711995 -0.0133976 -2.18946e-05 -0.0048735  -0.009352 -0.0757562  
-0.0712183 -0.0133744 -2.29946e-05 -0.00492403 -0.00937829 -0.0757708  
 -0.071185 -0.0134147 -1.64603e-05 -0.00487463 -0.00934023 -0.0757558  
-0.0712099 -0.0133691 -2.54231e-05 -0.00490457 -0.00937061 -0.0757807  
-0.0711761  -0.013409 -2.18114e-05 -0.00485785 -0.00933146 -0.0757666  
-0.0711827 -0.0133918 -1.95944e-05 -0.00490528 -0.00935345 -0.0757884  
-0.0711732 -0.0133833 -2.63064e-05 -0.00488482 -0.00934351 -0.0757995  
-0.0712095 -0.0134125 -8.06246e-06 -0.00488437 -0.00935919 -0.0757375  
-0.0712177  -0.013398 8.45319e-08 -0.00490929 -0.00938483 -0.0757602  
-0.0711905 -0.0134345 5.55242e-06 -0.00485843 -0.0093354 -0.0757412  
-0.0712179  -0.013387 -1.18087e-05 -0.00491816 -0.00938157 -0.0757631  
-0.0711883 -0.0134254 -5.04582e-06 -0.00486805 -0.00933798 -0.0757467  
-0.0711862 -0.0134164 4.60584e-06 -0.00488633 -0.00935201 -0.0757783  
-0.0711847 -0.0134054 -7.28603e-06 -0.00489698 -0.00935274 -0.0757811  
-0.0712087 -0.0134289 1.43172e-05 -0.00486479 -0.00935112 -0.0757365  
-0.0712151 -0.0134136 3.0707e-05 -0.00488996 -0.00936321 -0.0757648  
 -0.071187 -0.0134454 2.62483e-05 -0.00483529 -0.00931185 -0.0757438  
-0.0712168 -0.0134061 1.46953e-05 -0.00489892 -0.00937702 -0.0757649  
-0.0711894 -0.0134403 1.53819e-05 -0.00484653 -0.00932615 -0.0757447  
-0.0711846 -0.0134289 3.02628e-05 -0.00486403 -0.00932767 -0.0757814  
-0.0711858  -0.013423 1.65521e-05 -0.00487463 -0.00934236 -0.0757825  
-0.0711954 -0.0134329 2.2503e-05 -0.00484404 -0.00932087 -0.0757387  
-0.0711895 -0.0134043 1.91071e-05 -0.00486498 -0.00932203 -0.0757624  
-0.0711633 -0.0134354  1.074e-05 -0.00481046 -0.00928202 -0.0757499  
-0.0712042 -0.0134112 2.77388e-05 -0.00487864 -0.00934136  -0.075764  
-0.0711765 -0.0134423 2.07053e-05 -0.00482321 -0.00929576 -0.0757469  
 -0.071159 -0.0134163 1.63753e-05 -0.0048343 -0.00928533 -0.0757788  
-0.0711739  -0.013425 2.61657e-05 -0.00485047 -0.00930573 -0.0757803  
-0.0711803 -0.0134121 -6.86321e-06 -0.00483518 -0.00932119 -0.0757517  
 -0.071187 -0.0133868 -5.20233e-06 -0.00486412 -0.00933581 -0.0757733  
-0.0711597 -0.0134211 -9.23003e-06 -0.00481513 -0.00929718 -0.0757623  
-0.0711539 -0.0133978 -9.1253e-06 -0.00483559 -0.00930044 -0.0757918  
-0.0711747 -0.0134496 8.13085e-06 -0.00479937 -0.00928239 -0.0757169  
-0.0711726  -0.013438 -7.91308e-06 -0.00480372 -0.00929498 -0.0757278  
-0.0711951 -0.0134575 2.26678e-05 -0.00481896 -0.00930329 -0.0757066  
-0.0711858 -0.0134552  1.714e-05 -0.00480918 -0.00929163 -0.0757118  
-0.0712001 -0.0134473 5.16486e-06 -0.00483927 -0.00932312  -0.075704  
-0.0711983 -0.0134527 1.36505e-05 -0.00482889 -0.00931514 -0.0757068  
-0.0711949 -0.0134309 -1.44973e-05 -0.00485126 -0.00932779 -0.0757207  
-0.0711981 -0.0134395 -4.43713e-06 -0.00484667 -0.00932567 -0.0757109  
-0.0711869 -0.0134272 -1.84403e-05 -0.00483753 -0.00932121 -0.0757306  
-0.0712071 -0.0133829 -1.64845e-05 -0.00455989 -0.00907357 -0.0757237  
-0.0711387 -0.0134124 -9.4931e-06 -0.00460554 -0.00910888 -0.0757812  
-0.0711664 -0.0134265 -9.73621e-06 -0.00462525 -0.00912017 -0.0757309  
-0.0711996 -0.0133787 -1.92331e-05 -0.00457488 -0.00907969 -0.0757382  
-0.0711288 -0.0134006 -2.23305e-05 -0.00462129 -0.00912069 -0.0757981  
-0.0711574 -0.0134207 -1.74953e-05 -0.00463753 -0.00912887 -0.0757462  
-0.0711696 -0.0133992 -1.31591e-05 -0.00458599   -0.00909 -0.0757548  
-0.0711609  -0.013391 -2.10449e-05 -0.00460176 -0.00909907 -0.0757706  
-0.0712028 -0.0134053 3.15902e-06 -0.00458121 -0.00906226 -0.0757122  
-0.0711447 -0.0134375 1.30841e-05 -0.0046384 -0.00911677 -0.0757752  
-0.0711712 -0.0134454 9.82905e-06 -0.00465048 -0.00912378  -0.075717  
-0.0712047 -0.0133948 -6.93934e-06 -0.00456963 -0.00906778 -0.0757156  
-0.0711422 -0.0134267 2.76376e-06 -0.00462197 -0.00911271 -0.0757761  
-0.0711695 -0.0134368 6.45603e-07 -0.00463706 -0.00912178 -0.0757221  
-0.0711703 -0.0134231 8.25602e-06 -0.00461312 -0.00908816 -0.0757459  
  -0.07117 -0.0134124 -2.0892e-06 -0.00459907 -0.00908893 -0.0757481  
-0.0711966 -0.0134192 2.41134e-05 -0.00459984   -0.00908 -0.0757227  
-0.0711413 -0.0134454 2.41665e-05 -0.00466401 -0.00914227 -0.0757834  
-0.0711654 -0.0134542 2.07365e-05 -0.00467372 -0.00914494 -0.0757254  
-0.0712002 -0.0134126 1.3359e-05 -0.00459153 -0.00906851 -0.0757193  
-0.0711434 -0.0134418 1.77819e-05 -0.0046519 -0.00912802 -0.0757819  
 -0.071169 -0.0134502 1.4943e-05 -0.00466283 -0.00913261  -0.075723  
-0.0711656 -0.0134338 2.43934e-05 -0.00463545 -0.00911006 -0.0757551  
-0.0711684 -0.0134288 1.57495e-05 -0.00462513 -0.00909701 -0.0757527  
-0.0711734  -0.013412 1.07798e-05 -0.00461633 -0.00911524 -0.0757328  
-0.0711178 -0.0134299 5.76737e-06 -0.00468899 -0.00918098 -0.0757905  
-0.0711435 -0.0134448 3.39451e-06 -0.0046897 -0.00917179 -0.0757407  
-0.0711861 -0.0134174 1.94808e-05 -0.00460743 -0.00909893 -0.0757282  
-0.0711313   -0.01344 1.72441e-05 -0.00467589 -0.00916212 -0.0757868  
-0.0711554 -0.0134512 1.37327e-05 -0.00468195 -0.00915944  -0.075733  
 -0.071142 -0.0134223 8.40488e-06 -0.00465675 -0.00914758 -0.0757633  
-0.0711553 -0.0134302 1.85883e-05 -0.00464542 -0.00912972 -0.0757594  
-0.0711745 -0.0133964 -6.66742e-06 -0.00461342 -0.00910473 -0.0757418  
-0.0711126 -0.0134114 -1.54593e-05 -0.00467942 -0.00916641 -0.0758023  
-0.0711412 -0.0134318 -1.1826e-05 -0.00468033 -0.00915935 -0.0757511  
-0.0711399 -0.0134052 -1.12037e-05 -0.00465068 -0.00913483  -0.075774  
-0.0712376  -0.013435 -1.03875e-05 -0.00467366 -0.00915607 -0.0756308  
-0.0712308 -0.0134356 -1.1331e-05 -0.00467722 -0.0091584 -0.0756405  
-0.0712373  -0.013447 2.99571e-06 -0.00468317 -0.00915128 -0.0756136  
-0.0712381 -0.0134408 -3.82715e-06 -0.00467781 -0.00915365 -0.0756211  
-0.0712273 -0.0134582 1.48902e-05 -0.00469153 -0.00915717 -0.0756206  
-0.0712328 -0.0134529 9.10328e-06 -0.00468802 -0.00915321 -0.0756176  
-0.0712128 -0.0134558 4.41355e-06 -0.0046919 -0.00916737 -0.0756383  
-0.0712198 -0.0134581 1.04802e-05 -0.00469201 -0.00916288 -0.0756299  
-0.0712149 -0.0134478 -4.42533e-06 -0.00468865 -0.00916464 -0.0756444  
-0.0711152 -0.0134403 -1.57798e-05 -0.00471558 -0.00919275 -0.0757769  
-0.0711152 -0.0134306 5.19774e-06  -0.004695 -0.00918621 -0.0757932  
-0.0711375 -0.0134497 2.07738e-06 -0.00470285 -0.00918325 -0.0757438  
-0.0711097 -0.0134121 -1.60638e-05 -0.00468495 -0.00917149 -0.0758053  
-0.0711345 -0.0134372 -1.28165e-05 -0.00469249 -0.00917059 -0.0757545  
-0.0711396 -0.0134246 7.72328e-06 -0.00466316 -0.00915291 -0.0757649  
-0.0711372 -0.0134076 -1.17343e-05 -0.00465651   -0.00914 -0.0757757  
-0.0711323 -0.0134615 1.16359e-05 -0.00471911 -0.0091944 -0.0757568  
-0.0711386 -0.0134466 2.39604e-05 -0.00466961 -0.00914771 -0.0757862  
 -0.071159 -0.0134598 2.0154e-05 -0.00468666 -0.0091575 -0.0757278  
-0.0711287 -0.0134409 1.68488e-05 -0.00468172 -0.00916741 -0.0757896  
-0.0711492 -0.0134564 1.27346e-05 -0.00469511 -0.00917139 -0.0757357  
-0.0711631 -0.0134365 2.41063e-05 -0.00464179 -0.00911602 -0.0757563  
-0.0711528 -0.0134326 1.80767e-05 -0.00465186 -0.00913534 -0.0757608  
-0.0711445  -0.013464 1.68251e-05 -0.00469618 -0.00916655 -0.0757483  
-0.0711417 -0.0134393 1.38159e-05 -0.00464364 -0.00912177 -0.0757783  
-0.0711645 -0.0134522 1.1178e-05 -0.00466266 -0.00913563   -0.07572  
-0.0711406 -0.0134433 1.80147e-05 -0.00465729 -0.00913336 -0.0757849  
-0.0711625 -0.0134564 1.53047e-05 -0.00467533 -0.00914507 -0.0757257  
-0.0711677 -0.0134262 8.92804e-06 -0.00461905 -0.00909375 -0.0757473  
-0.0711659 -0.0134317 1.59301e-05 -0.00463124 -0.00910289 -0.0757541  
-0.0711413 -0.0134529 5.46909e-06 -0.00466697 -0.00914858 -0.0757474  
-0.0711349 -0.0134142 -8.81521e-06 -0.00461024 -0.00911242 -0.0757839  
-0.0711579 -0.0134338 -8.50632e-06 -0.00463673 -0.00912947 -0.0757341  
-0.0711389 -0.0134285 3.5565e-06  -0.004627 -0.00911697 -0.0757791  
 -0.071162 -0.0134439 2.08003e-06 -0.00464894 -0.00913233 -0.0757252  
 -0.071166 -0.0134025 -1.25063e-05 -0.00459149 -0.00909421 -0.0757563  
 -0.071167 -0.0134156 -1.3413e-06 -0.00460482 -0.00909382 -0.0757496  
-0.0711253 -0.0134335 -1.81503e-05 -0.00466525 -0.00915447 -0.0757719  
-0.0711249 -0.0134019 -2.23562e-05 -0.00462589 -0.00912465  -0.075801  
-0.0711487 -0.0134275 -1.73029e-05 -0.0046487 -0.00913881 -0.0757496  
-0.0711573 -0.0133941 -2.09312e-05 -0.00460705 -0.0091036 -0.0757722  
-0.0712929 -0.0134253 -1.15242e-05 -0.00477173 -0.00929321 -0.0755865  
-0.0713585 -0.0133911 -1.66414e-05 -0.00478829 -0.00932431 -0.0755456  
-0.0713003  -0.013426 -1.27919e-05 -0.00475794 -0.00926285  -0.075572  
 -0.071354 -0.0133933 -1.22299e-05 -0.00478205 -0.00932467 -0.0755477  
-0.0712947 -0.0134279 -1.0787e-05 -0.00475352 -0.00926283 -0.0755768  
-0.0713612 -0.0133939 -1.54752e-05 -0.0047641 -0.00928367 -0.0755282  
-0.0713565 -0.0133965 -1.12166e-05 -0.00475896 -0.00928403 -0.0755305  
-0.0712982 -0.0134289 -7.82349e-06 -0.00477779 -0.00929246 -0.0755745  
-0.0713543 -0.0134017 -5.55553e-06 -0.00478813 -0.0093256 -0.0755376  
-0.0712981 -0.0134364 -1.42018e-06 -0.00475835 -0.0092596 -0.0755587  
 -0.071357 -0.0133959  -1.18e-05 -0.00478892 -0.00932481 -0.0755408  
-0.0712999 -0.0134309 -7.35449e-06 -0.00475862 -0.00926123 -0.0755647  
-0.0713569  -0.013404 -5.16615e-06 -0.00476409 -0.00928224 -0.0755201  
-0.0713596 -0.0133984 -1.09799e-05 -0.00476457 -0.00928287 -0.0755235  
-0.0712916 -0.0134414 6.86478e-06 -0.0047734 -0.0092893 -0.0755714  
 -0.071344 -0.0134172 1.60065e-05 -0.00478298 -0.00932033 -0.0755407  
 -0.071287 -0.0134495 1.41735e-05 -0.00475361 -0.00925476 -0.0755629  
-0.0713494 -0.0134096 5.29118e-06 -0.0047855 -0.00932419   -0.07554  
-0.0712929 -0.0134432 6.49938e-06 -0.00475615 -0.00925775 -0.0755616  
-0.0713461  -0.013419 1.47154e-05 -0.00475977 -0.00927769 -0.0755233  
-0.0713517 -0.0134116 4.86708e-06  -0.004762 -0.00928073 -0.0755225  
-0.0712803  -0.013448 1.29994e-05 -0.00476564 -0.00928279 -0.0755775  
-0.0713361  -0.013416 1.36707e-05 -0.00477356 -0.00931471 -0.0755418  
-0.0712772  -0.013448 8.53766e-06 -0.00474547 -0.00925336 -0.0755727  
-0.0713395  -0.013418 1.58326e-05 -0.00477874 -0.00931687  -0.075542  
-0.0712816 -0.0134499 1.20912e-05 -0.0047497 -0.00925366 -0.0755685  
-0.0713387 -0.0134184 1.25659e-05 -0.00475083 -0.00927449 -0.0755259  
-0.0713418 -0.0134199 1.45164e-05 -0.00475573 -0.00927567 -0.0755253  
-0.0712788 -0.0134375 -5.1643e-07 -0.00476108 -0.00928679 -0.0755856  
-0.0713401 -0.0134069 2.90614e-06 -0.00477201 -0.00931936 -0.0755443  
-0.0712805 -0.0134401 -4.49015e-07 -0.00474532 -0.00925761 -0.0755768  
-0.0713427   -0.01341 2.81301e-06 -0.00474981 -0.00927878 -0.0755282  
 -0.071288 -0.0134213 -1.43672e-05 -0.00479843 -0.00931385 -0.0756041  
-0.0712821 -0.0134224 -1.2609e-05 -0.00479143 -0.00931299 -0.0756093  
-0.0713433  -0.013385 -1.7945e-05 -0.0048135 -0.00934855 -0.0755778  
-0.0713387 -0.0133868 -1.35549e-05 -0.00480605 -0.00934848 -0.0755806  
-0.0712865 -0.0134329 -1.31522e-06 -0.0047963 -0.00931271 -0.0755903  
-0.0712879 -0.0134269 -8.08581e-06 -0.00479833 -0.00931329 -0.0755964  
-0.0713392 -0.0133968 -5.6588e-06 -0.00481254 -0.00935208 -0.0755691  
-0.0713417 -0.0133905 -1.25501e-05 -0.00481397 -0.00935015 -0.0755725  
-0.0712764 -0.0134463 1.65773e-05 -0.00478748 -0.00930447 -0.0755942  
-0.0712819 -0.0134399 7.69806e-06 -0.00479183 -0.00930994 -0.0755933  
-0.0713296 -0.0134128 1.79227e-05  -0.004806 -0.00934523 -0.0755726  
-0.0713347 -0.0134049 6.16833e-06 -0.00480908 -0.0093503 -0.0755718  
-0.0712646 -0.0134436 9.66538e-06 -0.0047775 -0.00929823 -0.0756027  
-0.0712702 -0.0134463 1.40922e-05 -0.00478256 -0.00930057 -0.0755992  
-0.0713196  -0.013411 1.45319e-05 -0.00479605 -0.00933637 -0.0755735  
-0.0713242 -0.0134133 1.74031e-05 -0.00480148 -0.00933988 -0.0755739  
-0.0712674 -0.0134347 -1.09543e-06 -0.00477793 -0.00930452  -0.075608  
-0.0713235  -0.013401 2.53352e-06 -0.00479437 -0.00934183 -0.0755768  
-0.0712841 -0.0133589 -1.78436e-05 -0.00457089 -0.00906313 -0.0756547  
-0.0712784 -0.0133603 -1.44677e-05 -0.00458142 -0.0090648 -0.0756657  
-0.0712446  -0.013371 -1.7277e-05 -0.00456735 -0.0090686 -0.0756927  
-0.0712381 -0.0133694 -1.69778e-05 -0.00458024 -0.00907242 -0.0757055  
-0.0712743 -0.0133764 -3.28432e-06 -0.00458131 -0.00904339 -0.0756416  
-0.0712789 -0.0133675 -1.16075e-05 -0.00457492 -0.00905341 -0.0756461  
-0.0712375 -0.0133912 -9.82459e-09 -0.00458346 -0.00905311 -0.0756805  
-0.0712408 -0.0133814 -9.29989e-06 -0.00457436 -0.00906087 -0.0756844  
-0.0712651 -0.0133928 2.06851e-05 -0.00459164 -0.0090524 -0.0756514  
-0.0712701 -0.0133849 8.86925e-06 -0.00458749 -0.00904514 -0.0756476  
-0.0712299 -0.0134062 2.25653e-05 -0.00459813 -0.0090666 -0.0756906  
-0.0712342  -0.013399 1.12206e-05 -0.00459181 -0.00905714  -0.075687  
-0.0712468 -0.0133913 1.17556e-05 -0.00459953 -0.00907765 -0.0756633  
-0.0712562 -0.0133934 1.77254e-05 -0.00459504 -0.00906662 -0.0756579  
-0.0712092 -0.0134015 1.13119e-05 -0.00461061 -0.00909687 -0.0757013  
-0.0712203 -0.0134055 1.87221e-05 -0.00460377 -0.00908321 -0.0756964  
-0.0712521 -0.0133798 -5.19381e-07 -0.00460055 -0.0090726 -0.0756694  
-0.0712124 -0.0133878 -3.66509e-06 -0.00460957 -0.0090889 -0.0757089  
-0.0713127 -0.0133913 1.06077e-05 -0.00463608 -0.00909037  -0.075581  
-0.0713189 -0.0133831 2.32347e-06 -0.00463801 -0.0090907 -0.0755845  
-0.0713223    -0.0134 1.02458e-05 -0.00466306 -0.00912267 -0.0755564  
-0.0713277 -0.0133923 2.33328e-06 -0.0046643 -0.00912414 -0.0755593  
-0.0713243 -0.0133899 1.56904e-05 -0.00463697 -0.00907808 -0.0755696  
 -0.071318 -0.0133915 1.40872e-05 -0.00463631 -0.00908517 -0.0755758  
-0.0713322 -0.0133987 1.44216e-05 -0.00466649 -0.00911449 -0.0755462  
-0.0713267 -0.0134002 1.3152e-05 -0.00466475 -0.00911915 -0.0755518  
-0.0713358 -0.0133739 -5.42563e-06 -0.00463446 -0.00907705 -0.0755625  
-0.0713303 -0.0133822 5.45229e-06 -0.00463647 -0.0090758 -0.0755666  
 -0.071344 -0.0133833 -5.01624e-06 -0.00466582 -0.00911507 -0.0755403  
-0.0713383 -0.0133913 4.97546e-06 -0.00466677 -0.00911359 -0.0755438  
-0.0713452 -0.0133615 -1.55034e-05 -0.00463146 -0.00909346 -0.0755741  
-0.0713407 -0.0133671 -1.15429e-05 -0.00463218 -0.00908554 -0.0755671  
-0.0713517  -0.013372 -1.4539e-05 -0.00466365 -0.00912766  -0.075551  
-0.0713482 -0.0133771 -1.06807e-05 -0.00466423 -0.00912158 -0.0755447  
-0.0713403 -0.0133655 -1.03201e-05 -0.00463513 -0.00909312  -0.075581  
-0.0713467  -0.013376 -9.78009e-06 -0.00466494 -0.00912746 -0.0755566  
-0.0712858 -0.0134287 1.1417e-05 -0.00478824 -0.0093135 -0.0755923  
-0.0712891 -0.0134194 1.93824e-07 -0.00478788 -0.00931953 -0.0755968  
-0.0713267 -0.0134046 1.54908e-05 -0.00479935 -0.00934587 -0.0755684  
-0.0713307 -0.0133944 3.27045e-06 -0.00479721 -0.00935113 -0.0755712  
-0.0712969 -0.0134311 1.70539e-05 -0.00479809 -0.00932062 -0.0755863  
 -0.071291 -0.0134313 1.52447e-05 -0.00479334 -0.00931624 -0.0755901  
-0.0713362 -0.0134062 1.81812e-05 -0.00480933 -0.00935522 -0.0755689  
 -0.071331 -0.0134068 1.8056e-05 -0.00480487 -0.00934959 -0.0755695  
-0.0713071 -0.0134166 -2.94666e-06 -0.00480608 -0.00932838 -0.0755824  
-0.0713024 -0.0134241 7.1121e-06 -0.00480197 -0.00932602 -0.0755855  
-0.0713458 -0.0133897 -6.51134e-06 -0.00481542 -0.00936176 -0.0755655  
-0.0713412 -0.0133981 5.86645e-06 -0.00481216 -0.00936019 -0.0755682  
-0.0713097 -0.0134049 -1.56699e-05 -0.00480777 -0.00932787 -0.0755946  
 -0.071309 -0.0134105 -9.67295e-06 -0.00480794 -0.00932808 -0.0755876  
-0.0713505 -0.0133779 -1.865e-05 -0.00481608 -0.00935728 -0.0755732  
-0.0713485 -0.0133833 -1.34428e-05 -0.00481671 -0.00935932 -0.0755684  
-0.0713043 -0.0134063 -1.28777e-05 -0.00480066 -0.0093273 -0.0755988  
 -0.071346 -0.0133798 -1.375e-05 -0.00480849 -0.00935738 -0.0755756  
-0.0712775 -0.0133946 1.05153e-05 -0.00462528 -0.00909061 -0.0756227  
 -0.071283  -0.013385 6.10814e-07 -0.00462618 -0.00908831 -0.0756273  
-0.0712921 -0.0133947 1.76697e-05 -0.00462256 -0.00907341 -0.0756103  
-0.0712846 -0.0133958 1.52279e-05 -0.00462365 -0.00908321  -0.075617  
-0.0713026 -0.0133789 -3.92906e-06 -0.00461616 -0.00906863  -0.075602  
-0.0712977 -0.0133871 7.12583e-06 -0.00462023 -0.00906886  -0.075607  
-0.0713114 -0.0133643 -1.60302e-05 -0.00460925 -0.00908522 -0.0756146  
 -0.071307 -0.0133712 -1.09512e-05 -0.00461177 -0.00907715 -0.0756067  
 -0.071306 -0.0133669 -1.20134e-05 -0.00461566 -0.0090858 -0.0756234  
-0.0711245  -0.013463 -1.41946e-05 -0.00473628 -0.00921072  -0.075747  
 -0.071134 -0.0134752 -5.14494e-06 -0.00477098 -0.00924452 -0.0757302  
-0.0711253 -0.0134622 -1.16902e-06 -0.00473737 -0.00921319 -0.0757514  
-0.0711198 -0.0134514 -3.74542e-06 -0.00476678 -0.0092386 -0.0757725  
-0.0711282 -0.0134677 -1.48967e-05 -0.00475914 -0.00923515 -0.0757412  
-0.0711203 -0.0134508 -1.4971e-05 -0.00472553 -0.00920099 -0.0757629  
-0.0711129 -0.0134393 -1.82515e-05 -0.00475209 -0.00922455  -0.075785  
-0.0711271 -0.0134628 -4.4413e-06 -0.00476937 -0.00924125 -0.0757518  
-0.0711207  -0.013453 -1.65895e-05 -0.00475626 -0.00922974 -0.0757635  
-0.0711392 -0.0134788 8.18454e-06 -0.00474183 -0.00921289 -0.0757255  
-0.0711497 -0.0134866 1.42656e-05 -0.00475857 -0.00922916 -0.0757094  
-0.0711451  -0.013474 1.84076e-05 -0.00472058 -0.00918983 -0.0757341  
-0.0711389 -0.0134668 1.78385e-05 -0.00474618 -0.00921487 -0.0757572  
-0.0711426 -0.0134819 5.50221e-06 -0.00476576 -0.00923758 -0.0757191  
-0.0711362 -0.0134696 1.00886e-05 -0.00472953 -0.00920236 -0.0757423  
-0.0711305 -0.0134607 8.60229e-06 -0.00475713 -0.00922744  -0.075764  
-0.0711444 -0.0134762 1.60433e-05 -0.00475271 -0.00922151 -0.0757338  
-0.0711367 -0.0134708 7.04254e-06 -0.00476183 -0.00923208  -0.075742  
-0.0711501 -0.0134816 1.52525e-05 -0.00472279 -0.00919147 -0.0757148  
-0.0711508 -0.0134862 1.61216e-05 -0.00473545 -0.00920821 -0.0757063  
-0.0711487 -0.0134696 1.45503e-05 -0.0046953 -0.00916651 -0.0757281  
-0.0711411 -0.0134653 1.83522e-05 -0.00471856 -0.00918827 -0.0757526  
-0.0711511 -0.0134868 1.50144e-05 -0.00474735 -0.00921876 -0.0757089  
-0.0711477 -0.0134722 1.60834e-05 -0.00470847 -0.00917746 -0.0757328  
-0.0711407 -0.0134664 1.74798e-05 -0.00473272 -0.00920137 -0.0757571  
 -0.071146 -0.0134753 1.72986e-05 -0.00472729 -0.0091977 -0.0757299  
 -0.071146 -0.0134761 1.62692e-05 -0.00474034 -0.00920958 -0.0757335  
-0.0711458 -0.0134732 5.75976e-06 -0.00469807 -0.00917565 -0.0757183  
 -0.071136 -0.0134741 -2.42827e-06 -0.00471393 -0.00919686 -0.0757241  
-0.0711374 -0.0134529 -5.52317e-06 -0.00466898 -0.0091558 -0.0757428  
-0.0711258 -0.0134477 -2.3485e-06 -0.00468813 -0.00916974 -0.0757639  
-0.0711443 -0.0134811 7.91144e-06 -0.00472404 -0.00920176 -0.0757141  
 -0.071144 -0.0134623 5.53638e-06 -0.00468154 -0.00916069 -0.0757339  
-0.0711348  -0.013458 9.5288e-06 -0.00470308 -0.00917853 -0.0757568  
-0.0711311 -0.0134604 -2.36868e-06 -0.0047014 -0.0091828 -0.0757444  
-0.0711396 -0.0134691 8.75416e-06 -0.0047139 -0.0091896 -0.0757359  
-0.0711308 -0.0134588 -1.50023e-05 -0.0046971 -0.00918162  -0.075743  
-0.0711294  -0.013467 -1.35314e-05 -0.00472258 -0.00920774 -0.0757379  
-0.0711287 -0.0134451 -1.67373e-05 -0.00468048 -0.00916699 -0.0757584  
-0.0711168  -0.013437 -1.73594e-05 -0.00469964 -0.00918341 -0.0757803  
-0.0711233 -0.0134515 -1.54765e-05 -0.00471163 -0.00919517 -0.0757595  
-0.0711064 -0.0134323 3.0782e-07 -0.00474708 -0.0092231 -0.0758059  
-0.0710985 -0.0134144 -2.01384e-05 -0.00473379 -0.00920804 -0.0758188  
 -0.071127 -0.0134518 2.14044e-05 -0.00471993  -0.009189 -0.0757991  
-0.0711183 -0.0134444 1.29208e-05 -0.00473312 -0.00920621 -0.0758018  
-0.0711291 -0.0134488 1.88677e-05 -0.00469288 -0.00916128 -0.0757937  
-0.0711284 -0.0134506 1.90912e-05 -0.0047068 -0.00917462 -0.0757992  
-0.0711166 -0.0134251 -3.03226e-06 -0.00465736 -0.00914093 -0.0757969  
 -0.071124  -0.013439 9.58487e-06 -0.00467563 -0.00915106 -0.0757937  
-0.0711062 -0.0134099 -2.14585e-05 -0.00467093 -0.00915521 -0.0758141  
-0.0711374 -0.0134749 -1.47278e-06 -0.00473517 -0.00921017 -0.0757207  
-0.0711339  -0.013466 -1.24534e-05 -0.00472505 -0.00920075  -0.075731  
-0.0711383 -0.0134817 -3.42764e-06 -0.00475314 -0.00922834 -0.0757158  
-0.0711339 -0.0134744 -1.29323e-05 -0.00474319 -0.00922032 -0.0757261  
-0.0711554 -0.0134837 1.63732e-05 -0.00472428 -0.00919304 -0.0757002  
 -0.071147 -0.0134805 8.56583e-06 -0.00473047 -0.00920251 -0.0757102  
-0.0711542 -0.0134911 1.45735e-05 -0.00474363 -0.0092141 -0.0756943  
-0.0711468 -0.0134873 6.47859e-06 -0.00474923 -0.00922196 -0.0757045  
  -0.07116 -0.0134789 1.23825e-05 -0.00470273 -0.00917422 -0.0756946  
-0.0711585 -0.0134816 1.42504e-05 -0.00471405 -0.00918301 -0.0756984  
-0.0711568 -0.0134887 1.36772e-05 -0.00472351 -0.00919639 -0.0756903  
-0.0711564 -0.0134902 1.40575e-05 -0.00473401 -0.00920503 -0.0756932  
  -0.07115 -0.0134652 -5.89347e-06 -0.00468204 -0.00916743 -0.0757129  
-0.0711558 -0.0134727 3.95013e-06 -0.00469161 -0.00917034 -0.0757024  
-0.0711448 -0.0134769 -4.15489e-06 -0.0047047 -0.00918899 -0.0757095  
-0.0711516 -0.0134835 5.54834e-06 -0.00471342 -0.00919208 -0.0756989  
-0.0711422 -0.0134603 -1.43129e-05 -0.00469098 -0.00917612 -0.0757269  
-0.0711381 -0.0134714 -1.31521e-05 -0.00471235 -0.00919779 -0.0757228  
-0.0711182 -0.0134246 -3.62157e-06  -0.004653 -0.00913821 -0.0757948  
-0.0711078 -0.0134098 -2.14964e-05 -0.00466672 -0.00915224  -0.075812  
-0.0711302 -0.0134483 1.83329e-05 -0.00468823 -0.00915749 -0.0757911  
-0.0711253 -0.0134385 8.95909e-06 -0.00467107 -0.00914781 -0.0757913  
-0.0711279 -0.0134518 2.16291e-05 -0.00471517 -0.00918501 -0.0757968  
-0.0711294 -0.0134504  1.896e-05 -0.00470212 -0.00917063 -0.0757968  
-0.0711071 -0.0134328 7.58975e-07  -0.004742 -0.00921939 -0.0758037  
-0.0711191 -0.0134446 1.32728e-05 -0.00472819 -0.00920239 -0.0757996  
-0.0710994 -0.0134149 -1.96955e-05  -0.004729 -0.00920434 -0.0758166  
 -0.071306  -0.013364 -1.63188e-05 -0.00460222 -0.00908138 -0.0756214  
-0.0713005 -0.0133665 -1.24115e-05 -0.0046093 -0.00908211 -0.0756306  
-0.0712971 -0.0133791 -3.81989e-06 -0.00460974 -0.00906437 -0.0756086  
-0.0713015 -0.0133713 -1.10524e-05  -0.004605 -0.00907309 -0.0756134  
-0.0712868  -0.013395 1.81711e-05 -0.00461681 -0.00906989 -0.0756172  
-0.0712923 -0.0133874 7.4176e-06 -0.00461416 -0.00906486 -0.0756138  
-0.0712715 -0.0133948 1.07003e-05 -0.00462035 -0.0090884 -0.0756295  
-0.0712791  -0.013396 1.56315e-05 -0.00461826 -0.00908041 -0.0756239  
 -0.071277 -0.0133848 4.14855e-07 -0.00462126 -0.00908558 -0.0756345  
-0.0712282 -0.0134059 -1.80165e-05 -0.00487431 -0.00935733 -0.0757149  
-0.0712204 -0.0134034 -1.93788e-05 -0.00486021 -0.00935185 -0.0757235  
 -0.071252 -0.0133737 -2.25933e-05 -0.00490548 -0.00938596 -0.0757314  
-0.0712448 -0.0133708 -2.22285e-05 -0.00488911 -0.00938073 -0.0757394  
-0.0712294 -0.0134236 1.29371e-06 -0.00486337 -0.00935758 -0.0757003  
-0.0712293 -0.0134151 -8.38797e-06 -0.00487047 -0.00935752 -0.0757059  
-0.0712498 -0.0133941 -2.25716e-06 -0.00489512 -0.00939395 -0.0757202  
-0.0712508 -0.0133843 -1.29982e-05 -0.00490187 -0.00938989 -0.0757237  
-0.0712235  -0.013437 2.45899e-05 -0.00484493 -0.00933907 -0.0757041  
-0.0712271 -0.0134307 1.26634e-05 -0.00485376 -0.00935101  -0.075704  
-0.0712453 -0.0134103 2.80494e-05 -0.00487885 -0.00937598 -0.0757248  
 -0.071248 -0.0134024 1.24625e-05 -0.00488635 -0.00938797 -0.0757245  
-0.0712027 -0.0134303 1.23115e-05 -0.00482626 -0.00931524 -0.0757103  
-0.0712139 -0.0134355 2.03495e-05 -0.00483581 -0.00932585 -0.0757077  
-0.0712232 -0.0134033 1.80319e-05 -0.00485868 -0.0093437  -0.075724  
-0.0712354 -0.0134088 2.54501e-05 -0.00486962 -0.00935832 -0.0757249  
-0.0712021 -0.0134174 -5.2462e-06 -0.00482855 -0.00932763   -0.07572  
-0.0712232 -0.0133879 -2.68589e-06 -0.00485755 -0.00935551  -0.075733  
-0.0711668 -0.0134422 -8.59439e-06 -0.00464776 -0.00913789 -0.0757147  
-0.0711584 -0.0134375 -1.56964e-05 -0.00465824 -0.00914591 -0.0757291  
-0.0711726 -0.0134585 9.90939e-06 -0.00466957 -0.00914104 -0.0756986  
-0.0711704  -0.013451 1.17267e-06 -0.00465785 -0.00913917  -0.075705  
-0.0711667 -0.0134663 1.86362e-05 -0.00469081 -0.00915983  -0.075706  
-0.0711704 -0.0134628 1.4078e-05 -0.00468088 -0.00914916 -0.0757036  
-0.0711468 -0.0134581 1.79914e-06 -0.00470331 -0.00918176 -0.0757238  
-0.0711575 -0.0134636 1.16016e-05 -0.00469745 -0.0091718 -0.0757149  
-0.0711447 -0.0134471 -1.11559e-05 -0.00469456 -0.00917152 -0.0757336  
-0.0711999 -0.0134227 -1.56035e-05 -0.00486046 -0.00933618 -0.0757261  
-0.0711918 -0.0134188 -1.9258e-05 -0.00484607 -0.00932946 -0.0757359  
-0.0712043   -0.01344 4.42562e-06 -0.00484795 -0.00933262 -0.0757102  
-0.0712027 -0.0134318 -5.40343e-06 -0.00485565 -0.00933457 -0.0757166  
-0.0711995  -0.013451 2.37242e-05 -0.00482755 -0.00931241 -0.0757131  
-0.0712026 -0.0134458 1.37601e-05 -0.00483746 -0.00932467 -0.0757133  
-0.0711784  -0.013443 9.48449e-06 -0.00480729 -0.00928923 -0.0757218  
-0.0711899 -0.0134487 1.84716e-05 -0.00481754 -0.00929959 -0.0757175  
-0.0711763 -0.0134306 -7.57037e-06 -0.00481121 -0.00930217 -0.0757327  
-0.0712449 -0.0134554 7.41575e-06 -0.00476692 -0.00928016 -0.0756091  
 -0.071247 -0.0134473 -2.37107e-06 -0.0047677 -0.00928599 -0.0756148  
-0.0712473 -0.0134446 9.1538e-06 -0.00478675 -0.00930241 -0.0756244  
-0.0712494 -0.0134355 -2.14519e-06 -0.00478754 -0.00930942 -0.0756305  
-0.0712567 -0.0134583 1.55168e-05 -0.00477625 -0.00928441 -0.0755977  
-0.0712504 -0.0134581 1.2361e-05 -0.00477159 -0.00928158 -0.0756039  
-0.0712605  -0.013448 1.74836e-05 -0.00479756 -0.00931053  -0.075615  
-0.0712537 -0.0134477 1.44116e-05 -0.00479221 -0.00930555 -0.0756203  
-0.0712664 -0.0134464 6.21087e-07 -0.00478452 -0.00929215  -0.075594  
 -0.071262 -0.0134526 8.17011e-06 -0.00478043 -0.00928924 -0.0755965  
-0.0712698 -0.0134352 -2.28001e-07 -0.00480782 -0.00932028 -0.0756113  
-0.0712657 -0.0134418 8.67418e-06 -0.00480259 -0.00931684 -0.0756141  
-0.0712662 -0.0134356 -1.25539e-05 -0.00478607 -0.00929473 -0.0756093  
 -0.071267 -0.0134407 -6.15866e-06 -0.00478609 -0.00929348 -0.0756009  
-0.0712701 -0.0134231 -1.43394e-05 -0.00481089 -0.00932113  -0.075626  
-0.0712705 -0.0134289 -7.53311e-06 -0.0048104 -0.00932073 -0.0756177  
-0.0712602 -0.0134362 -1.20014e-05 -0.00477988 -0.0092939 -0.0756154  
 -0.071264 -0.0134235 -1.34075e-05  -0.004803 -0.00931965  -0.075632  
-0.0712418 -0.0134614 6.30717e-06 -0.00474858 -0.00925249 -0.0756015  
 -0.071244 -0.0134539 -2.51097e-06 -0.00474862 -0.00925672 -0.0756069  
-0.0712532 -0.0134638 1.42897e-05 -0.00475642 -0.00925383 -0.0755884  
-0.0712471 -0.0134638 1.10727e-05 -0.00475258 -0.00925272 -0.0755954  
-0.0712633 -0.0134524 1.12138e-06 -0.0047615 -0.00925896 -0.0755844  
-0.0712587 -0.0134584 7.84289e-06 -0.00475915 -0.00925691  -0.075587  
-0.0712632 -0.0134421 -1.14123e-05 -0.00476101 -0.00926231 -0.0756002  
-0.0712639  -0.013447 -5.31732e-06 -0.00476174 -0.00926067 -0.0755915  
-0.0712572 -0.0134431 -1.10873e-05 -0.00475662 -0.00926209 -0.0756065  
-0.0711385 -0.0134615 4.12174e-07 -0.00471808 -0.0091953 -0.0757328  
-0.0711353 -0.0134506 -1.25705e-05 -0.00470814 -0.00918449 -0.0757432  
-0.0711582  -0.013471 1.83103e-05 -0.00470439 -0.00917347 -0.0757147  
-0.0711491 -0.0134677 1.07421e-05 -0.00471173 -0.00918534 -0.0757235  
-0.0711631 -0.0134647 1.17407e-05 -0.00468173 -0.00915314  -0.075708  
-0.0711614 -0.0134682 1.47762e-05 -0.00469369 -0.00916229 -0.0757128  
 -0.071155 -0.0134485 -7.28702e-06 -0.00465856 -0.00914717  -0.075724  
-0.0711598 -0.0134574 2.92772e-06 -0.0046694 -0.00914977 -0.0757144  
-0.0711466 -0.0134428 -1.58755e-05 -0.00466921 -0.0091563 -0.0757387  
-0.0712726 -0.0134375 -1.22519e-05 -0.00477401 -0.00928055 -0.0755969  
-0.0712668 -0.0134385 -1.13992e-05 -0.00476878 -0.00928019 -0.0756027  
-0.0712542 -0.0134407 -1.23597e-05 -0.00479027 -0.00929433 -0.0756218  
 -0.071248 -0.0134411 -1.23157e-05 -0.00478378 -0.00929318 -0.0756284  
-0.0712723  -0.013448 2.5186e-07 -0.00477368 -0.0092779  -0.075582  
-0.0712731 -0.0134424 -6.21628e-06 -0.00477447 -0.00927925 -0.0755886  
 -0.071255 -0.0134519 1.34915e-06 -0.00478829 -0.00929169 -0.0756058  
-0.0712553 -0.0134461 -5.6609e-06 -0.0047901 -0.00929307 -0.0756129  
 -0.071262   -0.01346 1.47588e-05 -0.00476736 -0.00927177 -0.0755858  
-0.0712676 -0.0134543 7.6234e-06 -0.00477063 -0.00927559 -0.0755845  
-0.0712457 -0.0134633 1.58722e-05 -0.00477943 -0.00928335 -0.0756094  
 -0.071251 -0.0134579 8.70506e-06 -0.0047839 -0.00928851 -0.0756082  
 -0.071251 -0.0134576 7.36333e-06 -0.00475884 -0.00926907 -0.0755972  
-0.0712561   -0.01346 1.1886e-05 -0.00476319 -0.00926986  -0.075592  
-0.0712331   -0.01346 6.9246e-06 -0.0047698 -0.00927841 -0.0756216  
-0.0712392 -0.0134629 1.23315e-05 -0.0047746 -0.00928014  -0.075616  
-0.0712535 -0.0134498 -1.89391e-06 -0.00475905 -0.00927396 -0.0756024  
-0.0712348 -0.0134519 -3.05997e-06 -0.00477079 -0.0092845 -0.0756279  
  -0.07127 -0.0134405 -1.14831e-05 -0.00475667 -0.00925512 -0.0755926  
-0.0712641 -0.0134416 -1.08448e-05 -0.0047527 -0.00925508 -0.0755987  
-0.0712696 -0.0134507 6.69394e-07 -0.0047576 -0.00925163 -0.0755773  
-0.0712705 -0.0134452 -5.60398e-06 -0.00475754 -0.0092534 -0.0755842  
-0.0712592 -0.0134624 1.40266e-05 -0.00475334 -0.00924714 -0.0755814  
-0.0712649 -0.0134568 7.48872e-06 -0.00475569 -0.00924981 -0.0755799  
-0.0712483 -0.0134602 6.56641e-06 -0.00474579 -0.00924646 -0.0755941  
-0.0712533 -0.0134624 1.10484e-05 -0.00474969 -0.00924643 -0.0755883  
-0.0712508 -0.0134528 -2.08833e-06 -0.00474564 -0.00925034 -0.0755992  
Stress_nodal 6 8107 float
   528.316    232.152    399.468    15.0706    25.1698    200.266  
   526.169    231.008    397.395    10.5199    24.6222    199.679  
   526.428    231.006    394.414    18.0308    26.7283    198.962  
   525.329    230.596    394.929    8.33548    23.0256    199.542  
    959.57    319.409    2469.81    19.6688    52.8158    226.567  
    959.48    320.242     2502.8    20.5904    53.7847    230.342  
   551.588    344.898    2356.62     22.368    29.5024    455.677  
   572.091    344.824    2467.91    16.8726     28.318     455.13  
   526.421     230.99    394.439    17.9924    26.7027    198.962  
   525.319    230.612     395.04    8.43035    23.0998    199.613  
   528.337     232.16    399.481    15.1111    25.2034    200.285  
    526.27    231.041    397.508    10.4189    24.5624    199.745  
   959.606    319.425    2469.86    20.6005    53.7142    226.617  
   571.912    344.791    2467.64    16.7533    28.2862    454.986  
   959.449    320.226    2502.75    19.6574    52.8858    230.294  
   551.759    344.924    2356.87    22.4904    29.5294    455.813  
   536.253    297.036    409.703    28.2183    35.6397    244.328  
   524.808    279.426    396.949    25.4634    33.6752    278.988  
   510.504    231.747    377.757    18.7701    27.1853    314.948  
   494.798    197.481    354.148    12.9773    20.5144     319.69  
   493.985    210.949    345.562    8.23985    15.8885    287.327  
   506.442    251.237    358.705    2.29409    11.4325    247.417  
    522.19    277.471    382.454    1.02732    12.3602    223.314  
   535.159    275.234    407.078    23.3293     30.373    224.231  
    532.19      290.6    405.313     28.129    35.7826    261.157  
   519.648    257.726    389.748    22.7628    31.1612    296.913  
     502.4    212.123    366.173    15.8059     23.614    320.111  
   493.556    202.057    348.799     10.571    18.0412    304.432  
   500.036    231.785    351.172    5.35937    13.8243    265.775  
   514.898    265.339    370.697    1.13961    11.0796    232.955  
   527.461    264.384     393.28    4.35745    18.5767    213.549  
   602.671    262.125    498.063   -45.5343    -21.283    252.673  
   688.785    281.199    556.504   -81.5489   -46.2919    272.742  
    779.04    276.053    560.638   -76.1409    -36.287    246.817  
   805.504    244.257    464.826    10.4122     35.468    164.765  
   724.911    219.252     345.34    98.7532    103.903    98.8659  
   616.916    210.188    288.275    119.957    120.512    94.3773  
    555.39    215.104    317.769     80.374    85.2134     138.01  
   567.294    247.128    448.971   -17.2558    2.72603    226.203  
   643.384    269.696    531.158   -64.9571   -35.3737    264.185  
   735.129    282.036     569.64   -87.2531   -49.2991    267.089  
   798.697     265.94    520.341   -39.5867   -4.50124    210.617  
   770.545    235.426    405.637    56.5971    71.1667    130.883  
   665.661    213.288    305.468    116.351     117.91    91.2399  
   580.283    211.055     299.25    101.203    103.387    115.375  
   543.836    224.396     359.45    48.2225    55.3978    170.071  
   527.069    292.262    387.646    30.8017    13.6832    237.042  
   512.617     273.47    366.131    26.9345    13.4277      268.7  
   498.787    228.662    351.052    18.6295    16.6425    305.604  
   497.052    198.312    355.407    12.2288    19.2592    318.774  
   505.481     218.03    373.894    7.62504     24.874    296.164  
   520.777    259.164    394.193    1.04987    33.0973    257.722  
   532.024    282.559    406.126  -0.983131    35.6419     231.09  
   530.399     272.63    395.549    26.9836    19.8232    221.216  
   520.333    284.208    376.473    29.7129     13.035    251.307  
   506.775    251.373    357.776    23.2953    14.6597    287.401  
   496.007    211.435     351.53    14.7458    18.1333    314.992  
   499.604     205.29    363.748    10.1526    21.8439    309.456  
   514.002    240.108    385.818    4.12075    29.7182    275.864  
   527.389    271.952    400.841  -0.254566    34.7428    242.469  
    532.16    266.848    404.572      1.322    29.6295    217.924  
   539.585    211.743    314.706   -47.3226   -33.0794    139.894  
   595.488    210.019      290.9   -82.5494   -59.2761     101.95  
   705.233    215.868     335.59   -74.7099   -42.6828    98.8136  
   805.539    244.134    464.523     12.755     40.467    164.684  
   800.026    278.314    566.104    100.278    115.832    244.816  
   713.499    287.317     576.21    120.602    132.212    277.856  
    620.65    267.225    508.127     78.086    89.9028    254.866  
   535.074    221.987     356.45     -19.06   -4.68305    170.215  
   561.504    205.524    295.277   -66.2104   -48.0877    116.864  
   645.513     209.22    300.173   -86.7514   -59.5817    93.1514  
   757.979     232.88    396.606   -37.8408   -5.81251    128.506  
   808.563    266.084     519.32    58.3247    79.7476    206.844  
   759.178    288.475    582.797    117.319    130.326    268.888  
   663.688    276.928    543.116    100.066    111.354    267.532  
   576.252    249.837     453.08    45.6908    55.8794    226.473  
    944.82    292.477    2125.88    33.7519    104.491    212.652  
   891.314    242.633       1950    81.0903    148.168    250.975  
   798.038    244.618    2215.02    124.001    141.604    335.059  
    683.91    276.546    2291.73    138.769    118.722    398.846  
   596.818     322.16    2368.69     99.277    77.8688    442.474  
   953.731    309.591    2326.07    24.7345    78.0426    220.588  
   922.946    269.724     2072.4      53.29    125.497    232.108  
   845.219    242.711    2113.17    103.469    144.583    296.601  
   742.474    260.565    2279.86    132.865    130.117    368.993  
   641.666    300.675    2352.94    120.528    98.4583     422.28  
   577.546    336.359    2391.75    61.1448    53.5598    450.421  
    544.74    319.174    2123.26   -70.7364   -27.1019    429.034  
   656.879    268.868    2195.98   -117.286   -58.3349    375.933  
   763.824    214.615    1892.16   -119.784   -83.5922    290.528  
    891.45    241.459    2192.32   -45.1715   -42.9623    247.953  
   947.991    293.108    2448.41     6.7089    8.01645     234.14  
   548.279     336.86    2265.06   -24.1443    1.63621    444.663  
   602.764    297.955    2194.49   -96.5129   -42.6187      405.2  
   708.204    243.395    2070.14   -120.379   -70.2004     337.33  
    834.78    227.118    2071.05   -80.4551   -62.3101    268.876  
   924.221    268.963    2349.89   -16.2239   -15.7888    241.856  
    954.99    309.234    2506.77    15.4029    32.3134    234.606  
   945.595    294.448    2175.85    33.9093    103.864    218.002  
   894.496    248.823    2063.55    77.7844    143.361     260.26  
   810.362    254.998    2402.04    113.625     132.54     344.82  
   636.216    258.788    1876.55     167.02    136.643    388.648  
   534.001    314.598    1985.16     112.96    83.3523     439.53  
   954.064    310.932    2367.41    25.3447    78.2815    225.225  
   924.442    273.423    2151.33     52.188     123.12    239.622  
   852.192    251.745    2273.92    96.4951    137.016    307.443  
   733.655    255.836     2182.3    139.136    134.618    365.745  
   583.499    290.065     1956.2    142.604    109.896     417.46  
   552.608    335.191    2253.02    63.8317    54.3989    450.264  
   597.733    324.662    2432.82   -60.0923    -14.976    432.769  
   637.839    263.827     2045.8   -127.824    -66.413    371.798  
   789.551    237.981    2268.56   -96.0938   -59.3527    315.361  
   896.232    251.437    2358.69    -39.395   -34.3737    263.395  
   948.813    293.915    2463.04     6.1221    7.77413    235.949  
   589.654    338.375    2486.08    -20.495    8.12204    445.429  
   617.026     298.89    2272.54   -93.2478   -38.7239    406.045  
   721.255    249.318    2187.28   -112.906   -62.8812    342.864  
   847.755    243.941    2342.83   -66.7766   -46.2017    290.206  
   925.973     273.42    2435.51   -14.6964   -12.5692    250.723  
   955.386    309.016    2496.13    14.5133    31.3616    233.528  
   527.005    292.284    387.632    30.7286    13.6006    237.006  
   512.652     272.58    367.044    25.9839    14.3705    268.032  
   500.031    226.351    351.997     18.647    17.5952    306.048  
    494.98    197.536    354.679    12.6964    20.4742    319.713  
   506.005    217.117    374.925    7.88874    25.9555    296.059  
   520.922    258.752    394.269    1.74403    33.9374    258.429  
   531.867    282.592    406.096  -0.859703    35.7804    231.161  
   530.387     272.66    395.552     26.957    19.8205    221.218  
   520.392    284.252    376.587    29.4418     13.132    251.337  
   506.795    251.091    358.483    22.9831    15.4661    286.315  
   496.372    208.983     351.49    15.6521    19.0649    315.363  
   499.951    205.267    364.481    10.2445     22.564    309.019  
   514.407     239.25    386.102    4.91562    30.9182    276.316  
   527.212    271.863    400.764   0.108242    34.9991    242.783  
   532.086    266.887    404.525    1.37348    29.6852    217.964  
   539.805    212.149    315.534   -46.9211   -32.4638    140.283  
   595.664    210.289    291.638   -82.0822   -58.7029    102.295  
   705.265    215.928    335.623   -74.7063   -42.6621    98.8436  
   805.541    244.131    464.524    12.7534    40.4651    164.685  
   800.024    278.308    566.101    100.278    115.833    244.814  
   713.539    287.307    576.298    120.591    132.207    277.893  
   620.714    267.264    508.347    78.1762    90.0612    254.969  
   535.189    222.086     356.58   -19.0372   -4.56728    170.213  
   561.752    205.938    296.226   -65.6792   -47.3473      117.3  
   645.505    209.152    300.239   -86.6742   -59.5398    93.1273  
   757.979    232.879    396.615   -37.8344   -5.80278    128.503  
   808.564    266.079    519.319    58.3233    79.7467    206.841  
   759.174    288.448    582.786    117.313    130.326    268.878  
    663.83     276.97      543.4    100.168    111.495    267.649  
   576.201    249.826     453.05    45.6849    55.8907    226.463  
   536.328    297.001     409.69    28.3002    35.6818    244.343  
   525.975    280.914    399.027    26.3775    34.2327    280.015  
   510.334    234.479    379.309    18.7177    26.6718    314.806  
   497.068    198.309    355.451    12.5991    19.7332    319.093  
   494.702    212.406    347.441    8.00694    15.4057    287.855  
   506.468    251.813    358.978    1.55071    10.8144    246.757  
   522.395    277.448     382.54   0.902988    12.3364    223.333  
   535.175    275.207    407.073    23.3558    30.3669    224.199  
   532.226    290.599    405.459    28.3913    35.7994    261.071  
   520.457    258.283    391.081    23.0682    30.9842    298.232  
   502.271    214.572    366.907    14.9404     23.244    319.869  
   493.852    202.301    349.695    10.4914    17.6929    305.486  
    500.02     232.84    351.784    4.60031    12.9838     265.65  
   515.088    265.456    370.834   0.776755    10.9495    232.679  
   527.528    264.346     393.29    4.30971    18.5692    213.516  
   602.875    262.134    498.769   -45.9623   -21.8602    252.913  
   689.024    281.318    557.234   -82.0301   -46.9238    273.096  
   779.017    276.005    560.635   -76.1425   -36.2975    246.795  
   805.502    244.261    464.826    10.4137    35.4698    164.765  
    724.91    219.256    345.333    98.7513      103.9    98.8604  
   616.923    210.239    288.342    119.932    120.501    94.4548  
    555.43    215.195     318.01    80.3129      85.08    138.108  
   567.203    247.064    448.992   -17.2976    2.62056    226.166  
   643.631    269.774    532.028   -65.5011   -36.1028    264.545  
   735.191    282.146    569.773   -87.3351   -49.3843    267.184  
   798.704    265.946    520.355   -39.5915   -4.51038    210.627  
   770.544    235.428    405.634    56.5981    71.1664    130.883  
   665.648    213.299    305.455    116.349    117.907    91.2549  
   580.281     211.17    299.501    101.099     103.27    115.544  
   543.865    224.396    359.469    48.2457    55.3912    170.035  
   948.129    293.675    2462.75    6.84657    8.39193    235.682  
   895.297    251.277     2358.3    -39.018   -34.1732    263.079  
   788.852     238.02    2268.25    -95.927   -59.3632    315.165  
   637.495    263.947    2045.61   -127.767   -66.4562    371.717  
   597.539    324.714    2432.61   -60.1483    -15.013    432.687  
   955.046    308.882       2496     15.356     32.143    233.405  
   925.128    273.199    2435.15   -14.1548   -12.1706    250.409  
   846.923    243.884    2342.47   -66.5094   -46.1208     289.94  
   720.735    249.405    2187.03   -112.791   -62.9108    342.728  
   616.768    298.976    2272.34   -93.2473    -38.762    405.966  
   589.468     338.38    2485.85   -20.5876    8.08849    445.318  
   533.779    314.539    1984.89    112.828    83.3323    439.347  
   635.829    258.727    1876.22    166.868    136.612    388.425  
   809.658    254.884    2401.59    113.411    132.446    344.479  
   893.572    248.542    2063.04    77.4078    143.017    259.877  
   944.911     294.13    2175.46    33.2084    103.186      217.7  
   552.402    335.136    2252.74    63.7059    54.3721    450.094  
     583.2    290.003     1955.9    142.462    109.869    417.257  
   733.113    255.753     2181.9    138.957    134.562    365.464  
   851.375    251.568    2273.44    96.2047    136.812    307.072  
   923.614     273.09    2150.87    51.6482    122.599    239.262  
   953.676    310.745    2367.18    24.5087    77.4703     225.03  
   948.681     293.35     2448.7     5.9871     7.4031    234.409  
   892.389    241.634    2192.71   -45.5371   -43.1583    248.252  
   764.516    214.573    1892.46   -119.952   -83.5854    290.692  
   657.239    268.755    2196.18   -117.343   -58.2894    376.026  
   544.905    319.108    2123.44   -70.6855   -27.0712    429.109  
   955.332    309.368    2506.91    14.5591     31.532    234.731  
    925.07    269.194    2350.25   -16.7614   -16.1863    242.163  
   835.611    227.184     2071.4    -80.715   -62.3926    269.114  
   708.713    243.303    2070.38   -120.493   -70.1714    337.456  
   603.014    297.866    2194.68   -96.5141   -42.5812    405.279  
   548.445    336.841    2265.27   -24.0543    1.66285    444.765  
    597.07    322.244    2369.02    99.4099    77.8954    442.684  
   684.325    276.629    2292.11    138.917    118.747    399.103  
   798.741     244.73    2215.47    124.213    141.702    335.384  
   892.237    242.922    1950.51    81.4605    148.511    251.344  
   945.505    292.802    2126.27    34.4488    105.164    212.949  
   577.762     336.42    2392.04    61.2733    53.5884    450.597  
   641.995    300.762     2353.3    120.666    98.4853    422.515  
    743.02    260.653    2280.27    133.043    130.171    369.282  
   846.035    242.892    2113.64    103.756    144.789    296.956  
   923.774    270.065    2072.86    53.8255    126.016    232.458  
   954.121    309.781     2326.3    25.5685    78.8516    220.782  
   548.083    304.063    390.065    18.2635    26.8068    219.339  
   547.445    306.999    395.847     17.673    27.2228    223.406  
   547.471    307.063    395.764     17.743    27.2675    223.455  
   548.469    304.224    389.851    17.2542    26.1795    219.014  
   547.866    285.537    398.732    14.7098    24.4198    211.834  
   547.842    304.786    395.909    17.6318    26.9841    221.758  
   547.508    306.911    396.372    17.7214    27.2809     223.68  
   547.876    304.885    395.603    17.7486    27.0664     221.77  
   547.735    285.605    396.562    19.0988    28.2243    213.129  
   547.819    304.196    389.892    17.7847    26.3123    219.672  
   547.027     307.04    395.669    17.7958    27.2846    223.631  
    547.04    307.086    395.619    17.7335     27.237    223.657  
   547.962    304.212     389.73    18.4244    26.9545    219.157  
   547.243    285.493    397.959    17.9378    27.5483    211.954  
    547.42    304.824    395.662    17.6806    27.0573     221.96  
   547.077    306.937    396.211    17.7197    27.2989    223.892  
    547.42     304.89    395.523    17.5946    26.9778    221.979  
   547.237     285.75    396.933    14.7504    23.9708    213.388  
   548.492    304.184    389.852    17.2648    26.1788    219.014  
   547.493     307.03    395.765    17.7512    27.2677    223.453  
   547.466    306.965     395.85    17.6822    27.2229    223.404  
   548.101    304.036    390.077    18.2655    26.7984    219.344  
   547.752      285.6    396.553     19.112    28.2319    213.136  
   547.897    304.853    395.602    17.7597    27.0677    221.767  
   547.529    306.878    396.374    17.7305    27.2802    223.678  
   547.863    304.754    395.913     17.641     26.984    221.758  
   547.882    285.511    398.745    14.7219    24.4252    211.851  
   548.038    304.163    389.743    18.4233    26.9672    219.149  
   547.103    307.036    395.631    17.7255    27.2386    223.646  
   547.088    306.987    395.687    17.7889    27.2866    223.618  
   547.872     304.15    389.924    17.7805    26.3185    219.663  
   547.294    285.716    396.895    14.7366    23.9569    213.358  
   547.481    304.842    395.528    17.5848    26.9775    221.966  
   547.139    306.886    396.225    17.7117    27.3011     223.88  
   547.482    304.775    395.685    17.6715    27.0586    221.952  
   547.316    285.459    398.031    17.9117    27.5298    211.981  
   956.624    316.573    2471.38    16.1764    49.6513    227.629  
   953.455    313.819    2471.24    18.4923    52.1104    227.532  
   953.363    313.853    2471.57    20.3674    54.1796    227.646  
   956.561    316.626    2471.96    23.3279    56.7549    228.003  
   958.391    318.334     2470.7    17.3732    50.7941    227.113  
   954.726    314.895    2471.27    17.4031    50.9081    227.622  
   953.313    313.724    2471.21    19.4229    53.1466    227.452  
   954.606    314.937    2471.75     21.717    55.4192     227.86  
   958.411    318.362    2471.01    22.5738    55.6938    227.356  
   572.957    343.862    2469.18    16.9723    28.6857    455.254  
   572.519    343.714    2468.97    16.3316    28.5934    455.119  
   571.439      344.3    2467.18    16.0646    28.4341    455.266  
   570.997     344.98    2466.62    16.0066    28.3068    455.043  
   572.571    344.324    2468.52    17.0232    28.5192    455.219  
   572.786    343.707    2469.14    16.6149    28.6473    455.156  
   571.981        344    2468.08    16.1893     28.495    455.167  
   571.152    344.646    2466.79      16.02     28.373     455.19  
   571.421    344.979    2467.19     16.333    28.2873    455.007  
   956.432    317.413    2504.94     23.334    56.8302    231.753  
   953.246    314.608    2504.58    20.3727    54.2664     231.39  
   953.336    314.571    2504.25    18.4955    52.1953    231.273  
   956.516    317.355    2504.38    16.1734     49.724    231.373  
   958.281    319.167    2503.97    22.5721    55.7646    231.095  
   954.485    315.705    2504.74    21.7233    55.5009    231.608  
   953.195    314.476    2504.22    19.4269    53.2324    231.192  
   954.611    315.659    2504.27    17.4039    50.9874    231.364  
    958.28    319.138    2503.67    17.3648    50.8664    230.849  
   550.709    345.097    2355.65    21.6032    29.5168    455.729  
   551.114    344.416    2356.17    21.6728    29.6388    455.956  
   552.137    343.828    2357.86    21.9649    29.7936    455.816  
   552.568    343.975    2358.06    22.6188     29.884    455.955  
   551.117    345.091    2356.19    21.9381    29.5007    455.691  
   550.848    344.761     2355.8    21.6205    29.5799    455.878  
   551.627    344.114    2357.02    21.8104    29.6984    455.861  
   552.395    343.821    2358.02     22.256    29.8465    455.857  
    552.21    344.432    2357.44     22.658    29.7236    455.912  
   618.453     239.28    410.149    143.648    153.236    231.088  
    578.26    228.411    393.646   -116.849   -101.779    216.408  
    576.37    230.199     393.89   -114.794   -99.5222    216.323  
   619.455    239.454    411.263    142.849    153.053    229.569  
   834.051    191.222    480.373   -82.3719   -40.0138    97.1443  
   427.708    237.634    337.877    69.6649    79.2116    346.587  
   410.841    241.589    332.569     101.22    98.0949     354.84  
   832.923    191.444    480.956   -81.5607   -39.4352    96.8016  
   867.588    190.466    491.545    79.0395    89.1783    108.413  
   401.486    228.062    326.595   -29.4124   -36.5379    347.424  
   370.011    237.932    316.676    -70.016   -64.0479    353.623  
   868.607    190.259    491.037    80.2002     90.658    109.203  
    587.19    276.301    424.637   -23.2409     2.5096    213.308  
   542.182    282.607    391.141    47.2941    58.3271    243.435  
   541.888    283.152    395.289     46.787    58.3844    241.836  
   587.676    270.202    399.426   -21.6666    4.79511    202.493  
   726.209    230.774    438.077    74.8251    69.4981    175.108  
   488.853    224.206    359.928    2.37962   -5.57578    297.706  
    498.59    241.323    367.347   -1.66362   -5.11912     282.95  
   720.967    233.698    449.027    73.5999    64.0712    167.449  
   512.535    244.151    371.806    127.125    136.336    294.244  
   469.777    240.281    354.388    45.4251    67.7712    316.602  
   452.377     213.21    341.984    22.7731    33.1587    337.437  
   591.362    268.229    407.319    93.8114     98.955    226.829  
   696.763    214.296    435.515    -114.32   -80.6214    152.823  
   766.044    207.561    457.735   -67.5964   -12.1322    135.555  
   843.491    178.289     476.61   -21.9505    21.6704    118.945  
   560.435    262.081    396.043   -56.1846   -44.5384    222.295  
   698.176    213.807    434.992   -114.971   -81.2246    152.932  
   768.724        207     457.11   -68.8624   -13.2723    137.871  
   845.215    178.165    476.766   -24.1552     18.578    120.379  
   561.406    260.815    395.182   -57.8662   -46.8937    222.901  
   332.898    245.128    303.797    9.42426    7.15622    387.072  
   509.252    247.248    370.869     122.43    131.999    294.646  
   592.353    267.763    406.421    94.3292    100.231    228.145  
   472.438    229.539    353.965   -106.824   -100.405    285.774  
   743.604    221.495    453.724    135.306    144.235    162.866  
   744.648     221.24    452.985    135.977    144.941    163.507  
   470.594    234.215    354.527   -95.7847   -91.8219    285.501  
   438.516    209.149    336.309    5.22664    5.02691    342.276  
   622.002    265.041    412.853    60.0563    57.7387    205.011  
   522.789    268.283    385.187   -8.35624   -4.29352    247.719  
   524.394    271.509    386.609   -8.09786   -1.29304     246.23  
   615.854     267.68    424.001     60.922    57.9674    202.519  
   482.991    214.268    353.786    4.04085   -2.93045    311.927  
   801.122    202.203    473.346    48.3021    48.5562    149.399  
    801.58     196.05    448.717    52.2553    57.9129    142.226  
   465.607    217.977    347.912    20.1755    36.7074    332.018  
   454.724    224.931    346.496   -19.3784   -32.3849    314.655  
    915.81    184.706    509.074   -8.68814    26.1522    74.2737  
   349.444    240.579    309.054    36.5813    29.1209    382.896  
   916.145    184.613    508.893   -9.75175     24.924    74.2865  
   844.649     179.31      474.1    33.8862     52.434    131.961  
   842.913     179.06    472.833    30.6508    45.4542    128.173  
   469.922    205.798    347.612    10.5031    7.31742    328.007  
    503.62    249.603    370.782   -41.3729   -47.7312    265.862  
     676.2    247.072    431.251    100.615    96.9243    189.458  
   674.008    247.693    432.948    100.007     95.764    187.752  
   508.367    253.202    373.953   -34.5277   -39.4296    262.202  
   687.803    232.989    423.979   -42.0309    6.55144    169.397  
    503.83    259.134    372.479     30.865    48.4249    280.665  
   497.243    251.627    365.857    37.4332    58.8587    291.413  
   685.084    239.005    447.358   -39.4659    7.39658    171.578  
   557.782    280.809     396.31    35.4608    39.7235    222.362  
   545.945    278.307    395.235   -2.01137    16.1812    221.513  
   542.935    281.861    407.889   -3.37626    12.1342    227.429  
   555.166    283.268    410.112    37.5869    44.5255    224.951  
   482.129    202.376     351.13    8.98096    8.08204     319.21  
   625.287    255.655    419.123   -62.6109   -28.7694    187.866  
   529.862    270.423     383.88    68.2873    85.1729    264.779  
   531.099     271.91    385.356    64.2575     81.531    261.484  
   627.801    255.379    418.556   -62.8593   -27.9355     190.45  
   815.147    190.408     468.72   -27.2691    14.5392    144.259  
   483.423    213.469    352.849    16.8913    27.7678    320.135  
   809.418    188.448    459.386   -23.2433    21.3279    131.074  
   555.993    270.544    396.497   -33.1582   -19.3878    225.544  
   580.474    276.675    407.216    67.3714     72.975     225.16  
   582.266    275.821    404.791    67.7565    73.8202    226.283  
   555.499    271.792    398.781   -32.0427   -18.1828    224.615  
   484.908    230.973    359.832   -10.5391   -19.9188     296.51  
   762.552    216.347    454.543    86.5244    82.3133     161.61  
   758.124    216.183    453.294    85.0155    78.8218    155.684  
   758.707    213.272    447.162   -38.6426    12.2437    154.318  
   491.868    234.533    361.385    22.9584    39.9911    302.316  
   752.442    215.715    456.794   -36.2571    14.1388     149.91  
   488.126    233.009    357.765    24.1185    41.7907    308.305  
   481.115    207.252    350.044    16.2663    26.7286    324.527  
   516.445    260.196    379.003   -23.4199   -24.3036    255.654  
   480.094    237.464    359.045   -31.7801    -41.696    291.132  
    474.65     225.71    354.151    -7.1927   -17.8593    305.695  
   506.355    247.998    373.172   -4.20322   -5.99803    271.499  
   496.867    244.197    367.325   -16.2508   -21.7476    279.841  
   826.604     189.44     473.51    39.1912    47.3924    137.428  
   777.529     208.91    457.872    69.1296    67.0708    149.972  
   809.247    201.616    470.783    83.0997    84.9461    134.258  
   853.234    184.246    481.599    52.6493    66.0289    119.278  
   815.115    196.177    468.383    63.7573    69.0052    133.694  
    475.37    209.074    350.136    7.15118    2.79545    320.807  
   483.849    222.614    357.296   -3.03739   -11.0649    303.839  
   448.873    229.359    345.252   -20.5509   -29.7123    320.168  
   437.419    217.038    337.814   -7.11292   -12.1626     337.95  
   460.227    219.149    347.336   -5.92764   -12.6578    320.444  
   828.568    186.852    464.313    42.3931    55.3617    136.447  
   782.269    208.886    457.302      71.59    72.8185    155.628  
    811.59    201.393     470.48    84.4979    87.3328    136.882  
   854.609    184.208     481.85    54.5431    69.3253    121.082  
   818.219     196.48    470.674    65.8652    73.2175    138.617  
   657.599    266.213    463.754    88.4835     89.646    226.823  
    668.39     248.84    422.996    67.2005    63.0499    191.029  
   756.536    244.067    486.394    86.8586     90.718    201.786  
   704.875    257.184    477.071    90.7412    93.2944    217.676  
   514.568    260.488     376.02   -1.85243    5.39811    249.579  
   493.609    218.688     356.18    5.51248    6.44974    293.324  
   504.527    241.435    366.608   0.982484    5.24047    270.076  
   518.631    263.383    385.985   -2.07002    14.7725    253.047  
   512.737    258.653    377.736   -5.71595   -3.41113     262.46  
   500.719    228.551    368.745    3.94373    10.7967    289.718  
   510.334    247.521    378.095   0.246296    12.9159    270.138  
   631.361    247.269    387.903    88.7879    84.9053     160.96  
   662.251    252.015    435.648    67.0953    60.8921    186.786  
   727.907    224.557    409.296    84.6187    80.4858     135.28  
   676.123    236.356    395.307    90.0873    85.5032     147.31  
   570.668     247.02    395.965   -83.5784   -70.2573    220.621  
    594.81    259.904     408.74    -58.595   -35.4453    204.929  
   657.282    237.456    426.292   -85.8303   -51.3197    173.414  
   640.679    223.373    416.549   -115.246   -90.1214    184.312  
   618.247    242.729    412.918   -85.0828   -60.4137    195.992  
   607.856    254.794    409.374     117.73      125.5    230.163  
   560.063    269.411    394.832    80.4939    92.6156    247.633  
   522.508    262.011    379.094    93.0955    107.689    279.561  
   564.681     244.22    391.063    132.703    143.321     265.09  
   565.066    259.015    394.382    105.365    117.111    256.473  
   608.395    255.155    410.619    117.233    124.811    228.649  
   559.759    270.464    395.967    78.1009    89.4464    244.995  
   525.806    262.144    380.897    91.9237    106.865    276.313  
   566.353    242.876    391.929    135.097    145.452    264.177  
   565.603    259.569    395.438     104.55    116.189     254.86  
   571.414    245.422    395.123   -85.4953   -72.3791    221.055  
   596.648    259.025    407.709   -59.5406   -36.2002    206.259  
   659.061     236.98    425.532   -86.3228    -51.324    174.552  
    642.57    222.102    416.221   -116.667   -91.3904    184.151  
   619.691    241.638    412.142   -86.2903   -61.3202    196.539  
   767.279     176.24    454.365   -116.146   -104.992    125.384  
   618.806    183.844    399.979   -160.562   -136.239    207.525  
   697.283    178.427    428.471   -139.321     -121.9    166.061  
    494.97     228.53    361.927    188.709    166.214    322.177  
   654.453     199.25    416.262     180.94    190.353    237.353  
   576.549    212.907    389.603    187.429    180.097    281.166  
   494.936    230.815    362.179    183.912    163.372    321.204  
   654.761    199.219    415.969    181.441    190.593    237.813  
   574.965    214.513    389.041    185.197    178.503    281.846  
   768.417    175.964    454.171    -116.67   -105.432    125.583  
   619.787    182.162    399.658   -162.231   -137.605    207.808  
   698.842    177.374    428.385   -140.258   -122.637    165.882  
   818.926    205.142    463.498    20.3414    39.6735    143.177  
   765.864    218.968    423.286    74.1902    75.1131    132.891  
   796.701    213.204    444.517    47.2811    57.8013    137.401  
   486.541    202.566    352.934    10.5415    14.0786    321.715  
    496.49    216.251    363.516    6.37546    11.7423    302.362  
    491.06    206.908    357.505    8.22531     13.053    313.549  
   821.232    206.231    467.943    24.0229      49.25    148.604  
   789.334     235.85    490.107    76.2778      86.41    190.858  
   809.067    222.315    480.219    50.5385    68.8422    169.776  
   499.861    231.997    366.395    20.4871    32.2874    311.155  
   496.821    220.132    362.662    17.1718    27.3885    317.532  
   473.808    212.584    349.588    19.7469    32.3662    327.961  
   477.355    225.435    353.622    22.8896     39.224    319.907  
    487.85    222.831    357.737    20.4412    32.6383    316.998  
   492.959    242.901    361.835    31.3734    51.5161     298.81  
   511.203    265.279    378.158    29.5631    42.7694    283.413  
   506.569      250.6    373.345    25.8055    37.8558    296.789  
    540.49    287.162    398.291    29.8701    34.9026    233.004  
   581.156     271.64    430.185    54.9567    60.0138    229.806  
   554.879    272.347    415.141    37.0931    42.0576     225.87  
   566.308    268.662    425.129   -22.5533    1.98759    227.543  
   532.353    278.093    391.443   0.403833    16.8271    223.549  
   546.787    266.483    410.483   -7.94785    12.8382    220.729  
   553.328    259.407    387.986    -25.282   -8.19975    195.169  
    533.11    280.615    403.031   -1.12985    21.9473    229.272  
   541.427    262.519    395.299   -10.5903    9.53236    207.307  
   537.219     287.48     399.36     32.333    31.4955    231.535  
   566.252     260.64    388.515    57.9928    62.8707    193.277  
   547.191    266.979     394.05    40.4916    42.7572    208.961  
   680.182    261.896     473.41   -61.2296   -18.5028    220.776  
   761.065    236.952    487.952   -57.7757   -13.2619    194.722  
    722.69    225.386    436.856   -40.3865    9.34913    163.915  
   718.022    249.808    482.492   -63.7488   -19.6556    209.682  
   511.401    267.013    372.169    28.1088    31.0837    273.733  
   497.068    232.074     358.17     20.798    26.8954    303.991  
   498.445    248.047    367.236    27.4235    44.2117    291.241  
   504.791    250.695     365.19    25.4045    28.9423    288.408  
   648.817    240.831    390.226   -61.9496   -24.5799    148.913  
   734.616     217.22    409.919   -55.3167   -13.3825    128.937  
    716.37    229.164    450.682   -38.1869    10.3594    161.091  
   688.306    227.495     395.92   -62.4916    -23.462    135.673  
   536.692    271.015    391.912   -18.5586   -8.20273    236.351  
   559.656    266.776     397.75   -44.8309   -31.5708    223.298  
   533.539    257.931    384.763   -45.5339   -42.5657    243.593  
   518.785    262.526    381.385   -21.0924   -19.3533    253.758  
   536.533    264.836    388.574   -31.6282   -25.3279    240.403  
   605.182    271.923    414.934    66.8765    68.7978    216.742  
   588.281    271.711    406.183    81.4852    87.6552    227.978  
   637.271    257.894    420.196    98.4323    99.0614    208.255  
   649.547    258.284    426.318    82.0595    79.7246    200.748  
   622.253     264.68    417.291     81.958    82.8799    212.541  
   600.072    271.393    411.794    67.1966     68.399    209.706  
   586.542    272.328    407.172    80.7176    86.4456    226.542  
   635.446     258.39    421.274    97.8183    97.9681     206.73  
   644.674    257.873    423.917    82.1268    78.8226    194.077  
   619.154    264.988    417.193    81.7657    81.9845    208.982  
   535.623     268.73    388.822    -19.075   -10.6391    237.722  
   560.411    265.603    396.605   -46.1561   -33.1865    224.138  
   532.121    255.523    382.909   -49.4917   -47.3594     245.63  
   535.633      262.8    386.894   -33.4916   -28.5739    242.502  
    717.19    233.367    444.354    93.8276     87.262    172.072  
   708.242    234.344    442.852    118.415    119.351    176.832  
   813.287    208.139    476.097    108.291    117.934    133.533  
   764.389    218.707    459.169    102.403    102.244    153.893  
   720.315    232.897    443.428    94.8583    89.4027    175.296  
    709.83    234.001    442.035     119.05    120.211    178.144  
   814.452    207.871    475.441    109.208    118.953    134.216  
   766.458    218.382    458.656    103.404    103.757    155.821  
   495.882    242.123    366.608   -22.2078   -30.6133    279.811  
   493.819    246.295    366.425    -63.242   -65.3843    273.981  
    431.81    233.303     339.41   -63.8053    -65.693    320.927  
   468.337    238.671    354.877   -41.7845   -48.9107    300.006  
   525.696    278.768    387.536    33.9553    43.3096    261.166  
   551.912    283.686     398.34    44.2806    52.5021    234.096  
   535.151    284.805    395.561    33.9269    41.3235     247.61  
   625.486     259.96    442.949   -48.6764   -12.5501    215.688  
   563.912    273.619    394.469   -11.0546    11.3765    211.342  
   594.248    264.963    435.146   -38.0534   -7.33292    223.535  
   605.909     247.79    394.015   -48.5373   -19.4709    170.462  
   562.411    279.114    416.926   -12.5407    9.35254    221.207  
    577.62    253.091    388.718   -39.6719   -15.8281    181.217  
   523.513    277.944    382.502     34.504    37.3568    255.792  
    550.22    283.288    399.611     45.329    54.8082    230.036  
    531.95    283.601    389.505    35.2345    35.3583    242.059  
    684.14    230.672     432.68    140.249    149.622    198.702  
   797.926    195.536     468.84    135.235    176.887    151.978  
   730.364    195.441    443.558    158.814    185.162    195.364  
   529.963    229.073    375.597   -112.313   -101.505    251.076  
   455.607    216.363    344.671   -170.853   -132.943    299.294  
   542.409    197.239    373.546   -169.516   -137.004    252.948  
   527.822    232.554    375.938   -105.108   -96.2824    251.557  
   456.776    219.632    345.948   -161.616   -127.704    298.227  
   540.577    200.686    373.808   -164.027   -133.684    253.702  
    683.54    230.961     433.39    139.611    149.083    197.973  
   796.989    195.572    469.111    134.702    176.381    151.563  
   729.808    195.516    443.869     158.39    184.813    194.861  
   490.436    236.996    363.558   -5.38421   -11.9097    290.358  
   492.985    226.131    362.811    1.47011   0.736631    296.516  
   738.626    225.182    447.922    78.6507    71.9993    159.768  
   754.292    221.542    440.879    72.6913    69.2255    148.465  
   745.108    225.562    449.696    80.2081    76.5526    169.042  
   766.233     227.01    464.217    74.7865    77.3264    175.544  
    491.57    242.501    364.328   -71.3827    -72.443    276.211  
   424.513    234.064    336.646   -91.1283   -83.7003    321.425  
   420.377    233.367        335   -41.7682   -47.3485    332.738  
   457.744    238.434    350.447   -58.0183   -60.9447    305.817  
   570.685     270.62    402.901    -33.177   -13.5407    212.754  
   536.228    276.395      393.5    -10.095    1.61242    232.549  
   550.782    272.991    397.671   -21.1198   -5.11328    222.928  
   560.419    278.533    398.233    57.0817     65.691    236.479  
   586.156    272.235     401.96    46.6353    47.7751    213.992  
   576.327    277.426    406.871     55.973    61.1895    226.795  
   558.681     279.12    399.314    56.7485    64.2734    234.661  
    582.04    275.787    417.397    48.1145    49.0299    216.145  
   572.135    276.843    403.884    56.6338    60.8125    221.023  
   574.277    270.805    406.219   -33.5451   -13.2315     217.74  
   537.928    275.243    395.972   -9.59885    2.39408    235.428  
   552.533    272.621    399.247   -20.9531   -5.51041    226.841  
   351.446    244.519    310.865   -31.3478   -29.6058    373.392  
   391.781    227.541    322.441    7.00996    4.98356    363.926  
   445.967    216.859    341.113   -7.55118    -14.516     330.26  
   405.961    231.565    328.908   -18.1116   -22.2035     350.77  
   901.513     188.21    503.693    38.0879     62.493    90.9526  
   900.905    206.972     509.03     71.005     116.02    83.4731  
   937.229    216.527    525.461    4.10025     37.934    46.0597  
   924.648    213.579    519.675    37.6563    81.2346    64.8413  
   310.329    267.702    300.193   -110.502   -83.1593    380.221  
   260.134    291.418    285.946    12.2249    3.19018    418.756  
   282.954    284.771    293.299   -49.5157   -40.1985    402.632  
   373.338    234.672     317.08   -2.56949   -6.90552    368.275  
   329.567    260.482    305.999   -81.1644   -64.9435     375.27  
   270.741    287.881     289.19    32.6965     19.804    416.269  
   299.381    276.546     297.79   -30.9371   -25.7047    398.045  
   901.052    188.264     503.77    36.9824    61.1186    90.4829  
   900.078    206.956    509.264    70.1126    115.047    83.0152  
   937.447     216.53    525.423    3.15312    36.9429    46.0656  
   924.294     213.56    519.761    36.7232    80.2076    64.6034  
   881.258    190.103    497.414    -44.777   -6.58684    85.9448  
   882.974    195.771    500.992    -55.713   -44.6559    65.5032  
   914.817    208.956     515.54   -24.0707   -2.39765    54.6999  
   880.485    190.283    497.807   -43.8144   -5.67086    85.7384  
   882.052    195.694    501.154   -54.9633   -44.0766    65.2078  
   914.206    208.904    515.632   -23.2092   -1.61969    54.5427  
   381.099    243.183    321.607    69.8709     64.183    371.476  
   347.236    267.499    313.939    142.671    107.675    390.289  
   306.693    281.711    301.534    88.6767    63.7444    406.385  
   384.297    242.901    323.125   -145.226   -110.093    341.133  
   854.983    202.175    491.866      100.9    146.235    115.643  
   855.956    202.185    491.621    101.595    146.942    116.081  
    390.28    244.231    325.759   -123.646   -97.3593    341.108  
   534.028    244.269    380.776   -79.3324    -72.708    248.711  
   660.972    245.047    426.697    118.563     123.33    204.815  
   659.852    245.477     427.52    117.871    122.524    203.718  
   534.341    247.032    382.078   -73.9868     -68.23    247.801  
   379.767    240.618    320.486    48.0437     47.132    370.781  
    358.21    263.726    317.206    120.293    95.7797    384.237  
   310.377    279.384    302.402    74.9442    53.6066    404.725  
   876.369    178.342    490.911     -17.71    24.1816    98.3951  
   847.668    179.857    476.765    8.43423    39.7834    125.757  
   872.085    181.485    488.665    20.2938    50.0721    108.794  
   408.105    227.931     328.49    28.0525    32.2721    359.007  
   461.319     207.31    344.399     15.006    18.9634    333.183  
   421.148    221.422    332.286     7.0692    8.35961    350.194  
    877.32    178.219    490.886   -19.3379     22.045    99.0159  
   847.668    179.617    475.888    5.60069    34.4804    124.546  
   871.893    181.533    488.726    18.4862    47.2178     108.33  
   445.118    229.007    342.532     42.757    56.1884    339.736  
   451.619    212.183     341.63    13.9262    21.2511    338.189  
    417.16    227.443    331.834    29.3459    32.5328    354.176  
   615.828    268.974     446.53    72.4451    75.1571     229.26  
   525.831    270.854    386.449   -2.99069    9.20223    235.612  
   528.177    272.791    393.465   -3.79606    17.1621    238.234  
   594.411    253.805    386.356    74.2227    73.5849    177.382  
   768.948    203.165    459.913   -99.7629   -61.5224    125.649  
   830.007     185.19     479.65   -84.9998   -75.3147    94.6105  
   465.676    243.714    353.594    96.3627    106.053    324.336  
   424.041      250.1     339.33    154.014    130.239    356.504  
   465.802    242.511    353.682    116.364    119.433    326.194  
   422.074    248.434    338.391    169.233     138.79    358.343  
   770.179    202.796     459.32   -100.504   -62.0513    125.841  
    831.16    185.109    479.512   -85.5839   -75.7205    94.7749  
   795.558    200.026    467.789   -75.0804   -24.4663    118.291  
   807.917    194.403    468.696   -45.0477    5.10838    127.251  
   841.105    190.975    481.703   -46.0408   0.276174    108.313  
   445.334    244.164    346.059    69.2098    81.8649    335.001  
   460.701    226.869    348.058    34.1002    50.3294    328.083  
   426.738    236.881    337.448    49.4662    57.4022     349.01  
   797.483    199.685    467.387   -76.1299   -25.2599    119.615  
    810.18    194.076    468.439   -46.7879    3.03884    129.253  
   842.551    190.756    481.437   -47.3869   -1.15964    109.342  
   462.727    207.531    345.128    7.28166    6.11456    330.503  
   486.373     213.14    356.044    5.49481    1.43766    308.417  
   468.524     216.26    349.513  -0.656537   -6.55438    319.196  
   693.372    233.065    438.326   -67.7836   -23.1406    162.816  
   725.475    221.052    447.305    -82.102   -40.0741     147.86  
   511.472    260.406     374.35    51.2875    72.0238    280.047  
   470.091    246.522    355.917     52.213     70.398    317.415  
   493.579    254.803    366.595    72.0921    89.5118    301.012  
   502.244    257.383    370.803     56.732    76.6706    288.834  
   489.479      253.8    365.085    82.3926    96.0421    305.457  
   695.948    232.498     437.15   -68.4868   -23.0462    164.875  
   727.332    220.645    446.698   -82.8676   -40.3485    149.125  
   490.001    200.586    352.849    10.7781    15.8231    319.188  
   491.771    208.155    353.969    8.08878    11.3223    306.682  
   471.631     235.75    354.091    37.2334     55.198    319.117  
   762.694    212.592    456.782   -56.4523   -4.42197    149.666  
   660.728    244.626    427.476   -54.2638   -13.3827    180.832  
   709.352    230.608     443.01   -58.0178   -11.9549    167.014  
   757.372    211.727    452.048    -54.729   -3.09138    141.416  
   656.061    245.359     428.94   -53.6414   -14.4109    177.358  
   703.876     230.01    438.718   -56.9068    -11.952    159.184  
   480.965    238.229     357.66    34.2929    53.4184    310.468  
   515.144    265.301    377.616    48.0532    65.7527    272.473  
   499.071    253.515    368.231    42.7384    60.3831    291.101  
    828.99    185.553    471.927   -25.1567    17.8369    131.889  
   810.553    218.389     470.63   -7.61843    24.2332    158.582  
    826.75    197.069    469.992  -0.868189    29.9527     139.44  
   468.189    214.954    347.954    19.7356    30.9145    329.386  
   491.551    204.761    353.822    13.7467    21.1464    318.763  
   477.566    207.178     350.01    13.5799    20.6624    325.086  
   825.512    185.046    468.624   -22.2217    22.0507    126.417  
    803.68    214.215    454.627   -4.13478    31.8166    144.663  
   825.192    196.419    467.272    2.45451    37.4143    136.619  
   687.019    244.058    434.254    82.3149    77.2094    178.402  
   693.031    244.856    438.234    82.8882    79.4388    187.444  
   505.862      251.3    373.424   -14.3929   -16.4543    270.455  
   608.321    263.554    411.967   -40.8908   -12.0065    198.639  
   640.548    253.419     429.92   -47.3132   -8.81416    197.022  
   537.819    277.989    390.436    55.1639    68.5581    251.331  
   521.318    272.119     381.31    39.8069    50.7836    262.808  
   538.326    277.304    389.069    57.4681    71.7352    253.691  
   520.209     270.49    381.061    41.0876    55.7159    269.401  
   605.568    264.887    418.545   -41.3094   -13.2881    199.268  
   631.351    250.946    417.008   -47.1133   -12.0285    179.457  
   480.919    202.703    349.961    12.4219    16.9145    323.437  
   467.176    208.722    346.828    13.5965    18.2639    330.876  
    492.67    208.291    357.183    13.7668    21.4945    320.486  
   585.956    263.984      406.4   -46.5309   -24.1123    212.139  
   561.651    273.972    397.184    68.9214    79.6713    242.437  
   560.812     274.67    397.946     67.752    77.5569    239.742  
   583.726    264.701    406.409   -45.9415    -23.796    209.318  
   787.643    203.224    457.514   -33.5273     12.997    149.246  
   796.626    201.184    464.743      -40.9    6.76255     141.35  
   487.787    224.323    357.325     20.603    34.6157    311.212  
   474.862    226.863    352.992    27.6413    42.8319     320.32  
   782.635    203.982    460.158   -30.4899    17.2303    141.752  
   792.243    200.541    461.362   -38.6512    9.37067    134.903  
   789.262    229.379    482.251   -34.5259      3.911    178.215  
   493.524    217.534    355.298    17.4855    23.9853    312.938  
   770.985    216.405    431.235   -31.6128    7.75201     135.37  
   938.136    351.625    4219.62    23.9391    60.1908    434.974  
   936.231    353.008    4219.93    25.3104    61.2926    435.078  
   921.393    346.873    4215.63    13.9037    46.4745    442.132  
   917.592    348.688    4215.75    13.0923    45.0653    443.696  
   919.271    346.377    4215.54    21.1068    57.8003    444.918  
   918.565    346.226    4215.41    21.5806    58.1988    445.392  
   940.577    352.318    4219.53    13.1301    49.1813    431.929  
   939.873    352.881    4219.62    12.3183    48.5522    431.676  
    934.77     353.39    4219.29    11.0392    46.0581    433.743  
   936.364    345.458    4217.17     14.779    49.9646    435.963  
    940.22    344.292    4217.35    17.7499    53.5853    435.085  
   937.494    340.847    4216.04    17.2643    52.7005    437.379  
   937.494    341.635    4216.36    19.1504    55.0116    437.499  
   937.634    339.481    4215.71    17.9444    53.5755    437.973  
   935.846    339.156    4215.37    17.9839    53.5341    438.867  
     937.7    339.634    4215.74    17.6055    53.2253     437.85  
   934.628    339.518    4215.31    17.9006     53.424    439.322  
   935.747    340.839     4215.9    19.0947    54.9034    438.534  
   938.473     341.79    4216.49    18.6436     54.557    436.979  
   928.264     341.23    4214.99    18.4572    53.6479    441.882  
   934.567    341.139    4215.74    16.4628    51.6405    438.517  
   934.079    341.015    4215.74    19.3558    55.0785     439.22  
   926.694    341.813    4214.93    18.2877    53.5686    442.352  
   931.226    342.211    4215.59    15.7681    50.4306    439.577  
   937.001    341.434    4216.13    16.5754    52.0196    437.252  
   934.917    345.906    4217.46    21.9744    58.1064    437.543  
   934.957    346.711    4217.35    13.8222    48.8369    435.889  
   938.469    345.524    4217.67    20.7068    56.8928    436.157  
   931.171    343.468    4216.21    20.9383    57.1221    440.178  
   917.276    343.818     4214.2    18.7102    53.2082    446.561  
   928.249    350.389    4218.25    24.5963     61.359    439.868  
   945.094    351.851    4219.91    17.6795    53.9526    430.812  
   940.289    345.128    4217.56    16.6398    52.5708    434.641  
   945.153    352.207    4219.98    16.6299    53.1408    430.563  
   927.796    350.473    4217.63    11.6403    45.3227    437.451  
   927.707    348.395    4216.99     12.627    46.2393    438.702  
   929.496      342.7    4215.71    20.1816    56.2561    440.985  
   916.987    343.872    4214.13    18.5496    53.2324    446.511  
   924.158    349.586    4217.46    24.4195     61.146     441.51  
   940.754    347.396    4218.45    20.6711    56.6953    434.336  
   941.701    347.446    4218.49    19.5239    55.7901     433.89  
   934.294    354.342     4219.5    10.2781    45.6399    433.178  
   927.257    342.872    4215.28    15.9912    50.0733    441.398  
   943.245    352.358    4220.17    22.3849    58.3033     431.97  
   944.238    352.204    4220.13    21.2382    57.4033    431.747  
   924.984    342.361    4214.78     16.763    51.0513    442.773  
   917.611     344.54    4214.33    16.3163    49.1361    445.325  
     927.9    353.453    4219.29    26.3751    62.9931    438.687  
   919.594    349.833    4216.94    24.0916    61.3513    443.955  
   916.885     345.97    4214.75     16.014    48.2169    445.444  
   917.764    344.607    4214.62    20.1369    55.7101    446.128  
   925.306    344.882     4215.9    21.3033    57.6907    442.678  
   929.573    342.036    4215.48    19.6718    55.3548    441.156  
   922.943    342.571    4214.65    18.5787    53.4126    444.264  
   924.068    343.473    4215.19    19.9454      55.59    443.584  
   910.315    347.744    4214.68    21.7801    58.8315    448.914  
    908.29     345.05    4213.12    18.5811    52.6324    450.374  
   909.595    346.648    4214.06    20.0671    55.6582    449.775  
   918.129    344.782    4214.71    19.7279    55.5653    445.838  
   924.568    344.428    4215.61    20.7402    56.9723    443.011  
   928.125    342.114    4215.27    19.2616    54.8749    441.699  
   921.629    342.999    4214.55    18.3455    53.3528      444.6  
   923.084     343.65    4215.06    19.6062    55.2189    443.848  
   926.486    344.656    4215.67    14.8212    48.5003    440.781  
   932.941    344.255    4216.39    14.7867    49.5971    437.818  
   931.673    348.741    4217.58    12.6695    47.1338    436.574  
   924.284     348.56    4216.57    12.7427    45.8615    439.924  
   928.887     346.44    4216.53    13.7585    47.8436    438.832  
   912.794    351.489    4216.04    12.3487    42.6794    444.503  
   923.025    348.578    4216.44    12.8539    45.6543    440.958  
    924.09    353.597    4218.25    10.4384    43.3584    438.187  
    918.87    352.639    4217.27    11.3429    43.0334    440.997  
   933.109    351.003    4218.93    24.3952    60.8836    437.383  
   924.629    355.138    4219.61    27.0737    63.9958    440.196  
   937.119    357.045    4221.39    27.0389    62.7362    434.234  
   930.818     356.12    4220.51    26.9897    63.4511    437.048  
   911.402    347.964    4214.84    21.3995    58.5458    448.653  
   907.796    345.197    4212.92    18.5766    52.5269    450.354  
   909.836     346.72    4213.99     20.142    55.5356    449.604  
   943.819    358.026    4221.27    11.0974    48.5057    428.802  
   943.028    352.636     4219.9    14.4189     50.864    431.034  
   949.653    357.857    4221.84    17.1631    53.8625    427.687  
   947.285    357.827    4221.56    14.2583    51.2321    428.282  
   937.289      340.5    4215.91    17.1143    52.6566    437.551  
    934.12    341.952    4215.91     16.098    51.1328     438.44  
   932.856    340.646    4215.37    16.9328    52.0873    439.531  
   936.098    339.461    4215.48    17.6748    53.2047    438.572  
   934.984    340.582    4215.63    16.9991    52.2707     438.54  
    921.54    347.769     4216.4    22.9564    59.4695    443.318  
   916.368    352.279    4217.31    25.3148    62.9427    444.265  
   913.949    350.527    4216.27    23.1915    60.6324    446.582  
   937.919    340.638    4216.06     18.071    53.8567    437.411  
    936.85    339.383    4215.57    17.8918    53.5224    438.328  
   935.681     339.78    4215.55    18.4805    54.1462    438.756  
   937.065    341.362     4216.2    18.8416    54.7447     437.73  
   936.741    340.261    4215.82    18.3075     54.098    438.097  
   936.232     339.48    4215.52    18.0176    53.6217     438.58  
   936.684    339.244     4215.5    17.8736     53.434    438.416  
   936.481    339.278    4215.47    17.8279    53.4541     438.39  
   934.223    340.094    4215.45    18.5571    54.1473    439.309  
   935.888    341.344    4216.07    19.2122    55.0342    438.265  
   937.374    340.499    4215.98    18.5056    54.2687    437.743  
    935.84    340.312    4215.73    18.5363    54.2853    438.495  
   935.072    339.941    4215.48    17.3182    52.6579    438.798  
   937.507    340.147    4215.86    17.6243    53.1857    437.667  
   935.982    341.077    4215.92    16.8548    52.1096    438.011  
   936.225    340.078    4215.67    17.4667    52.8483    438.249  
   938.866    342.921    4216.85    18.5709    54.4249    436.304  
   938.877     342.62    4216.71     17.468    53.1442    436.182  
   938.044    341.584    4216.35    18.0491    53.7807    436.975  
   938.597    344.931    4217.32    16.2387      51.75    435.495  
   935.511    343.206    4216.44     15.667    50.7949    437.256  
   937.356     343.04    4216.64      16.49    51.8894    436.715  
   931.165    342.029    4215.56    16.2198    50.8159    439.936  
   932.329    347.164    4217.21    13.6282    48.0896    437.243  
   927.229    345.446    4216.05    14.3819    48.1661    440.209  
   931.591    344.406    4216.31    14.9909    49.4397    438.727  
   944.514    357.741    4221.39    11.9675    49.2342    429.206  
    943.35    352.165    4219.81    15.3591    51.5785    431.293  
    949.61    357.656    4221.85    18.2305    54.7689    427.876  
   947.602    357.587    4221.62    15.2167    52.0384    428.582  
   932.338     340.33    4215.28    18.2272    53.5907    440.307  
   933.497    342.276     4216.1    20.0711    56.0755     439.38  
   932.751    341.037    4215.58    19.0746    54.7072    439.998  
   931.034    340.733     4215.2    18.0737    53.4796    440.704  
   931.731    341.954    4215.76    19.8166    55.6939    440.175  
   931.314    341.187    4215.41    18.8839    54.4616    440.515  
   938.562    343.243    4216.82     16.528    52.2621    435.959  
   937.946    345.969    4217.52    15.1978    50.6849    435.226  
   936.009     343.85    4216.68    15.5699    50.8637    436.851  
   914.936    350.655    4215.85    12.5592     43.495    443.457  
   923.854    354.851    4218.44    9.65377    42.8164    437.222  
   919.147    352.805    4217.16    11.1146    43.1601    440.363  
   938.201    348.599    4218.63    22.3163    58.5305    435.504  
   934.801    344.418    4216.93    20.8576     57.075    438.168  
   929.569    346.681    4217.11      22.65    59.1137    440.078  
   933.752    347.587    4217.86    22.5325    58.9367    437.822  
   942.543    348.018    4218.62    17.7116    53.7837        433  
   938.396     348.69     4218.3    13.9499    49.5543    434.085  
   940.943    348.382    4218.54    15.8459    51.6933    433.493  
   939.409    343.414    4217.02    17.7613    53.6973    435.824  
   938.173    341.993    4216.45    17.3693    53.1348    436.697  
   938.335    343.614    4217.04    19.6334    55.6844    436.558  
   935.874    342.974    4216.58    19.9012    55.9488    437.901  
   918.947    347.773    4216.06    22.7379    59.6124    444.781  
   924.299    350.134    4217.66    24.3649    61.4043      441.7  
   924.725    347.258    4216.68    22.6536    59.4088    442.262  
   942.608     348.65    4218.76    16.5676    52.8441    432.623  
   937.374    349.651    4218.45    13.0334    48.6941    433.878  
   940.457    349.172    4218.68    14.8044     50.801    433.201  
   940.582    345.718    4217.87    19.0434    54.9547    434.736  
   941.977    349.961    4219.31    21.5377    57.5356    433.111  
   944.486    352.143    4220.08    19.9353    56.0079    431.356  
   942.529    349.009       4219    19.4592    55.4777    433.046  
    927.73    341.819    4215.06    17.3315    51.8955     441.74  
   931.765    340.924    4215.34    17.3355    52.2619    440.211  
   930.803    350.579    4218.01    11.8545    46.1225     436.45  
   935.045    358.316    4220.89    9.04763    44.9002    432.129  
   928.946    355.758    4219.46    9.81065    43.9428    435.304  
   937.925    352.933    4219.48    12.2002    47.7052    432.822  
   939.969    358.022    4221.13    10.7121    47.1584    430.662  
   937.758    346.623    4217.95    21.3956    57.4749    435.996  
   936.239    343.705    4216.88    20.4836    56.4679    437.506  
   938.403    344.641    4217.34    19.8729    55.8257    436.069  
   932.171    344.185    4216.55    21.1599    57.2179    439.267  
   933.981    342.905    4216.34    20.2439    56.1517    438.761  
   935.353    349.331    4218.62    23.5997    59.6473    436.372  
   929.926    347.848    4217.55    23.2004     59.622    439.431  
    925.76    351.264    4218.25    25.3691    61.9479    440.268  
   932.428     353.27    4219.66    25.8822    62.1138    436.695  
   931.003    350.316    4218.51    24.4168    60.7703    438.201  
   917.073    344.377    4214.29    17.4981     50.784     446.15  
   910.242    347.974    4214.43    15.1633    46.3036    448.495  
   909.424    346.779    4213.91    16.9612    49.6143    449.639  
   928.453    342.272    4215.23    16.1934    50.6477    440.986  
   925.778    342.003    4214.82    17.6203    52.3878    442.604  
   929.754    341.307    4215.15    17.2659    52.1325    440.889  
   934.257    358.783    4220.71    8.38338    44.4701    431.498  
   937.357    353.645    4219.62    11.4569    47.2101    432.409  
   939.334    358.397    4220.99    9.96835     46.607    430.106  
   934.914    349.814    4218.27    12.8743    47.8931    435.193  
   945.524    358.066    4221.98    24.4177    59.9334    429.729  
   939.821    352.727    4220.07    23.8143    59.7824    433.509  
   935.589    357.851    4221.45    28.0428    63.4353    434.077  
   941.034      357.9    4221.74    25.9426    61.7569    431.735  
   927.214    346.042    4216.56    22.0512    58.3305    441.257  
   946.462    358.002    4222.04    23.4143     59.125    429.749  
   941.069    351.904    4219.85    22.6002    58.7993    433.398  
   941.953     357.49    4221.72    25.0282    61.0788    431.917  
   917.206    343.991    4214.13    17.4781    51.2439    445.985  
   909.395    346.976    4213.69    15.6374     46.905    448.221  
    908.85    346.268    4213.43      17.17    49.7462    449.407  
   919.515    345.632    4214.96    15.0605    47.7984    443.707  
   912.253     348.94    4214.85    14.0596    45.2751     445.89  
    923.93    356.825       4220    28.1778    64.9162     439.38  
   929.915    357.444    4220.78    27.9488    64.1693    436.487  
   913.976    352.517    4217.21    25.0689    63.1737    445.741  
   912.213    350.325    4216.04    23.2236    60.7615    447.495  
   917.106      347.3    4215.22    14.5484    46.7996    444.665  
   911.798    349.865    4215.35    14.0166    44.6657    446.545  
   919.537    354.108    4218.57    26.0647    63.5713    442.698  
   941.116    346.207    4218.01     17.905    53.9689    434.273  
   942.936    349.981    4219.34    20.3965    56.6434    432.758  
   944.967    352.257     4220.1    18.8444    55.1742    431.123  
   943.051    349.331    4219.09    18.3247    54.5754    432.671  
   948.529    357.831    4221.93    20.2824    56.6387    428.705  
   939.922    346.489    4218.06    20.1413    56.3664    435.064  
    939.69    344.832    4217.49    18.8188    54.8813    435.388  
   948.106    357.766    4221.91    21.3044     57.465    428.772  
    919.95    354.549    4218.66    26.5515    63.7917    441.947  
   930.594    352.225    4218.47    10.9653    45.4797    435.526  
   928.469    356.658    4219.48    9.11763    43.5044    434.501  
   938.639    349.679    4218.99    22.5908    58.6714    434.799  
   934.268    351.058    4218.54    12.0109    47.1732    434.627  
   922.481    344.323    4215.06    15.9075    49.1694     443.38  
    922.65    346.382    4215.72    14.4785    47.4288    442.258  
   922.613    343.267    4214.78    17.3294    51.3359    443.958  
   940.371    349.338    4218.98    21.3975    57.6498    434.211  
   921.084    343.597    4214.56    16.4803    50.0591    444.156  
   923.951    344.144    4215.15    15.5522    49.2157    442.321  
   921.366    343.194    4214.52    17.4908    51.7874    444.414  
   536.509    293.949    389.736    13.9143    22.1389      228.5  
   537.627    298.535    391.188    17.5697     26.317    233.012  
   537.856    298.682    390.854    18.2711    27.3716    233.172  
   537.442    294.708     389.27    20.6238    30.9488    230.024  
   511.486    266.943     378.09    12.4572    21.4844    261.306  
   513.463    269.338     376.72    14.7085    23.4087    262.475  
   513.739    269.513    376.217     15.857    24.7611    262.686  
   512.748    268.221    377.143    16.9035    26.7257    262.783  
   495.658    221.648     362.23    11.3684    19.9566    300.605  
   496.582    222.312     361.12    12.1624    19.9346    300.967  
   496.783    222.414    360.857    12.9538      20.73    301.104  
   496.906    222.094    362.249     13.235    21.7804    301.584  
   490.816    198.852    355.013    10.8745    17.7484    320.045  
   490.585    198.908    354.001    11.0932    17.0469    319.628  
   490.566     198.91    354.003    11.0919    17.0413    319.627  
   490.779    198.823    355.001    11.0136     17.754    320.053  
    496.32    223.932     362.44    13.3508    20.2522    301.312  
   496.042    223.876    360.853    12.9027    19.1628    300.099  
    495.77    223.781     361.03    12.0968    18.3326    299.969  
   494.714    223.469    361.824    11.6862     18.292    300.425  
   513.074    268.124    377.171    17.8268    25.7888    263.897  
   513.842    268.846    376.119    15.9306    23.5602    262.829  
   513.502    268.712    376.483    14.7924    22.1509     262.65  
   511.264    267.231     377.44    13.4521    19.9747    262.622  
   537.357    294.623    389.153    20.7988     29.881     230.94  
   537.496    298.088    390.615    17.3146    26.4621    233.384  
    537.26    298.003    390.855    16.6027    25.3841    233.264  
   536.004    293.941     389.24    13.8418    20.8354    229.603  
   535.542     289.58    397.787    14.1368    27.1484    232.732  
   542.861    299.161      390.2    16.0058    24.2237    222.448  
   542.175    287.995    398.515    13.7294    25.5779     221.07  
    537.48    297.326    391.169    16.7959    25.7587    231.908  
   543.039    303.404    393.946     17.573    26.7115    227.199  
   543.107    301.688    393.631    17.2555    26.3222    225.722  
   537.723    298.694    391.119    17.9986    26.8802    233.231  
   543.151    303.506    393.741    18.0188    27.2819    227.288  
   543.067    303.464    393.976     17.864    27.0284      227.4  
    537.64    297.462      389.7    19.2209    27.7074    231.974  
   543.413     299.63    389.514    18.8724    28.8038    222.905  
   543.203    301.806     392.75    18.4843    27.3108    225.789  
   532.953    290.555    388.593    21.9935    24.7909    231.368  
   540.902    288.346    393.354    21.4314    26.6323    221.465  
   514.197    267.102    384.899    14.5464    26.4913    266.663  
   523.918    282.714    384.408    13.4922    21.8097    244.255  
   525.201    280.783    392.321    14.9116    27.3067    249.098  
    513.04    268.887    377.586    13.9814     23.155    262.529  
   525.744    285.995    384.384    16.5273    25.0167    246.795  
   525.425    285.173     384.94    15.6609    24.5676    246.286  
   513.662    269.517    376.559    15.3471    24.0624    262.748  
   526.008    286.149    383.965    17.4174    26.2588    246.979  
   525.883    286.147    384.327     17.044    25.6462     247.07  
   513.191    269.037    375.712    16.6881    25.0774     262.52  
   525.207    283.615    384.055    19.1328    28.9998    245.784  
   525.544    285.262    383.225    18.4193    26.6013    246.302  
   511.209    267.789    371.948    17.6739    21.6029    263.354  
   522.285    281.725    380.445     20.059    22.8284    246.627  
   499.006    221.262    367.201    12.7805    22.9057     303.98  
   503.622     245.89    370.473    12.3252    20.8044    279.595  
   507.097    245.343    376.905    13.9368    25.0678    283.929  
   496.491     222.26    362.004     11.937    20.1461    301.389  
   505.161     247.21    369.279     13.724     21.782    280.317  
   504.954    246.992    370.292    13.2601    21.8103    280.643  
   496.776    222.426    360.969    12.5975    20.3041      301.1  
   505.427     247.37    368.925    14.7353    22.9043    280.512  
   505.387    247.369    369.132    14.2821    22.3206    280.538  
   496.634    222.322    360.663    13.2574    20.9011    301.251  
   505.131    246.653    370.302    15.3421    24.4561    280.824  
   505.086     247.11    368.511    15.2757    23.0795    280.549  
   496.719    222.473    356.958     13.505    19.7169    301.559  
   504.056    246.772    364.313    15.8213     20.569    281.034  
   492.027    198.578    354.525     11.737    18.5235    320.297  
   492.068     207.11    357.358    11.5801    18.7197    312.477  
   494.586    206.767    360.059    12.5772    20.5742    314.229  
   490.642    198.835    354.348    11.1248    17.3156      319.8  
   492.499    207.431    356.502    12.0268    18.3426    312.433  
    492.52    207.377     357.16    11.9217     18.588    312.742  
   490.648    198.912    353.975    11.1074    17.0087    319.618  
   492.617    207.479    356.401    12.4211    18.7353    312.503  
   492.642    207.483    356.425    12.2466    18.5034    312.498  
   490.624    198.853     354.36    11.0795    17.2982    319.791  
   492.817    207.281    357.644    12.5503    19.5854    312.977  
   492.573    207.405    356.426    12.5641     18.938    312.662  
   492.001    198.434    354.709    11.3456    18.4802    320.128  
   493.257    207.332    354.486    12.8062    19.0285    312.931  
   495.685     223.45    356.333    13.1335    18.1318    298.964  
   493.117    209.417    358.088    11.7909    18.5676    311.991  
   493.354    209.103    354.669      12.14    18.0097     310.89  
    495.86    223.598    360.623    13.1341    19.3187    300.027  
   492.859     209.43    356.858    11.6787    17.7196    311.191  
   492.806    209.264     356.89    11.8167    17.9386    311.233  
   496.001    223.798    360.962    12.4852    18.7207    300.005  
   492.699    209.392    356.955    11.2605     17.301    311.129  
    492.86    209.397    356.901    11.4715    17.4803    311.138  
   495.678    223.577    362.051    11.7482    18.5483    300.158  
   492.267    209.232    357.821      10.99    17.6741    311.558  
   492.695    209.267    357.652    11.0802    17.5359    311.299  
   498.222     222.05     367.44    11.7265    21.3002    300.882  
   494.664     208.24     360.62     11.203    19.4635    311.815  
   510.971    266.472    370.708    15.6638    19.8879      260.7  
   505.302    247.846    370.515    16.0411    23.7194    282.014  
   503.748    246.679    363.645    14.9165    19.5426    279.065  
   513.319    268.138    375.587    16.4832    23.7915    262.404  
   505.421    248.042     369.01    14.9223    22.0495    280.766  
   505.065    247.551    368.616    15.2968    22.2033    280.525  
   513.735    268.751    376.435    15.2827    22.8528    262.837  
   505.104    247.905    369.287    13.8993    20.8893    280.586  
   505.352    247.943    369.236    14.3686    21.4528      280.7  
   513.022    268.053    377.487    13.7979    21.9261    262.455  
   503.452    247.018    370.151    13.0285    19.7587    280.821  
   504.875    247.505     370.42    13.2443    20.9224    280.634  
   514.195      264.8     385.18    12.5249    25.8347    263.085  
   507.025    245.142      377.3    12.6579    24.4071    281.375  
   532.533    289.512    387.842    18.3776    23.4994    229.628  
   525.622    283.616    383.919    19.2097    27.5934    246.285  
   522.217    280.374    379.838    16.7512    21.1658    243.697  
   537.271    296.711    389.583    17.9193    26.7018    232.054  
    526.19    285.533    383.923    16.5246    24.8034    246.582  
   525.757    284.462    383.214    17.2028    25.0851    245.694  
   537.353    298.046    390.858     16.863     25.948    233.418  
    525.91    285.413    384.213    15.6463    23.5503    246.418  
    526.05    285.445    384.256    15.9949     24.195    246.613  
   537.074    296.684    390.788    15.5021    24.7657    232.021  
   524.031    282.736    384.121    13.5449    20.2149     244.84  
   525.526    284.417    384.821    14.4831    23.0756    245.702  
   534.731    288.596     397.54    11.4392    26.3885    231.077  
   525.068    279.201    392.146    12.0649    26.0776     245.88  
   543.355    299.811    389.761    19.2992     28.326      223.5  
   540.687    287.897    393.479    18.7968    25.7643    219.437  
   543.019    303.454    393.712    17.5384    26.9341    227.214  
   543.054    301.635    392.867    17.7031    26.9125    225.616  
   542.915    303.438    393.809    17.1025    26.3615    227.159  
   542.935    303.405    393.915    17.2342     26.683    227.323  
   542.798    299.524    389.613    16.2538    23.7143     222.48  
   542.983    301.659      393.4    16.5143    25.9567    225.616  
   541.801    287.582    397.951    12.0845    25.0262    220.763  
   569.406    290.479    401.167    17.6862    29.0451    206.154  
   572.108    295.702    405.099    16.3402    27.5103    214.207  
   572.859    297.146    402.843    16.4294    27.6621    215.727  
   575.883    298.235    399.387    19.1813    31.1367     217.63  
   647.085    250.616    428.224    15.5199    34.0143    179.412  
   651.429    254.756    428.959    12.7723    30.5525    186.551  
   652.403    256.872    425.725    12.9382    30.7787    188.749  
   658.079    261.699     425.12    16.5909    35.8994    195.736  
   759.589    189.706    459.167    12.9766    39.6836    148.309  
   759.939    191.008     457.82    10.7045    36.2138    152.209  
   760.509    192.668    455.791    10.7664    36.2919    154.195  
    762.37    198.291    460.934    12.3842     39.874    164.708  
   816.606    159.195    476.718    10.6523    39.2096    142.237  
   815.978     156.73    471.386    10.4071    38.6632    137.525  
   815.998    156.735    471.373    10.4331    38.6159     137.53  
   816.671    159.229     476.72     9.8409    38.1821    142.325  
   763.456    199.357    461.266    11.9491    34.5351    165.242  
   760.505    193.562    456.015     14.039    37.2866    154.877  
   759.747    191.885    458.032    13.9751    37.1318    152.944  
   757.267    190.365    459.304    11.2255    32.9866    149.389  
   656.023    262.099    426.485    13.5908    28.0905    197.589  
   652.985    257.419    426.144    16.6922    32.8223     189.48  
   651.986    255.248     429.36    16.5822    32.6354    187.075  
   648.572    250.764    427.744    12.6856    26.7856    178.912  
   576.659    297.761    400.199    15.2398    25.3518    217.802  
   574.063    296.583    403.232     17.689    28.8719    215.562  
   573.255    295.107    405.507    17.5663    28.7674    213.983  
   569.805    289.754    401.382    15.3978    24.8416    205.714  
   573.858    283.467    442.065    10.9302    20.8928    226.794  
   555.103    296.443    394.029    17.8285    27.4726    212.903  
    557.78    283.426    418.988    14.4631    24.0033    219.312  
   573.059    293.921    408.491    15.4708    26.8133    214.883  
   556.242    300.417    398.937    17.1766    27.3032    218.979  
   556.934    298.415    400.469    16.6837    26.8471    218.487  
   572.508    296.303    404.206    16.0247    27.4338    215.114  
   556.607    301.131    397.745    17.1958    27.3727     219.74  
   556.453    300.639    398.637     16.984    27.2834    219.562  
   572.672    295.623    398.722    15.7151    26.7383    212.557  
   558.617     300.11     392.95    19.0162    28.9911    218.422  
   556.735    299.231    395.501    16.7624     26.764     217.28  
   576.511    274.984    369.889    9.39989    16.8608    187.035  
   558.675    279.355    382.127    12.1011    20.2496    200.308  
   651.776    258.358    480.475    4.21634    19.2783    217.315  
   604.591    270.833    412.893    16.7923    31.3881    192.998  
   609.011     271.53    461.674    7.22953    19.4943    223.307  
   652.341    254.379    434.277    11.5294    29.6929    189.363  
   607.939     275.58    415.584    14.5961    28.7261    200.799  
   608.921    274.512    420.324    13.4628    27.8351    202.713  
    651.84    255.788    427.369    12.3424    30.4534    187.621  
   608.826    277.396    412.798    14.7203    28.9066    202.737  
   608.358    276.377    414.385    14.2014    28.5878    201.858  
    651.62    257.048    420.352    11.9204    29.6499    185.909  
   613.133    280.542    410.971    17.8364    33.2888    207.406  
   608.336    276.573    407.854    13.8407    27.8272    199.612  
   652.677    248.216    373.919    3.87879    15.9872    156.699  
   611.288    261.408    368.894    6.55232    15.7406     171.05  
   752.378    211.501    495.889     5.5487    29.0975    186.531  
   702.895    220.997    442.648    14.7424    37.1392    163.617  
   698.945    237.565    490.912    6.24113    25.7976    205.493  
   760.264    192.476    462.338    9.75994    35.1683    156.167  
   704.606    224.209    443.248    12.4086    33.6752    170.056  
   705.339    224.961    448.708    11.3607    32.6261    173.756  
   760.057    191.931    456.595    10.3015    35.7979    153.083  
   705.497    226.177    440.785    12.5299    33.8513    172.397  
   704.931    225.239    441.921    11.9699    33.2889    171.102  
   759.596    194.449    451.803    10.0982     35.241    153.036  
   708.257    231.736    444.005    14.9175    38.4163    182.252  
   704.492    227.066    435.523    11.6384    32.5298    169.958  
   761.075    204.451    413.765    7.60265    28.9027     136.24  
   707.809    227.527    391.008    7.29611    23.7346    145.501  
   810.641    181.771    468.953    9.16989    37.0294    149.689  
   794.337    173.732    470.325      11.68    40.3893    143.494  
   787.626    196.909    486.671      7.259     33.882    168.588  
   815.601    159.115    471.682    10.3224    38.5126     139.42  
   794.461    173.563    467.119    10.3157    38.1671    143.676  
   794.554    175.619    469.797    9.78701    37.5302    146.804  
   815.819    156.908    471.012    10.4286    38.6334    137.315  
   794.865     174.47      466.1    10.3672    38.1851    144.767  
   794.494    174.195    466.302    10.1145    37.9208    144.059  
   815.564    159.112    471.682    10.5106    38.7592    139.438  
   796.568    178.533    471.674    10.9851    40.0048     152.63  
    794.06    176.582     463.99    10.0558    37.7009     145.02  
   810.922    181.692    468.824    12.6669    40.4676    149.758  
   792.586    193.099    441.746    9.80664    35.1952    140.924  
   759.789    205.161    414.021    18.2864    43.2866    137.043  
   796.527    177.198    471.461    10.8672     37.268    152.115  
   792.145    191.955     443.22     13.495    40.3507    141.719  
   759.553    195.334    451.921    14.7976    38.0298    153.706  
   795.052    173.186        466    11.8017    38.2604    144.533  
   794.383    175.314    463.996    12.1536    38.5953    144.863  
   760.065    192.823    456.763    14.4326    37.5735    153.755  
    794.73    172.332    466.955    11.7764    38.1516    143.517  
   794.768    172.941    466.156    12.0203    38.4209    143.842  
   760.472    193.369    462.528    14.7644    38.2828     156.79  
   794.381    172.564    470.465    10.1556    35.8872     143.76  
   794.815    174.411      469.5    12.2414    38.8551    146.547  
   754.804    212.516    496.579    20.4702    47.1855    186.968  
   788.738    195.911    484.982    16.0122     44.027    167.528  
   657.818    249.561    372.714    23.7196    43.9793    155.787  
   707.464    232.967    444.289     12.154    30.6651    182.761  
   707.267    228.231    389.874    20.1565     42.509    145.097  
   652.452    257.594    420.617     17.905    33.8901    186.296  
   704.362    227.255    440.598    14.7732    34.4637    172.848  
   703.524    228.106    435.176    15.7413    35.4332    170.352  
   652.543    256.332    427.755    17.2508    33.1817    188.197  
    703.37    225.237    443.006    14.6945    34.3078     170.46  
   703.873    226.302    441.706    15.2596    34.8632    171.564  
   653.109    255.037    434.806     17.607    33.9736    190.127  
   700.276    221.605    441.744    11.4446    29.1986    163.763  
   704.442    226.023    448.641    15.6008    35.6404    174.256  
   649.814    259.778    483.531    24.3156    46.3687    220.316  
   699.571    238.784    492.663    21.4022    45.8784    206.265  
   579.086    274.484    369.379     23.383    37.3284    186.137  
    612.14    280.446    411.548    14.1995    26.5124    208.271  
   613.528    261.462    368.271    23.5695    40.4779    170.516  
   574.008    295.083    399.008     18.489    29.4077    212.374  
   608.763    277.405    412.835    17.0825    30.6411    203.175  
   608.416    276.595     407.84    18.0799    31.3923    199.987  
   573.771    295.733    404.588    17.9915    29.0248     214.94  
   607.805    275.592    415.642    16.9638    30.5013     201.19  
   608.369    276.408    414.383    17.5093    30.8517     202.28  
   574.399    293.366    409.002    18.0658     29.247    214.799  
   603.924    270.811    412.568    14.0119    25.7883    193.027  
   609.042    274.556    420.333    17.7151    31.3381    203.196  
   575.573    283.247    444.023    19.7809    36.5064    227.235  
   608.895    271.341    463.184    21.7425    41.1037      224.3  
   558.335    300.133    393.046    16.2873    25.4943    218.522  
   559.349    279.355     382.19    21.2748    32.7846    200.347  
   556.579    301.175    397.766     17.685    27.8629    219.798  
   556.802    299.284    395.505    18.0946    28.0221    217.351  
    556.19    300.461    398.951    17.5797     27.804    219.032  
   556.464    300.692    398.648    17.8272    27.9406    219.625  
   554.666    296.396    393.995    16.7424    25.6252    212.906  
   556.975     298.47    400.498    17.8391    27.8751    218.554  
   558.062    283.537    419.349     17.239    30.1183    219.255  
   537.466    294.661    389.266     20.655    30.9719    230.033  
   537.871    298.624    390.848    18.3145     27.391    233.179  
   537.641    298.477    391.186    17.6114     26.338    233.019  
   536.524    293.893    389.748    13.9624    22.1776    228.516  
   512.867    268.998    377.521    16.9581    26.6701    262.649  
   513.778    270.319    376.414    15.9111    24.6252    262.617  
   513.497    270.158    376.864    14.7702    23.2569    262.418  
   511.363    267.785    377.962    12.4866    21.1417     261.13  
   496.027    224.329    362.535     12.788    21.0178    300.357  
   495.837    224.659    360.972    12.4634    19.9635    299.882  
   495.607    224.544    361.184    11.6543    19.1378    299.731  
   494.596    223.939    362.145      10.87    19.0939     299.33  
   492.302    198.849    355.588    10.6098     17.291    318.506  
   492.191    198.957     354.61    10.6727    16.5435    318.105  
   492.222    198.932    354.618    10.6764    16.5439    318.097  
   492.354    198.821    355.596    10.4941    17.2575     318.47  
   495.536    224.293    362.521     11.188    17.7661    300.066  
   496.503    224.652      361.5    11.6162    17.7751     299.61  
   496.779    224.733    361.267    12.4398    18.6018    299.729  
   496.994    224.911    362.588    12.9112    19.6616    300.945  
   511.534    267.937    377.717    12.8363    19.3248    262.065  
    513.74    269.346      376.7     14.195     21.486    262.059  
   514.077    269.467    376.335    15.3316    22.8835    262.229  
   513.333    268.718    377.359    17.2688    25.1068    263.296  
   536.089    293.824     389.24    13.6816    20.7158     229.58  
   537.358    297.882    390.866    16.4562    25.2815    233.234  
   537.593    297.964    390.634    17.1663    26.3576    233.351  
   537.449    294.484    389.165    20.6455    29.7392    230.897  
   532.948    290.524    388.579    22.0244    24.8083    231.379  
   543.441    299.622    389.521    18.8737    28.8088    222.886  
   540.921    288.338    393.357    21.4394    26.6405    221.447  
   537.653    297.407    389.694    19.2594    27.7298    231.983  
   543.177    303.493    393.748    18.0283    27.2879    227.271  
    543.23    301.795    392.757     18.493    27.3182    225.773  
   537.737    298.636    391.114    18.0406    26.9016    233.237  
   543.066    303.392    393.954    17.5827    26.7186    227.182  
   543.093    303.451    393.984    17.8737    27.0348    227.383  
   537.493    297.269    391.169    16.8395    25.7813    231.917  
   542.892    299.152    390.215    16.0207    24.2361    222.443  
   543.133    301.675    393.641    17.2666    26.3297    225.705  
   535.572    289.537    397.785    14.1917    27.1753    232.743  
   542.202    287.992    398.524     13.745    25.5876    221.052  
   511.082    268.561    371.693    17.6716    21.1513    263.249  
   525.374    283.644    384.135    19.2709    29.0758    245.627  
   522.423    281.763    380.467    20.2004    22.8636    246.501  
   513.229    269.821    375.894    16.7605    24.8999    262.436  
   526.168    286.177    384.027    17.5606     26.311     246.85  
   525.706    285.291    383.294    18.5656    26.6571    246.171  
   513.697    270.334    376.728      15.41    23.9187    262.696  
   525.905    286.022    384.455    16.6764    25.0709    246.667  
   526.045    286.176    384.396    17.1913    25.6996    246.941  
   513.065    269.715    377.724    14.0361     22.986    262.468  
   524.109    282.758    384.456    13.6521    21.8694    244.131  
    525.59    285.202     385.01    15.8138    24.6254    246.158  
   514.207    267.713    385.458    14.4708    26.4335    266.493  
   525.361    280.798     392.42    15.0499    27.3804     248.93  
   495.604    224.745    356.756    12.9562    18.8835    300.231  
   505.061    246.739    370.397    15.0555    24.0124    281.041  
   503.976    246.931    364.041    15.4042    20.0346    281.216  
   495.662     224.55    360.705    12.7724    20.1187     300.02  
   505.346    247.488     368.93    14.4223    22.4231    280.776  
   505.015    247.227     368.51    14.9621    22.5794    280.813  
   495.817    224.662    361.058    12.0988    19.5246    299.883  
   505.071    247.341    369.256    13.4215    21.2918     280.59  
   505.304    247.496    369.128    13.9741    21.8348    280.817  
   495.522    224.471    362.129    11.4217    19.3546    300.171  
   503.423    246.126    370.275    12.0391    20.2382    279.824  
   504.865    247.124    370.284    12.9567    21.3242    280.924  
   498.074    223.234    367.559    12.1458    22.1313    302.609  
   507.126    245.215    377.165    13.5075    24.7201    283.968  
   493.682    198.498     355.26    10.7918    17.8113    318.578  
   492.766    209.547    358.075    10.9228    18.9921    311.677  
   493.083    209.596     354.73    11.1516    18.2595    311.696  
    492.23    198.895    354.961     10.661     16.786    318.276  
   492.544    209.712    356.823     10.812    18.1266    311.276  
   492.486    209.639    356.823    10.9616    18.3302    311.432  
    492.28    198.953    354.588    10.6862    16.5072    318.102  
   492.428    209.644    356.939    10.3891    17.7092      311.2  
   492.568    209.714    356.849    10.6256    17.8878    311.279  
   492.275    198.861    354.969    10.6947    16.8111     318.29  
   492.024      209.3    357.881    9.88189    18.0548     311.14  
   492.435    209.593    357.597    10.2814    17.9591    311.522  
   493.708    198.462    355.279    11.3516    18.1153    318.781  
   494.409    208.703    360.615    10.9548    20.0208    312.967  
   498.817     222.91    367.605    11.1532    20.6583     300.39  
   492.218    208.433    357.649    10.6856    17.3109    311.543  
   494.555    207.612    360.177    10.8288    19.0171    311.742  
   496.383    224.442     362.46    11.2506    17.9585    299.792  
   492.632    208.644     356.77    10.9436    16.9167    311.127  
   492.627    208.531    357.449    10.7692    17.1407    311.305  
   496.739    224.661    361.413    12.0102     18.161    299.655  
   492.793     208.67    356.686    11.3459    17.3116     311.18  
   492.796    208.648    356.726    11.1454     17.082    311.142  
   496.636    224.448    361.118    12.6706    18.7849     299.68  
   493.035    208.666    357.813    11.4674    18.1462    311.932  
   492.756    208.507    356.747    11.4702    17.5349    311.241  
   496.491    224.093    357.045    12.6428    17.6577    298.498  
   493.338    208.211    354.726    11.7803    17.6989    310.898  
   514.348    265.431    385.373    11.9527    25.1343     262.48  
   503.114    247.762    370.229    12.3985    18.6976    280.605  
   506.677    245.976    377.267    11.9758    23.2865    281.079  
    513.23    268.691    377.674    13.2014    21.2423    261.865  
   504.785    248.669    369.327    13.2529    19.8133    280.324  
   504.531     248.27    370.428    12.5876     19.829    280.367  
   513.969    269.381    376.653    14.6823    22.1889    262.245  
   505.122    248.805     369.05    14.2829    20.9668    280.502  
    505.04     248.71    369.274    13.7236    20.3762    280.442  
   513.572    268.772    375.828    15.8835    23.1316    261.805  
    504.95    248.609    370.453    15.3983    22.6057    281.722  
   504.779    248.334    368.677    14.6577    21.1397    280.282  
   511.187    267.171    370.952    15.0416    19.2255    260.141  
   503.499    247.484    363.817    14.2858    18.5012    278.877  
   534.813    288.518    397.546    11.3001    26.2632    231.049  
   524.291    282.836    384.233    13.2491    20.0671    244.553  
   525.287    279.317    392.252      11.79    25.8747    245.614  
   537.171    296.567     390.79    15.3588    24.6559    231.989  
   526.171    285.524    384.327    15.3683    23.4028    246.143  
   525.777    284.525    384.923    14.2004    22.9163    245.419  
   537.451    297.924    390.872    16.7156    25.8418    233.385  
   526.448     285.64    384.054    16.2403    24.6486    246.303  
   526.308    285.555    384.375     15.713    24.0451    246.337  
   537.374    296.591    389.609    17.7703    26.5912    232.023  
   525.928    283.703    384.044    18.9283    27.4329    245.988  
   526.025    284.575    383.338    16.9197    24.9279    245.415  
   532.669    289.418    387.879    18.2417    23.4157    229.625  
   522.447    280.507    379.973    16.4842    21.0041    243.464  
   542.872      299.5    389.609    16.2056    23.6887    222.424  
   541.864    287.539    397.962    12.0261    24.9826    220.708  
   542.987    303.406     393.83     17.053    26.3383    227.115  
   543.056     301.63    393.413     16.466    25.9318    225.573  
   543.092    303.421    393.736     17.488    26.9096     227.17  
   543.008    303.373    393.937    17.1843    26.6592    227.279  
   543.434     299.78    389.798    19.2463    28.2891    223.458  
   543.127    301.603    392.896    17.6515    26.8855    225.573  
   540.766     287.87    393.506    18.7425    25.7331    219.397  
   575.754    298.246     399.46    19.1788    31.1637    217.732  
   572.784    297.127    402.812    16.4325    27.6517    215.766  
   572.023    295.679    405.061    16.3414    27.4974    214.234  
   569.351    290.452    401.036    17.6587    29.0459    206.142  
   658.009    261.695    425.188    16.6443    35.9762    195.808  
   652.354    256.863    425.701    12.9932    30.8014    188.767  
   651.368    254.744    428.933    12.8255    30.5758     186.56  
   647.017    250.581    428.097    15.5786    34.1011    179.365  
   762.362    198.304    460.933    12.3879    39.8747    164.716  
   760.499    192.676    455.788    10.7696    36.2923      154.2  
    759.93    191.016    457.817    10.7065     36.214    152.214  
   759.582    189.715    459.164    12.9776     39.683    148.314  
    816.67     159.23     476.72    9.84061    38.1807    142.326  
   815.997    156.735    471.372    10.4328     38.615     137.53  
   815.977    156.731    471.386    10.4067    38.6625    137.525  
   816.605    159.195    476.718    10.6519    39.2089    142.237  
   757.263    190.369    459.304    11.2225    32.9837    149.391  
   759.745    191.886    458.031    13.9731    37.1309    152.943  
   760.503    193.563    456.014    14.0361    37.2858    154.875  
   763.455    199.358    461.268    11.9466    34.5337    165.241  
   648.573    250.741    427.775    12.6823    26.7876    178.925  
   651.994    255.239    429.364    16.6068    32.6503     187.08  
    652.99    257.408    426.143    16.7146     32.838    189.477  
   656.041    262.074    426.459    13.6093    28.0981     197.57  
   569.825    289.758    401.449    15.3769    24.8192    205.721  
    573.31    295.098    405.531    17.5589    28.7577    213.969  
   574.112     296.57    403.243     17.684    28.8637    215.538  
   576.754    297.752    400.165    15.2023    25.3254     217.76  
   576.566    274.936    369.701    9.51084      16.96    186.972  
   558.533     300.11    392.958    19.0061    28.9868    218.466  
   558.642    279.351    382.118    12.1529     20.289    200.353  
   572.588      295.6    398.673    15.7181    26.7198    212.582  
   556.541    301.127    397.721    17.1915    27.3576    219.777  
   556.665    299.226    395.477     16.758    26.7455    217.313  
   572.427    296.282    404.172    16.0251    27.4174    215.147  
   556.173    300.414    398.908    17.1724    27.2876    219.015  
   556.385    300.636     398.61    16.9797     27.267    219.597  
   572.982    293.901    408.469    15.4731    26.7954    214.923  
   555.049     296.45    393.969    17.8092    27.4528    212.943  
   556.866    298.414    400.439    16.6812    26.8307    218.522  
   573.717    283.449    442.207    10.9812    20.9433    226.899  
   557.697    283.413    418.952    14.4767    24.0193    219.325  
   652.727    248.217    373.722    3.99976    16.0802    156.629  
    613.04    280.545    411.066    17.8844     33.364    207.501  
   611.384    261.355    368.671    6.70419    15.8772    170.946  
   651.559    257.034    420.325    11.9725    29.6652    185.917  
   608.779    277.369    412.776    14.7728    28.9286    202.759  
   608.277     276.54    407.817    13.8932    27.8398    199.622  
   651.784    255.776    427.346    12.3934     30.471    187.635  
    607.88    275.549    415.553     14.647    28.7469    200.809  
   608.304    276.347    414.359    14.2504    28.6021    201.875  
    652.29     254.37     434.26    11.5814    29.7078    189.385  
    604.56    270.792    412.746     16.827    31.4535     192.95  
   608.871    274.485    420.309    13.5132    27.8464     202.74  
   651.635    258.388     480.64    4.31652    19.3398    217.441  
   608.852    271.514    461.855    7.35204    19.5853    223.425  
   761.064    204.454    413.757    7.60683     28.905    136.243  
   708.259    231.715    444.018    14.9191    38.4148    182.247  
   707.831    227.529    390.991    7.31975    23.7611    145.494  
   759.587    194.457    451.801    10.1012    35.2411    153.041  
   705.509    226.167    440.787    12.5364    33.8533    172.394  
   704.504    227.055    435.524    11.6447    32.5325    169.955  
   760.048    191.939    456.593    10.3045    35.7979    153.087  
   704.618    224.198     443.25    12.4142     33.678    170.051  
   704.943    225.229    441.923    11.9757    33.2908    171.099  
   760.255    192.484    462.337     9.7633    35.1692    156.172  
   702.911     220.98    442.633    14.7521    37.1509    163.598  
    705.35    224.951    448.711    11.3663    32.6278    173.754  
   752.365    211.508     495.89    5.55446     29.105    186.536  
   698.943    237.555    490.935    6.26137    25.8119    205.502  
   810.921    181.693    468.824    12.6665    40.4664    149.759  
   796.571    178.531    471.676    10.9874    40.0055    152.631  
    792.59    193.098    441.745    9.81004    35.1983    140.925  
   815.563    159.113    471.682    10.5104    38.7582    139.439  
   794.869    174.468    466.101    10.3694    38.1857    144.767  
   794.064     176.58    463.991    10.0582    37.7013     145.02  
   815.818    156.908    471.012    10.4282    38.6326    137.315  
   794.465    173.561     467.12    10.3177    38.1679    143.676  
   794.498    174.193    466.303    10.1167    37.9212    144.058  
     815.6    159.115    471.682    10.3219     38.512     139.42  
   794.342     173.73    470.324    11.6816     40.391    143.492  
   794.557    175.618    469.798    9.78916    37.5309    146.803  
   810.641    181.772    468.954    9.16935    37.0287    149.689  
   787.627    196.906    486.674    7.26472    33.8863    168.588  
   754.801    212.515     496.58     20.467    47.1816    186.966  
   794.378    172.564    470.465     10.154    35.8857     143.76  
   788.735    195.915    484.983    16.0115     44.026    167.531  
    760.47    193.369    462.527    14.7619    38.2819    156.789  
   794.728    172.334    466.955    11.7756     38.151    143.517  
   794.813    174.412    469.499    12.2405    38.8543    146.548  
   760.062    192.824    456.762    14.4301    37.5729    153.754  
    795.05    173.187        466    11.8005      38.26    144.532  
   794.766    172.942    466.156    12.0194    38.4204    143.842  
    759.55    195.335     451.92     14.795    38.0293    153.705  
   796.526    177.199    471.461    10.8656    37.2672    152.114  
   794.381    175.316    463.996    12.1524    38.5949    144.863  
   759.787    205.159    414.018    18.2806    43.2817    137.038  
   792.143    191.956    443.218    13.4937    40.3498    141.719  
   649.827      259.8    483.546    24.3861    46.4078    220.336  
   700.264      221.6    441.744    11.4403    29.1967    163.766  
   699.575    238.818    492.678    21.4093    45.8777     206.28  
   653.114    255.028      434.8    17.6334    33.9829    190.119  
   703.367    225.245    443.005    14.6975    34.3095    170.463  
   704.439     226.03    448.641    15.6039    35.6397    174.255  
   652.549    256.323    427.756    17.2752    33.1927    188.195  
   704.357    227.262    440.598    14.7747    34.4651    172.849  
   703.869    226.309    441.707    15.2621    34.8638    171.565  
   652.458    257.587    420.625    17.9312    33.8985    186.297  
   707.467    232.969    444.289    12.1561    30.6644     182.76  
    703.52    228.114    435.177    15.7443    35.4331    170.353  
   657.811    249.575    372.707    23.7419    44.0162    155.813  
   707.258    228.244    389.866    20.1528    42.5072    145.106  
   575.671    283.228    444.033     19.788    36.5306    227.194  
   603.889    270.836     412.62    14.0079    25.7934    193.069  
    608.93    271.345    463.163    21.7955    41.1498    224.288  
   574.449    293.352    409.009    18.0647    29.2301    214.778  
   607.794    275.608    415.646    16.9824    30.5159     201.21  
   609.024    274.569    420.317    17.7378    31.3435    203.202  
   573.823    295.722    404.606    17.9866    29.0101    214.923  
   608.745    277.417    412.825    17.1011    30.6563    203.184  
   608.355    276.423    414.381    17.5293    30.8603    202.294  
   574.063    295.075    399.041    18.4859      29.39    212.365  
    612.15    280.449    411.489    14.1987    26.5124    208.252  
   608.405    276.613    407.853    18.1027    31.3987    200.007  
   579.086    274.459    369.391    23.4306    37.3784    186.119  
   613.468    261.475    368.284    23.6198    40.5421    170.556  
   554.668    296.398    394.013    16.7276     25.609    212.886  
   558.103    283.536    419.386    17.2297    30.1247    219.242  
   556.211    300.463    398.961    17.5666    27.7936    219.016  
   556.995    298.469    400.505    17.8295    27.8632    218.538  
   556.597    301.176    397.771    17.6736    27.8532    219.778  
   556.484    300.694    398.656    17.8155     27.929    219.609  
   558.374    300.144    393.037    16.2571    25.4751    218.502  
   556.824    299.287    395.516    18.0826    28.0082    217.337  
   559.362    279.331    382.165    21.2866    32.7989      200.3  
   598.858    323.756    2433.88   -59.9595   -14.6288    432.856  
    598.48    323.942    2433.93   -60.3119   -14.5116    433.117  
   597.262    324.606    2432.21    -60.312   -14.7009     433.39  
    596.58    325.343    2431.68   -60.2699   -15.1363     433.08  
   639.581     262.54    2046.84   -127.878   -66.3426        372  
   638.684    262.801     2046.9   -127.739     -65.96    372.334  
   637.105    263.559    2045.15   -127.397   -66.0892    372.729  
   635.871    264.556    2044.51   -127.121   -66.7846    372.503  
   792.366    236.342    2270.48   -96.0548   -59.9594    315.956  
   790.042    235.865     2270.2   -95.3806   -58.7057    315.995  
   788.036    236.304     2267.8   -94.8756   -58.4832    316.375  
   786.047    237.497     2266.6   -94.4722   -59.6404    316.221  
   898.688    249.698    2361.58   -39.5071   -36.1313    264.473  
   894.892    247.782    2360.77   -38.0439   -33.5628    264.068  
   893.262    247.688    2358.38    -37.147   -32.6362    264.308  
    891.68    248.979    2356.85   -36.3349   -33.6706    264.215  
   948.768    291.876    2466.02    4.69546    4.90834    237.237  
   944.539    288.897    2465.14    6.95207    8.22704     236.77  
   943.746    288.622    2463.75    8.47574    9.91062    236.903  
    944.29    290.401    2462.79    10.3829    10.2807    236.916  
   590.657    337.471    2487.27   -20.3631     8.4944    445.532  
   598.345    324.132     2433.3   -59.9796   -14.7834    432.788  
   590.203    337.876    2486.64   -20.3521    8.32561    445.482  
   590.242     337.48    2487.18   -20.8766    8.50806    445.591  
   598.738    323.806    2433.98   -60.1528   -14.5808    432.976  
   590.509    337.415     2487.3   -20.6473     8.5011    445.542  
   589.089    338.091    2485.41   -21.0235    8.33173    445.792  
    597.88    324.262    2433.09   -60.3393   -14.5838    433.235  
    589.67    337.776    2486.31   -20.9681    8.42051     445.67  
   588.535    338.781    2484.86   -21.0439    8.05081    445.527  
   596.858    324.989    2431.83    -60.269   -14.9334    433.283  
   588.747    338.445    2485.02   -21.0305    8.18609    445.699  
   596.997    325.147    2432.21    -60.237   -15.0906    432.888  
   588.954    338.684    2485.42   -20.8559    8.05699    445.422  
   618.404    297.822    2273.57   -93.2069   -38.5103    406.178  
   638.861    263.095     2046.3   -127.891   -66.3552    371.843  
   617.809    298.271    2273.02    -93.224   -38.5979     406.07  
   617.794    298.058    2273.65   -93.3237   -38.2609    406.507  
   639.191    262.614    2046.94     -127.8   -66.1959    372.175  
   618.162    297.892    2273.68   -93.2702   -38.4119    406.341  
   616.429    298.777    2271.92   -93.1473   -38.4163    406.848  
   637.903    263.168    2046.05   -127.604   -65.9496     372.49  
    617.12    298.405     2272.8   -93.2682   -38.2915     406.65  
   615.524    299.635    2271.34    -92.981   -38.9731     406.56  
   636.438    264.061    2044.71   -127.216   -66.4767      372.7  
    615.92    299.219    2271.51   -93.0307   -38.7204    406.769  
   636.516    264.412     2045.1   -127.421   -66.6336    372.115  
    616.04    299.444     2271.9   -93.1166   -38.8818    406.269  
   723.544    247.802    2188.74   -112.949    -63.137    343.248  
   791.363    237.189    2269.58   -96.2138   -59.6725    315.613  
   722.675    248.524    2188.03   -113.017   -63.0028    343.004  
   721.937    247.721    2188.64   -112.548   -62.3491    343.443  
   791.181    235.979    2270.43   -95.6582    -59.426    315.987  
   722.762     247.67    2188.76   -112.716   -62.8132    343.356  
   720.105    248.341    2186.53   -112.124   -62.3176    343.839  
   789.011    236.062       2269   -95.1695   -58.4321    316.093  
   721.013    248.014     2187.6   -112.375   -62.2149    343.573  
   718.484    249.475    2185.62   -111.761   -63.2415    343.659  
   787.055    236.841    2267.07   -94.6165   -59.1124    316.415  
   719.272    248.879    2185.94   -111.896   -62.8271     343.85  
   787.081    237.939    2267.41   -95.1372   -59.5034    315.701  
   719.344    249.617    2186.34   -112.229   -63.0831    343.202  
   850.502    242.193    2345.26   -66.7942   -47.3775    291.048  
   898.121    250.832    2360.29   -39.7587   -35.4113    263.934  
   849.666    243.212    2344.16   -67.0057     -46.87    290.605  
   847.416    240.984    2344.72   -65.7362   -45.4766    290.841  
   896.572    248.508    2361.23   -38.6521   -34.9346    264.271  
   848.842    241.409    2345.06   -66.1734   -46.5235    290.951  
    845.55    241.139    2342.23   -65.0571    -44.915    291.153  
       894    247.682    2359.51   -37.6404   -32.8988    264.058  
    846.43    241.025    2343.45     -65.44   -45.0086    290.882  
   843.677    242.415    2340.83   -64.4666   -46.0643    291.038  
   892.532    248.193    2357.53   -36.6757   -33.1839    264.384  
   844.655     241.67    2341.42    -64.701   -45.5323    291.217  
   893.037    250.283    2357.51    -37.519   -33.8461    263.653  
   844.879    243.325    2341.61   -65.3803   -46.0602    290.498  
   927.308    271.581    2438.57   -15.3508   -14.8942    251.948  
   949.441    293.322    2464.72    4.90309    5.97781    236.627  
   927.316     272.86    2437.22   -15.4304   -13.9915    251.358  
   923.226    269.061    2437.69   -13.4762    -11.886    251.475  
    946.28     290.07    2465.58    5.96672    6.55279    237.003  
   924.965    270.043    2438.16   -14.2756   -13.4437    251.708  
   922.004    268.826    2435.71   -12.2793   -10.5754    251.651  
   944.044    288.667    2464.29    7.67883    9.20558    236.698  
   922.525     268.87    2436.59   -12.9189   -11.0559    251.428  
    921.38    270.306    2434.38   -10.9824   -11.0013    251.584  
   943.939    289.295    2463.23    9.42612    10.0708    237.001  
   921.698    269.388    2434.99   -11.5917   -10.8124    251.727  
    946.02    292.213    2462.73     9.0088    9.60267    236.314  
   922.908    271.909     2434.7   -12.3045   -11.4241    251.004  
   953.856    306.667    2498.58    12.0763    28.2923    234.762  
   955.108    308.238     2497.5    12.7531    29.4128    234.172  
   950.092    303.739    2498.05    14.4238    31.2813    234.488  
   951.618    304.891    2498.29     13.363    29.7988    234.643  
   949.669    303.597    2497.49    16.1473    33.1849    234.607  
   949.783    303.562    2497.59    15.2639     32.304     234.41  
   951.551    305.824    2497.15    18.5988    34.6489    234.746  
   950.395    304.457     2497.3     17.307    33.8807    234.743  
   953.363    307.593     2496.6    17.4838    33.7631    234.101  
   944.979    292.776    2178.81     34.805     107.05    219.483  
   940.303    289.541    2177.43    31.9299    103.405    218.644  
   939.689    289.061     2175.6    30.3724    101.559    218.463  
   940.712    290.706    2174.84       29.1    100.901     218.26  
   896.181    247.239     2066.7    77.5835    145.713    261.685  
   891.764    244.626    2065.27    75.6168    142.668     260.55  
   890.317    244.217    2062.57    74.6901    141.463    260.392  
   889.478    245.557    2061.29    74.3445    142.035    260.276  
   812.616    253.307    2404.96    113.494    133.852    345.805  
   809.657    251.913    2404.15    112.293    132.104    345.007  
   807.778    252.088    2400.93    111.636    131.461    345.068  
   806.553     253.47    2399.65    111.452    132.241     344.91  
   637.695    257.194    1878.11    167.138    137.191    389.198  
   636.176    256.447    1877.54    166.291    136.473     388.54  
   634.578    257.014    1875.39    165.698    136.267    388.631  
   633.789    258.119    1874.71    165.528    136.667    388.576  
    534.84    313.349    1986.38    113.075    83.6826    439.803  
   534.047    312.886    1985.98    112.351    83.3743    439.358  
   532.947    313.514    1984.25    111.858    83.2517    439.473  
   532.546    314.333    1983.74    111.742    83.3825    439.339  
   952.181    308.806    2370.14    27.1449    81.4786    226.707  
   945.984    294.062    2177.54    34.9094    105.877    218.819  
   953.662    310.272    2368.94     26.844    80.3381    226.028  
   948.143    305.746    2369.22    24.1613    78.2371    226.132  
   942.184    290.834    2178.11    33.1755    105.237     219.07  
    949.74    306.959    2369.67    25.4871    79.8324    226.438  
   947.897    305.472    2368.07    22.4055    76.2406    225.985  
   939.905     289.21    2176.35    31.1698    102.334    218.422  
   947.926    305.504    2368.46    23.2904    77.1623    225.924  
    950.02    307.636    2367.68    20.5783    74.6931    225.867  
   940.075     289.67    2175.15    29.6692    101.267    218.447  
    948.74    306.302    2367.82    21.4895    75.4969    225.995  
   942.698    292.566    2175.14    30.8388    101.718    217.943  
   951.929    309.426    2367.47    22.1052    75.6951    225.433  
   924.985    271.836    2154.47    52.4544    125.945    241.121  
    896.05    248.384    2065.33    78.0353    144.778    261.049  
   925.438    273.058    2153.12    52.7801    124.871    240.457  
   920.335    268.787    2153.01    49.9856    122.506    240.095  
   893.657    245.659    2066.02    76.4403    144.277    261.127  
   922.261    270.005    2153.75    51.0377    124.274    240.612  
   919.316    268.278     2150.7    48.7388    120.955    239.906  
   890.961     244.36    2063.82    75.1786     141.85    260.326  
   919.739    268.455    2151.72    49.3851    121.543    239.861  
   919.391    269.713    2149.62    47.9684    120.951     239.72  
   889.891    244.711    2061.82    74.4131    141.802    260.443  
   919.291    268.799    2150.07    48.2603    120.998     239.91  
   891.169    247.195    2062.11    75.7631    142.365    260.027  
   921.258    271.536     2150.2    49.6001    121.532    239.445  
   854.232     250.03    2277.04    96.3331    138.825    308.655  
   811.941    254.301    2403.58    113.762    133.283    345.349  
   853.792    251.127    2275.61    96.6857    138.075    308.102  
    850.56    248.059    2275.96    94.7767    136.465    307.681  
   811.036    252.408    2404.66    112.806    133.084    345.411  
   852.195    248.809    2276.58     95.434    137.745    308.176  
   848.863    247.952     2272.9     94.001    135.558    307.644  
   808.662     251.96    2402.49    111.991     131.59    344.907  
   849.644    247.953    2274.35    94.4152    135.804     307.52  
   847.782    249.392    2271.57    93.7349    136.269    307.512  
   807.133    252.679    2400.14    111.456    131.902    345.106  
   848.304    248.527     2272.1    93.7732    135.965    307.695  
   807.829    254.365    2400.63    112.376    132.292    344.666  
    849.26    250.665    2272.49    94.8861    136.441    307.256  
   735.574    254.165    2184.55    139.133    135.529    366.491  
   637.169    258.063    1877.38    167.213    136.947    388.968  
    734.94    255.104    2183.49    139.299    135.127    366.157  
   733.368    253.122    2183.86     138.13    134.328    365.761  
   636.937     256.65    1877.88     166.67    136.888    388.866  
   734.431    253.458    2184.29    138.567    135.012    366.128  
   731.581    253.501    2181.11    137.526    133.919    365.841  
    635.36    256.717    1876.45    166.011     136.27      388.5  
   732.439    253.286    2182.46     137.85    133.976    365.692  
   730.547    254.766    2180.13     137.35    134.521     365.75  
   634.107    257.533    1874.93    165.548    136.508    388.689  
   731.006    254.065    2180.48    137.364    134.268    365.897  
   634.681    258.558     1875.5    166.153    136.614    388.458  
   731.629    255.426    2181.05    138.104    134.503    365.574  
   584.602    288.644    1957.58     142.74    110.327    417.857  
   534.524    314.009    1985.78    113.134    83.5383    439.722  
   584.204    289.409    1956.92    142.796    110.138    417.709  
   583.462    288.041     1957.1    141.966    109.829    417.315  
    534.46    312.982    1986.23    112.679    83.5503    439.553  
    584.04    288.187    1957.39    142.316    110.114    417.568  
   582.132    288.655    1955.16    141.409    109.665    417.425  
   533.492    313.193    1985.11    112.113     83.264     439.37  
   582.786    288.338    1956.12      141.7    109.676    417.307  
   581.579    289.615    1954.57    141.251    109.912    417.325  
    532.68    313.921     1983.9    111.748    83.3345    439.459  
   581.782     289.12    1954.75    141.271    109.816    417.444  
   533.112    314.529    1984.36    112.245     83.347    439.313  
   582.306    289.921    1955.28    141.813    109.872    417.255  
   553.457    334.103     2254.3    63.9216    54.7466    450.458  
   553.109    334.659    2253.66    63.9855    54.5913    450.405  
   552.826    333.779    2253.97    63.2356    54.5468    450.149  
   553.172    333.831    2254.19    63.5417    54.6622    450.271  
   551.745    334.375    2252.19    62.8547    54.4064    450.275  
   552.282     334.07    2253.08    63.0457    54.4419    450.177  
    551.33    335.102    2251.64    62.7734    54.4151    450.099  
   551.472    334.741    2251.81    62.7785    54.4208     450.23  
   551.823    335.207    2252.24    63.1963    54.3848    450.077  
   543.911    319.811    2122.47   -70.8487   -27.2259    429.421  
   544.505    319.052    2122.91   -70.9094   -26.8552     429.71  
    545.57    318.356    2124.38   -70.9313   -26.6822    429.437  
   545.884    318.152    2124.33   -70.5837     -26.78    429.192  
   655.213    269.443    2194.81   -116.641   -58.6538    376.737  
   656.489    268.433    2195.51   -116.914   -57.9046    376.993  
   658.115    267.686    2197.39   -117.242     -57.79    376.588  
   659.066     267.45    2197.32   -117.372   -58.2233    376.235  
   760.979    213.983    1890.57   -118.358    -83.923    291.491  
   762.995    212.818    1891.66   -118.741   -82.8693    291.509  
   764.992    212.395    1893.75   -119.238   -83.0437    291.185  
   767.297    212.895    1894.15   -119.946   -84.1951    291.277  
   887.816    239.104    2190.81   -42.5236    -42.504    248.987  
   889.455    237.928    2192.27   -43.2659   -41.4746    249.033  
   891.103    238.068    2194.55    -44.124   -42.3654    248.841  
   894.889    239.983    2195.43   -45.5877   -44.8883    249.311  
   944.154    289.843    2448.41    10.2521    9.89597    235.361  
   943.637    288.087    2449.38    8.35938    9.54903    235.351  
   944.433    288.364    2450.78    6.84135    7.86999    235.221  
   948.666    291.333    2451.68    4.58483    4.54626     235.69  
   547.447    337.276    2264.18   -24.5894    1.59362    444.878  
   544.273    319.609    2122.92   -70.8165    -27.177     429.23  
   547.822    337.171    2264.68   -24.4049    1.60397    444.767  
   547.936    336.577    2264.66   -24.5736    1.84907    445.143  
   544.152    319.448    2122.59   -70.8576   -27.0549    429.613  
   547.633    336.937    2264.32   -24.5786    1.71574    445.051  
   548.968    335.952    2266.24   -24.4303    2.01231    444.941  
   545.046    318.693    2123.66   -70.9472   -26.7486    429.555  
   548.456    336.255    2265.46   -24.5202    1.93204    445.021  
    549.34    335.929    2266.32   -23.9183    1.99456    444.877  
   545.788    318.208    2124.42   -70.7759   -26.7395    429.304  
   549.207    335.881    2266.34    -24.201      2.004     444.89  
   545.435    318.555    2123.84   -70.5904   -26.9099     429.13  
   548.935    336.339    2265.76   -23.9106    1.84319    444.823  
   601.559    298.607    2193.52   -96.2565   -42.8311    405.792  
   655.871    269.317    2195.43   -116.942   -58.5103    376.344  
   602.057    298.418    2194.06   -96.3862    -42.739    405.503  
   602.445    297.736    2194.07   -96.4276   -42.2903    406.074  
   655.804    268.939    2195.03   -116.734   -58.3179    376.949  
   601.947    298.184    2193.68   -96.3088    -42.586    405.997  
   603.773    297.004    2195.75   -96.6055   -42.1389    405.732  
   657.308    268.046    2196.47   -117.115   -57.7659    376.747  
   603.117    297.358    2194.93   -96.5493   -42.1674    405.874  
   604.361    296.761    2195.67    -96.481   -42.3833    405.408  
   658.649    267.509    2197.43   -117.297   -58.0539    376.416  
   604.128    296.833    2195.78    -96.549   -42.2867    405.566  
   658.311    268.017    2196.73   -117.398   -58.2361    376.076  
   603.778    297.229    2195.14   -96.4939   -42.4643    405.304  
   705.976    243.456    2068.77   -119.371   -70.5445    338.234  
    762.03    214.473    1891.33   -119.008   -83.7522    291.011  
   706.829    243.601    2069.46   -119.829   -70.3777    337.788  
   707.579    242.326    2069.63   -119.733   -69.6642     338.38  
   761.999    213.335       1891   -118.498   -83.4538    291.611  
   706.753    242.861    2069.08   -119.507   -70.1534    338.406  
   709.388    241.699    2071.64   -120.154   -69.6787    337.996  
   763.972    212.591    1892.71   -119.025   -82.8034    291.252  
   708.478    241.997    2070.65   -119.981   -69.5571     338.12  
   710.958    241.772    2071.76   -120.552   -70.4219    337.827  
   766.118    212.516    1894.01   -119.531    -83.709    291.252  
   710.194    241.643    2071.77   -120.322   -70.1184    337.924  
   766.313    213.771    1893.38    -120.09   -83.9013    290.946  
   710.106    242.503    2071.09   -120.611   -70.2888    337.591  
     831.5    225.557    2069.41   -78.4522    -62.297    269.864  
   889.173    240.417    2191.48   -43.6997   -42.6557     248.47  
   832.713    226.497    2070.18   -79.3523   -62.2661    269.372  
   833.413    224.372    2070.72   -78.9856   -61.2081    269.886  
   888.699     238.38    2191.46   -42.8292   -42.0236    249.125  
   832.498    224.857    2069.97   -78.6608   -61.8007    269.988  
   835.286    224.255    2072.98   -79.6332   -61.7272    269.634  
   890.205    237.952    2193.34   -43.7373   -41.7216     248.81  
   834.301    224.284    2071.82   -79.3482    -61.287    269.647  
   838.362    225.479    2073.63   -80.7056   -63.5539    269.943  
    892.78    238.797    2195.03   -44.7291   -43.7148     249.08  
   836.707    224.687    2073.36   -80.0745   -62.7345    269.802  
   894.302    241.079    2194.25   -45.8665   -44.1774    248.787  
   837.527    226.486    2072.65   -80.9291   -63.0491    269.513  
   920.464    266.047    2349.06   -13.0509   -14.6323    242.972  
   945.879    291.647    2448.38    8.87201    9.22076    234.765  
   921.991    267.649     2349.4   -14.3777   -15.0473    242.418  
   921.111    264.641    2350.36   -14.3142   -14.2023    243.024  
    943.82     288.75    2448.86    9.30401    9.69814    235.447  
   920.796     265.17    2349.65   -13.6424   -14.4426    243.104  
   922.333    264.902    2352.28   -15.4959   -15.5021    242.872  
   943.937    288.134    2449.92    7.56505    8.84708    235.148  
   921.633    264.701    2351.21   -14.9452   -14.6781    242.815  
    926.42     267.42    2353.21   -17.3786   -18.5043    243.376  
   946.176    289.534    2451.23    5.85685    6.19241    235.454  
   924.074    265.885    2352.77   -16.2969    -17.057    243.122  
   949.326    292.766    2450.38    4.78104    5.61257    235.084  
   926.423    268.671    2351.92   -17.4765   -17.6045    242.794  
   951.496    306.168    2507.93    18.6542    34.8228    235.956  
   953.305    307.943    2507.38    17.5355    33.9343    235.307  
   949.617    303.927    2508.29    16.1999     33.365    235.815  
   950.342    304.793    2508.09     17.361    34.0582    235.952  
   950.036    304.067    2508.85    14.4751    31.4596    235.693  
   949.729    303.891    2508.39    15.3156     32.483    235.615  
   953.805    307.003    2509.37    12.1241    28.4634    235.969  
   951.563    305.221    2509.09    13.4128    29.9736     235.85  
   955.057    308.583    2508.29    12.7992    29.5839    235.377  
   940.617    289.063     2125.2    29.6429    102.209    213.179  
   939.608    287.474    2125.93    30.8945    102.858    213.383  
   940.223    287.966    2127.73    32.4453      104.7    213.571  
   944.902    291.185    2129.14    35.3216    108.344     214.41  
   887.207    239.594     1948.2    78.0475    147.206    251.316  
   888.075    238.322    1949.43    78.3519     146.64    251.405  
   889.533    238.759       1952     79.257    147.825     251.59  
   893.944    241.379    1953.48    81.2272    150.849    252.758  
   794.904    243.141    2213.11    122.053    141.412    335.453  
    796.15     241.77    2214.31     122.22     140.65    335.557  
   798.023    241.608    2217.33    122.863    141.263    335.524  
   800.983    243.019    2218.18    124.079    142.993    336.375  
   681.861    275.968    2290.08    137.418    118.781     399.03  
   682.715    274.883    2290.94    137.562    118.302    399.152  
   684.393    274.342    2293.55    138.123    118.558    399.026  
   685.962    275.091     2294.1    138.956     119.35    399.638  
   595.498    321.946    2367.38    98.1862    77.9356    442.466  
   595.987    321.151    2368.03    98.2858    77.7777     442.62  
   597.249    320.552    2370.12     98.751    77.9227    442.498  
   598.074    321.013    2370.55    99.4773    78.2671    442.953  
   950.071    306.507    2326.51    20.8004    75.2651    221.399  
   942.603    290.909    2125.53    31.3857    103.023    212.876  
    951.98    308.278    2326.33    22.3312     76.266    220.977  
   947.955    304.385    2326.87     22.617    76.8052     221.52  
   939.988    288.059    2125.49    30.2004    102.571    213.365  
   948.795    305.198    2326.64    21.7056    76.0648    221.528  
   948.198    304.662    2328.01    24.3698    78.7989    221.668  
   939.825    287.631    2126.67    31.6882    103.631    213.348  
   947.983     304.42    2327.26    23.5004    77.7259    221.463  
    952.24    307.697    2328.96    27.3536    82.0436     222.24  
   942.105    289.255    2128.42    33.6904    106.533    213.997  
   949.795    305.867    2328.47    25.6951    80.3958    221.973  
   945.902    292.443    2127.92    35.4362    107.175    213.757  
   953.722    309.141    2327.79    27.0597    80.9069    221.572  
   918.714    266.328     2071.1    49.6154    123.856     232.52  
   888.901    241.246    1949.04    79.4618    147.523    251.091  
   920.582    268.149    2071.71    51.2488    124.431    232.265  
   918.653    264.958    2072.13    50.3579    123.861    232.696  
   887.635    238.783    1948.71    78.0952    146.978    251.465  
   918.622     265.45    2071.53    49.8924    123.904    232.702  
   919.674    265.488    2074.37    51.5938    125.403    232.901  
   888.726    238.483    1950.62     78.828    147.018    251.354  
   919.078    265.149    2073.12    50.9979    124.445    232.663  
   924.327    268.532    2075.87    54.0673    128.836     233.94  
   891.424    239.798    1952.76    80.0797    149.423    252.185  
   921.601    266.706    2075.12    52.6466    127.169    233.426  
   893.803    242.509    1952.21    81.6937    149.919    252.131  
   924.776     269.73    2074.59    54.4045    127.764    233.287  
   841.599    240.466    2111.29    101.018    144.055    296.987  
    796.19    244.064    2214.07    122.973    141.451    335.221  
   843.085    241.763    2112.21    102.164    144.214    296.752  
   842.707    239.074    2112.53    101.249     143.36    297.074  
   795.494    242.352    2213.56    122.051    141.085     335.62  
   842.135    239.623    2111.78     101.04    143.762    297.144  
   844.407    239.204    2115.41    102.003    144.241    297.143  
   797.034    241.651    2215.77    122.566    140.769     335.41  
   843.491    239.091     2113.9     101.65    143.597    296.968  
   848.078    241.191    2116.55    103.569     146.58    298.165  
     799.4     242.11    2217.85    123.381    142.232     335.96  
    846.04    239.962    2116.05    102.662     145.51    297.667  
   800.317    244.029    2216.92    124.349    142.433    335.918  
   847.639    242.288    2115.24    103.934    145.838    297.618  
   739.916      259.6    2278.06    131.258    130.078    369.288  
   682.749    276.393    2290.95    138.053    118.733    398.908  
   740.993    260.248    2278.99    132.013    130.062    369.111  
    740.96     258.34    2279.08     131.43    129.458    369.395  
   682.216    275.395    2290.37     137.42     118.58    399.177  
   740.381    258.903    2278.42    131.269    129.815    369.443  
   742.758    257.962    2281.94    132.028    129.875    369.303  
   683.532    274.596    2292.23    137.862    118.315    399.003  
   741.822    258.124    2280.48    131.752    129.517    369.241  
   744.964    258.998    2282.62    133.025    131.089    370.022  
   685.184    274.548     2293.9    138.493    119.017    399.316  
   743.822    258.295    2282.37    132.461    130.567    369.661  
   685.362    275.929    2293.13    139.071     119.08    399.416  
   744.317    259.928     2281.5    133.198    130.684     369.69  
    639.99    300.292    2351.45    119.319    98.5203    422.363  
   596.102    322.146    2368.09    98.6904    77.8937    442.445  
   640.736    300.596    2352.24    119.882    98.4757    422.295  
   640.637    299.352     2352.2    119.447    98.2132    422.499  
   595.668    321.546    2367.59    98.1844    77.8745    442.596  
   640.238    299.808    2351.69    119.322    98.3942      422.5  
     642.1    298.765    2354.56    119.965      98.41    422.368  
   596.612    320.844    2369.07    98.5273    77.7939    442.512  
   641.354    299.047    2353.37    119.721    98.2281    422.368  
   643.286     299.37    2355.05    120.726     98.965    422.901  
   597.689    320.649    2370.39    99.0755    78.1192    442.689  
    642.71    298.914    2354.88    120.305    98.7294    422.606  
   597.675    321.663    2369.79    99.5608    78.1039    442.875  
   642.799    300.118    2354.19     120.82     98.753     422.76  
   576.425    336.335    2390.59    60.2059    53.6036     450.43  
    576.94    336.437    2391.22    60.6308    53.5727    450.408  
    576.87     335.61    2391.19    60.2911    53.5934    450.616  
   576.578    335.975    2390.78    60.2132    53.6083    450.566  
   578.016    335.023    2393.09    60.6726     53.745    450.489  
    577.44    335.309    2392.14    60.4825    53.6327    450.517  
    578.67    335.341    2393.43     61.365    53.9587    450.798  
   578.377    335.074    2393.32    60.9807    53.8676    450.609  
   578.295    335.891    2392.73    61.4304    53.7935    450.742  
   617.854    239.342    410.642    143.444    153.113    230.764  
   577.721    228.585    394.039   -116.728   -101.798    216.266  
   576.918    230.015    393.482   -114.914   -99.5004     216.47  
   620.056     239.39    410.766    143.056    153.178    229.895  
   832.966     191.48    480.983   -81.5462    -39.471    96.7573  
   427.649    237.591     338.04    69.5817    79.0428     346.24  
   410.937    241.603    332.469    101.301    98.2065    355.062  
   834.009    191.186    480.345   -82.3877   -39.9798    97.1898  
   868.622    190.231    491.037     80.177    90.6281    109.203  
   401.601    227.864     326.56   -29.2439   -36.5046    347.376  
   369.892    238.128    316.697   -70.1277   -64.0625    353.648  
   867.571    190.493    491.546    79.0627    89.2088    108.413  
   587.658    270.231    399.526   -21.3437    5.32836    202.554  
   542.481    282.764    395.284     48.218    60.2165    242.496  
   541.631    283.024    391.213    45.8032    56.6096    242.995  
   587.273    276.271    424.523   -23.5344    2.09806    213.527  
   720.954    233.711    449.015    73.6099    64.0736    167.453  
   488.515    225.039    359.503    1.93317   -5.02126    299.181  
   499.305    240.507    368.468   -1.28184   -6.18068    281.167  
   726.212    230.755     438.07    74.8113    69.4953     175.09  
   512.807    244.153    371.542    127.195    136.411     294.48  
   469.822    240.479    354.295    45.4846    68.2077    317.489  
   452.431    213.324    342.016     23.009    33.6425    338.119  
   592.553    268.001    406.547     93.705       99.1    227.881  
    697.68    214.058    434.849   -114.803   -80.7407    153.132  
   768.679     207.04    457.093   -68.8249   -13.2456    137.905  
   845.211    178.169    476.762   -24.1483    18.5812    120.384  
    561.39    261.637     395.43   -56.0305   -44.3535     222.71  
   697.267    214.042    435.653   -114.489   -81.1051     152.63  
   766.092    207.524    457.748   -67.6368   -12.1589    135.529  
   843.495    178.286    476.613   -21.9582    21.6654     118.94  
   560.508    261.245    395.777    -58.005   -47.0512    222.529  
   332.851    245.215    303.814    9.29576    7.05976    386.982  
   508.968    247.246    371.121    122.376    131.923     294.37  
   591.199    267.984    407.183    94.4288    100.087    227.121  
   472.178     229.74    354.102   -106.885   -100.403    285.799  
   744.662    221.291    452.991    135.866    144.683    163.423  
   743.591    221.442    453.716    135.419    144.496    162.952  
   470.861    233.996    354.376   -95.7065   -91.8293    285.469  
   438.435    209.281    336.319    4.95806    4.79133    342.165  
   615.891    267.665    423.975    60.9478    57.9945    202.509  
    521.89    269.283    384.668   -8.79207   -4.14347    248.958  
   525.389    270.444    387.162   -7.59564   -1.37643    244.973  
   621.965     265.04    412.807    60.0273    57.7242    205.011  
   484.275    213.892    356.712    4.63761   -1.93909    311.627  
   801.591    196.042    448.715    52.2444    57.9113    142.222  
   801.106    202.206    473.336    48.3124    48.5596    149.396  
   465.475     217.77    347.733    19.9245    35.9745    331.059  
   454.541    225.242    346.519    -19.615   -32.3791    314.881  
   916.135    184.609    508.887   -9.74367    24.9313    74.2944  
   349.485     240.53    309.027    36.7097    29.2399    383.041  
   915.819     184.71     509.08   -8.69669    26.1445    74.2658  
   842.911    179.065    472.832    30.6594    45.4568    128.173  
   844.651    179.304      474.1     33.877     52.431     131.96  
   469.934    205.561    347.398    10.9397    7.58268    327.967  
    503.21    249.957    370.997   -41.5542   -47.7544    265.961  
   674.027    247.699    432.963    100.189     96.003    187.773  
     676.2    247.069    431.245    100.432    96.6915    189.467  
   508.817     252.79    373.697   -34.3167   -39.4433    262.051  
   685.096    239.011    447.378   -39.5809    7.31538    171.641  
   502.836     259.56    369.413    30.8775     48.021    283.586  
   498.049    251.452    368.502    37.2992     59.764    290.252  
    687.84    233.017    423.999    -41.914    6.67702    169.465  
   555.413    283.305     410.02    37.7832     44.678    224.913  
   543.123    281.946    407.454   -3.69826    11.8024    227.551  
   545.778    278.083    395.077   -1.62132    16.8311    221.198  
   557.504    280.728    396.155    35.2365     39.512    222.268  
   482.375    202.715    352.019    8.41053    7.99046    319.932  
   627.742    255.339    418.533   -62.7798   -27.8237    190.503  
   529.304    270.405    384.188    68.4578    84.7964    263.984  
   531.634    271.955    384.952     64.037    81.8063     262.37  
   625.366    255.686     419.16   -62.6902   -28.8964    187.816  
   809.426    188.438    459.392   -23.2501    21.3283    131.069  
   483.835     213.94    353.961    17.3518    29.6094    322.534  
   815.142    190.419    468.721   -27.2633    14.5386    144.268  
   555.123    271.353     398.39   -33.6376   -20.1367    225.151  
   581.796    276.009    404.787    66.7544    72.8299    226.204  
   581.036     276.52    407.329    68.3423    73.9456    225.411  
   556.507    271.004    397.053    -31.529   -17.3273    225.221  
   484.985    230.441    359.445   -10.2257   -20.2469    295.851  
   758.145     216.19    453.312    85.0419    78.8399    155.676  
   762.538    216.344    454.538    86.4973    82.3009    161.633  
    752.47    215.679    456.827   -36.2429    14.1458    149.907  
   491.372    235.245     360.04    23.1301    41.2833     305.15  
   758.694    213.324    447.186   -38.6573    12.2293    154.378  
   489.133    232.437    360.481    23.9788    41.3368    305.908  
   482.033    207.213    352.426    15.7364     26.231    323.181  
   516.075    260.816    379.635   -23.7461   -23.8548    256.176  
   479.778    237.777    359.109   -31.9888   -41.7208    291.281  
   474.728    226.275    354.809   -7.51262   -17.4221     306.54  
    505.67    248.888    372.447   -4.63175   -5.45263    272.913  
   496.744    244.813    368.011   -16.5668   -21.1983    280.635  
   828.579    186.841    464.314    42.3799    55.3572    136.442  
   782.277    208.884    457.306    71.5717    72.8112    155.639  
     811.6    201.373    470.477    84.4648    87.3033    136.884  
   854.617    184.201    481.853    54.5264    69.3161    121.082  
   818.229    196.472    470.676    65.8469    73.2073    138.618  
   475.952    208.724    351.247    7.62114    3.31501    320.649  
   483.968    222.037    357.187   -2.61807   -11.1793    303.104  
   449.007    229.023    345.123   -20.3106   -29.7992    319.877  
   437.484    216.824    337.693   -6.84991   -12.0555    337.885  
   460.227    218.772    346.916   -5.60106   -12.7632    320.036  
   826.591    189.448    473.505    39.2038    47.3974    137.429  
   777.525    208.914    457.876    69.1468    67.0826    149.971  
   809.238    201.637    470.788     83.133    84.9787     134.26  
   853.225    184.253    481.597    52.6658    66.0383    119.278  
   815.107    196.185    468.383    63.7752    69.0168    133.695  
   631.403     247.26    387.896    88.8226     84.934    160.937  
   662.209    252.021     435.62    67.0991    60.8968    186.789  
   727.892    224.566    409.289    84.6181    80.4793    135.282  
   676.111    236.366    395.301    90.0901    85.5017    147.317  
   517.674    262.555    384.961   -2.33415    13.0499    254.499  
   497.042    220.729    365.169    5.06684    10.5248     297.67  
   507.853    243.544     375.63   0.529459    11.3134    274.813  
   515.249    261.199    376.322   -1.58367    6.49942     247.83  
   513.812    257.751    379.157    -5.2735   -3.95517    261.015  
   497.172    226.251    359.402     4.4493    5.98955    285.041  
   506.618    245.179     368.08   0.723244    6.00294    265.056  
    657.54    266.216    463.724    88.4349    89.6048    226.822  
   668.421    248.825    422.993    67.1937    63.0491    191.011  
   756.545    244.054    486.395    86.8556    90.7244     201.78  
   704.876     257.17     477.07    90.7327    93.2947    217.669  
   571.403    246.682     395.42   -83.5729   -70.1693    220.892  
    596.49    259.379    407.765   -58.6209   -35.0934     206.28  
   658.916    237.085      425.5   -86.1901   -51.1003    174.644  
   641.418    223.166    416.009   -115.549   -90.1487    184.553  
    619.41    242.356    412.205   -85.2555   -60.2796    196.693  
   607.002     254.97     410.05    117.659    125.364    229.533  
   559.292    269.517    395.501     80.632     92.445    246.762  
   522.146    262.005    379.482    93.1524    107.565     279.06  
   564.259    244.258    391.439    132.585    143.228    264.812  
   564.475    259.101    394.892    105.367    116.982    255.926  
    609.27    254.973    409.933    117.303    124.949    229.296  
   560.582    270.359    395.299     77.935    89.6196    245.941  
   526.189    262.153    380.527    91.8639     107.01     276.88  
   566.774     242.84    391.556    135.222    145.547    264.444  
   566.209    259.479     394.92    104.541    116.315    255.434  
    570.71    245.749    395.653   -85.4947   -72.4543    220.804  
   595.001    259.541    408.674   -59.5075   -36.5366    204.944  
   657.437    237.347    426.326   -85.9624   -51.5438    173.331  
   641.837    222.302    416.752   -116.363   -91.3616    183.916  
   618.546    242.004    412.848   -86.1142   -61.4467    195.854  
   768.187    176.221    454.131   -116.562   -105.108    125.648  
    619.36    183.704    399.818   -160.706    -136.23    207.608  
   698.017    178.342    428.272   -139.595   -121.945     166.23  
   495.244    228.513    361.831    188.819     166.28    322.349  
   655.034    199.235    416.074    181.142    190.468    237.578  
   576.967    212.881    389.465    187.579    180.183    281.354  
   494.663    230.833    362.289    183.811    163.306    321.021  
    654.18    199.235    416.157     181.24    190.479     237.59  
    574.55     214.54    389.186    185.051    178.419    281.653  
   767.511     175.98    454.402   -116.256   -105.316     125.32  
   619.237    182.299    399.809   -162.087   -137.613    207.728  
    698.11    177.455    428.578   -139.984   -122.592    165.715  
   821.233    206.227    467.942    24.0186    49.2483    148.602  
   789.338    235.842     490.11    76.2761    86.4105    190.858  
    809.07     222.31     480.22    50.5341    68.8409    169.774  
   486.362    202.335    352.373    11.0601    14.6124    321.824  
   493.426    214.436    355.488    6.77779     8.2967    298.476  
   489.391    205.893    353.122    8.72132     11.777    311.709  
   818.924    205.145    463.497    20.3455    39.6747    143.177  
   765.862    218.975    423.286    74.1901    75.1105     132.89  
   796.697    213.208    444.515    47.2849    57.8018    137.401  
   496.661    230.221    358.179    20.1786    27.3785    305.382  
   493.808    218.428    354.916    16.8956    23.2985    312.714  
   473.803    212.331    349.707    19.3994    31.5282    326.773  
   477.218    224.975    353.514    22.7081    38.3021    318.145  
   486.947    222.052    355.351    20.1547    30.3953    313.748  
   494.112    242.509    365.055    31.1634    52.1746    297.235  
   508.523    263.498    371.514     29.967    37.0658    277.745  
   503.208    248.771    365.016    25.8689    31.8447    290.632  
   537.399    287.495    399.383    32.4288    31.6136    231.467  
   566.376     260.77    388.692    57.9747    62.8297    193.424  
   547.233    267.045    394.093    40.5079     42.774    209.011  
   553.469    259.892    388.512   -25.0196   -7.87829    195.757  
   533.249    280.711    402.905   -1.30693    21.7327    229.347  
    541.48    262.748    395.415    -10.574    9.56389    207.514  
   566.519    268.475    425.747   -22.8048    1.78165    227.743  
   532.174    277.952    391.356   0.605737    17.0561    223.422  
   546.817    266.338    410.652   -7.95557     12.829    220.722  
   540.313    287.139    398.233    29.7658    34.8198    233.025  
   581.109    271.601     430.35    54.9792    60.0594    229.866  
   554.854    272.305    415.189    37.0782    42.0488     225.86  
   648.818    240.933    390.403   -61.8158    -24.422    149.053  
   734.656    217.209    409.957   -55.3071   -13.3689     128.95  
   716.393    229.158    450.736   -38.1965    10.3679    161.126  
   688.323    227.518    396.004   -62.4419   -23.4239     135.71  
   515.446    269.509    382.303    27.6344    39.1842    280.777  
   500.859    234.154    367.791    20.9947    32.2958    310.192  
   497.806      248.8    365.395    27.4861    44.8792    294.234  
    509.05    252.991    375.756      25.31    36.1542    295.355  
   680.302      261.9    473.606   -61.3714   -18.6665    220.871  
   761.047    236.982    487.977    -57.783   -13.2672    194.754  
   722.703    225.429    436.902   -40.3732    9.35335    163.985  
   718.059    249.829    482.578    -63.804   -19.7123    209.746  
   537.227    270.066    390.083   -18.0361   -8.38093    235.899  
   560.752    266.277    397.016   -44.5066   -31.1149    223.905  
   534.209    257.505     384.29   -45.3632   -42.5005    243.704  
   519.188    261.859    380.678   -20.7283   -19.8259    253.196  
   537.371    264.294    388.108   -31.2772   -25.2841    240.547  
   600.437    271.307    411.905    67.5624    68.7514    209.752  
   586.898    272.018    407.182    81.8038    87.6074    226.749  
   635.577    258.296    421.295    98.2795    98.5785    206.843  
   644.712    257.878    423.944    82.1997    78.9171    194.119  
   619.362    264.844    417.229       82.2    82.4529    209.079  
   604.879    272.043    414.941    66.4926     68.437    216.818  
   587.972    272.025     406.18    80.3793    86.4846    227.845  
   637.162    257.987    420.173    97.9667    98.4579    208.174  
   649.532    258.289    426.332    81.9814    79.6356    200.752  
   622.086    264.838    417.304    81.5116    82.4097    212.519  
   535.182    269.663    390.689   -19.5445   -10.4106    238.292  
   559.393    266.092    397.362   -46.4575   -33.5828    223.631  
   531.497    255.918    383.358   -49.6391   -47.4163    245.524  
   534.853    263.311    387.334   -33.8082   -28.5919    242.389  
   720.288    232.901    443.418    94.7514    89.2959    175.327  
   709.899    234.023    442.056    118.874    119.967    178.095  
   814.409    207.882    475.422     109.16    118.847    134.218  
   766.427    218.402    458.643    103.312    103.654    155.841  
   717.231    233.367    444.379    93.9335    87.3761    172.066  
   708.181     234.32    442.832    118.591    119.601    176.893  
   813.331    208.127    476.115     108.34    118.041    133.531  
   764.425    218.688    459.184    102.495    102.351    153.881  
   496.189    241.668    366.384   -21.9437   -30.7589    279.427  
   494.154    245.978    366.178    -63.104    -65.425    273.885  
       432    233.085    339.335   -63.6758   -65.6912    320.876  
   468.565    238.342    354.693   -41.5916   -48.9894    299.801  
   523.204    277.396      382.3    34.5602    37.8774    256.194  
   550.412    283.122    399.506    45.8554    55.4103    230.481  
   532.007    283.502    389.516    35.4078    35.8346    242.192  
   606.217    248.056    394.577   -48.4344   -19.2883    170.884  
   562.348    279.158    416.503   -12.8326    8.88712     221.41  
   577.841    253.487    389.311     -39.45   -15.5384    181.749  
   625.574    259.978    443.473   -48.7654   -12.6304    216.068  
   564.002    273.478    394.419   -10.6998    12.0332     211.14  
   594.431    264.889    435.775   -38.2657   -7.52078    223.857  
   526.146    279.392    388.066    33.8593     43.032    260.896  
   551.762    283.892    398.505    43.7077    51.8111    233.763  
   535.174    284.953    395.778    33.7246    41.0095    247.538  
   683.338      230.8    433.286    139.871     149.35    198.286  
    796.98    195.509    469.098    134.768    176.526    151.604  
   729.609    195.441     443.78    158.489    184.935    195.075  
   529.567    229.263    375.854   -112.288   -101.508    251.031  
   455.372    216.567    344.727   -170.843   -132.945     299.32  
   542.017    197.417    373.643   -169.439   -137.008    252.928  
   528.223    232.352    375.667   -105.121   -96.2772    251.603  
   457.016    219.423    345.878   -161.613   -127.704    298.199  
   540.969    200.504    373.699   -164.096   -133.679    253.722  
   684.344    230.832    432.781     139.99    149.358     198.39  
   797.934    195.599    468.852     135.17    176.743    151.937  
   730.564    195.517    443.646    158.716    185.041    195.151  
   490.495    236.231    363.114   -5.01319   -12.6692    289.119  
   492.057    225.044    359.909    1.91561   -1.02881    294.158  
   745.083    225.561    449.689    80.1946    76.5487    169.056  
   766.246    227.002    464.227    74.7784    77.3288    175.549  
   738.652    225.183    447.932    78.6621    72.0046    159.758  
   754.282    221.552    440.885    72.6973    69.2251    148.472  
   491.264    242.789    364.564   -71.5034   -72.4047    276.296  
    424.32    234.267    336.713   -91.2162   -83.7019    321.456  
   420.247    233.626     335.09   -41.9444   -47.3256    332.876  
   457.523    238.709    350.601   -58.1679   -60.9029    305.941  
   574.416    270.973    406.516   -32.5234   -11.9937    217.606  
   538.938    276.056    397.048   -9.08333    3.62793    234.225  
   553.333    273.031    399.975    -20.263    -4.2246    226.093  
   559.101    278.803    399.265    57.7365    65.4112    235.116  
   582.138      275.8     417.32    48.2534    49.1519    216.148  
   572.488    276.773    403.944      57.12     61.348    221.211  
   560.063    278.879    398.331    56.0384    64.5352    236.148  
   586.054    272.189    401.872    46.4749    47.6351    213.958  
   576.041    277.534     406.93    55.4533     60.622     226.73  
   570.704    270.482    402.745   -34.1672   -14.6796    213.061  
   535.418    275.628    392.724   -10.5346   0.560432    233.967  
   550.156     272.63     397.14   -21.7631   -6.27345     223.89  
   351.358    244.661    310.873   -31.4667   -29.6587    373.361  
   391.722    227.654    322.469    6.81305    4.83493    363.839  
   445.836    217.092     341.14   -7.80573   -14.6123    330.352  
   405.862    231.753    328.957   -18.2987   -22.2641    350.802  
   901.044    188.271    503.768    37.0006    61.1337    90.4877  
   900.057    206.969    509.259    70.1299    115.069    83.0216  
   937.441    216.524    525.419    3.15764      36.95     46.072  
    924.29    213.561    519.759     36.732    80.2156    64.6072  
   310.271    267.878    300.213   -110.568   -83.1645    380.234  
   260.111    291.495    285.953    12.1057    3.13639     418.68  
   282.914    284.895    293.309   -49.6108   -40.2262    402.601  
   373.416    234.539    317.046   -2.42511   -6.83369    368.314  
   329.639    260.305     305.98   -81.0665   -64.9292    375.255  
   270.768    287.829     289.18    32.8178     19.872    416.374  
    299.43    276.432    297.778    -30.828   -25.6619    398.088  
    901.52    188.203    503.695    38.0692    62.4779    90.9477  
   900.926    206.959    509.035    70.9875    115.998    83.4667  
   937.236    216.533    525.466    4.09537    37.9266    46.0533  
   924.652    213.578    519.677    37.6472    81.2264    64.8374  
   880.499    190.288    497.816   -43.8261   -5.69343    85.7185  
   882.046    195.709    501.157     -54.97   -44.1243     65.205  
   914.218    208.906    515.639   -23.2115   -1.63078    54.5282  
   881.244    190.098    497.405   -44.7661   -6.56507    85.9654  
   882.981    195.756    500.988   -55.7072   -44.6091    65.5066  
   914.805    208.953    515.533   -24.0689   -2.38701    54.7148  
   381.171    243.175    321.549    69.9784    64.3044    371.666  
   347.337    267.497     313.91    142.787    107.754    390.455  
   306.761     281.69    301.519     88.797    63.8202    406.523  
   384.154    243.095     323.16   -145.253   -110.093    341.158  
   855.933    202.201    491.613    101.582    146.883    116.082  
   855.007    202.159    491.873    100.914    146.294    115.643  
   390.427    244.032    325.718   -123.592   -97.3594    341.078  
   533.517    244.567    381.134   -79.3927   -72.7276    248.633  
   659.748    245.306    427.446    118.294    122.978    203.901  
   661.087    245.216    426.768    118.139     122.88    204.645  
   534.874    246.712    381.701   -73.9115   -68.2039    247.882  
   379.697    240.623    320.513    47.9328     46.977    370.565  
   358.117    263.718    317.232    120.185    95.6675    384.042  
   310.315    279.409    302.415    74.8251    53.5196    404.582  
   877.313    178.217    490.881   -19.3312    22.0499    99.0229  
   847.665    179.621    475.886    5.61017     34.483    124.549  
   871.888    181.537    488.723    18.5007    47.2263    108.334  
   408.157    227.956    328.487    28.2333    32.5512     359.38  
   461.341    207.259    344.269    15.3591    19.3502    333.521  
   421.222     221.33    332.257    7.29566    8.56571    350.358  
   876.376    178.343    490.916   -17.7175    24.1756    98.3884  
   847.671    179.852    476.767    8.42408    39.7797    125.754  
    872.09     181.48    488.668    20.2788    50.0632     108.79  
   445.075    228.897    342.635    42.5964    55.7953    339.105  
   451.544    212.154      341.6    13.6641    20.8099    337.694  
    417.09    227.432    331.836    29.1685     32.256     353.83  
   594.479    253.872    386.456    74.2229    73.5728    177.454  
   527.771    272.448    392.948   -3.96526    16.3841    238.968  
    526.14    271.154    386.728   -2.78658    9.70687    234.825  
   615.798     268.96    446.609    72.4425    75.1655      229.3  
    769.94    202.919    459.247   -100.425   -61.8395    125.986  
   830.953    185.224    479.453   -85.5748   -75.6205    94.8997  
   465.511      243.7    353.781    96.3032    105.936    324.021  
   423.867    250.104    339.398    153.914    130.149    356.314  
   465.989    242.518    353.508    116.438    119.523    326.409  
    422.26    248.424    338.334    169.344    138.863     358.51  
   769.191     203.04    459.983   -99.8437   -61.7351    125.507  
   830.215    185.073    479.707     -85.01   -75.4155     94.487  
   797.402    199.706    467.356   -76.1257   -25.2391    119.671  
   810.166    194.084    468.431    -46.775    3.05003    129.268  
   842.537    190.758    481.429   -47.3742   -1.14325    109.359  
   445.418     244.27    345.986    69.2788    82.1259    335.526  
   460.774    227.036    348.036    34.2475    50.7997    328.876  
   426.819    236.953    337.412    49.5913     57.677    349.464  
    795.64    200.006    467.819   -75.0867   -24.4889     118.24  
   807.932    194.396    468.703   -45.0621     5.0956    127.239  
    841.12    190.974    481.711   -46.0548   0.258572    108.297  
   462.704    207.765    345.276    6.89087    5.87941     330.64  
   486.178    213.728    355.963    4.97835    1.63821    309.498  
   468.544    216.675    349.938   -1.01587   -6.44625    319.718  
   695.954     232.51    437.152   -68.4434   -22.9985    164.905  
   727.271    220.711    446.684   -82.7821   -40.2268    149.183  
   511.267    260.194    374.965    51.3749     71.868    279.081  
   469.872    246.311    355.682    52.2078    69.8565      316.5  
   493.322    254.695    366.698    72.1164     89.198    300.326  
   502.493    257.531    370.523     56.643    76.9743    289.728  
   489.714    253.869    364.879    82.3878    96.2456    305.997  
   693.375    233.052    438.328   -67.8309   -23.1961    162.803  
   725.543    220.984     447.32   -82.1895   -40.1995     147.81  
   490.693    201.147    354.663     10.267    15.6999    319.784  
    494.07    209.536    359.968    7.59955    13.2874    309.381  
   471.378    235.428    353.647    37.1498     54.425    317.859  
   757.375    211.718    452.053   -54.7502     -3.108     141.41  
   656.151    245.291    428.951   -53.7208   -14.5026    177.325  
   703.914    229.981    438.735   -56.9404   -11.9917    159.176  
   762.693    212.604    456.778   -56.4339   -4.40713    149.684  
   660.641    244.699    427.439   -54.1935   -13.3002    180.899  
   709.328    230.645    443.008   -57.9878   -11.9168    167.062  
    481.26    238.682    358.266    34.3883    54.4638    312.222  
   515.433    265.638    377.256    47.8429    66.1455    274.086  
   499.471    253.954    368.716    42.6729    61.3335    292.878  
   825.517     185.04    468.628   -22.2276    22.0475    126.413  
   803.683    214.208    454.629   -4.13394     31.817    144.661  
   825.195    196.414    467.273    2.44883    37.4114    136.617  
   468.353    215.242    348.361    20.0561    31.8715    330.742  
    492.34    205.319    355.765    14.1908    22.7718    320.528  
   477.724     207.28     350.33    14.0038     21.588    326.001  
   828.986     185.56    471.925   -25.1518    17.8386    131.896  
   810.551    218.398    470.632   -7.61951     24.232    158.587  
   826.748    197.074     469.99  -0.863074    29.9546    139.443  
   693.038    244.854    438.246    82.8437    79.3994    187.452  
   687.024    244.067    434.269    82.3573    77.2538    178.423  
   506.001    250.566    372.582   -14.0429   -17.1955    269.476  
   605.558    264.835    418.505   -41.5239   -13.5868    199.347  
    631.46    250.917    417.154   -47.1613    -12.052    179.557  
   538.454    278.115    389.395    54.5761     68.241    252.644  
   522.268    272.838    382.755     39.329    52.7685    266.195  
   537.701    277.224    390.048      57.98    72.0446    252.522  
   519.459    269.893    380.073    41.5019    54.1735    266.412  
   608.385    263.604    412.067   -40.6746   -11.6911    198.679  
   640.575    253.535     430.09   -47.2536   -8.74349    197.215  
    481.42    202.757    351.399    11.8552    16.4626    323.153  
   467.056    208.705    346.652    13.2191    17.6411    330.373  
   491.325    207.704     353.79    13.3569    19.4264    318.274  
   583.588    264.372    406.194   -46.8328   -24.8493    209.538  
   560.472    274.032    397.561    69.3196    79.5004     240.96  
   562.053    274.624    397.594    67.3145    77.7329    241.308  
   586.172    264.318    406.657   -45.6224   -23.0095    212.012  
   782.653    203.963    460.176   -30.4942    17.2317    141.754  
   792.257     200.53     461.37   -38.6615    9.36218    134.896  
   487.653    224.851     356.93    20.9051    36.1439    313.821  
   475.089    227.242    353.428    27.8396     43.791    321.843  
   787.634     203.25    457.523   -33.5243    12.9949    149.271  
   796.614    201.197    464.739   -40.8912    6.76874    141.365  
   770.994    216.402     431.25   -31.6127    7.75805    135.373  
   495.998    218.966    361.549    17.8035    27.5367    317.006  
   789.263     229.39    482.264   -34.5259    3.90712    178.228  
    937.76    351.753    4219.67    24.3105    60.3573    434.808  
   936.667    352.876     4219.9    24.9436    61.1377     435.28  
   921.691    346.836     4215.7    14.0601    46.5078    442.303  
   917.255    348.693    4215.63    12.9449    45.0422    443.482  
   919.542    346.281    4215.57    21.0967     57.815    445.022  
    918.28    346.324    4215.37    21.5886    58.1812    445.283  
   940.244    352.367    4219.51    12.6551    48.9194    431.733  
   940.239    352.832    4219.64    12.7959    48.8171    431.891  
   934.292    353.452    4219.24    10.6508    45.8684    433.461  
   936.164    345.502    4217.15     14.512    49.8471    435.861  
   940.204    344.282    4217.34    17.4662    53.4505    435.068  
   937.437    340.857    4216.03    17.1162    52.6376    437.352  
   937.585    341.591    4216.35    18.9952    54.9439    437.529  
   937.644    339.471     4215.7    17.8641    53.5409    437.974  
   935.769    339.186    4215.36    17.9825    53.5342    438.839  
    937.72    339.634    4215.75    17.7016    53.2665    437.861  
    934.73    339.481    4215.33    17.9148    53.4289    439.359  
   935.636    340.888    4215.89    19.1996    54.9471    438.496  
   938.412    341.824    4216.51    18.8227     54.637    436.961  
   928.089    341.293    4214.96    18.4361    53.6398    441.813  
   934.445    341.174    4215.72    16.3319    51.5892    438.462  
   934.212    340.959    4215.75    19.2777    55.0472    439.267  
   926.884    341.748    4214.97     18.314    53.5782    442.428  
   931.405    342.165    4215.62    15.9015    50.4776    439.659  
   937.093    341.414    4216.15    16.7388    52.0884    437.294  
   935.156    345.809    4217.44    21.7601    58.0227    437.635  
   935.207    346.661    4217.38    14.0994     48.956    436.019  
   938.292      345.6     4217.7      20.97    57.0117     436.09  
   930.955    343.557    4216.21    21.0431    57.1563    440.099  
   917.051    343.879    4214.14     18.649    53.1848    446.456  
   927.847    350.523    4218.26    24.7826    61.4014      439.7  
   945.045    351.837    4219.88    17.1312    53.6253    430.766  
   940.358    345.124    4217.58    16.9491    52.7218    434.681  
   945.243    352.216    4220.01    17.1886    53.4814    430.631  
   928.198    350.423    4217.68    11.8991    45.4079    437.681  
   927.369    348.449    4216.96    12.4031    46.1699    438.515  
   929.698     342.62    4215.73    20.1228    56.2399    441.058  
   917.215    343.811     4214.2     18.611    53.2551    446.616  
   924.537    349.459    4217.46    24.2974    61.1357    441.663  
   940.907     347.33    4218.42    20.3205    56.5214    434.394  
   941.593    347.498    4218.51     19.895    55.9817    433.853  
   934.808     354.29    4219.57    10.6782    45.8436    433.487  
   927.059    342.923    4215.23    15.8796    50.0391    441.303  
   943.492    352.265    4220.11    21.8826    58.0269    432.078  
   944.035    352.289    4220.19    21.7542    57.6977    431.663  
   925.187     342.31    4214.84    16.8404    51.0735    442.867  
   917.849      344.5     4214.4    16.4205     49.159    445.456  
   928.408    353.321     4219.3    26.1392    62.9459    438.917  
   919.215    349.946     4216.9    24.1608    61.3352    443.804  
    916.63    346.001    4214.67     15.902    48.1923    445.295  
   917.509    344.685    4214.57    20.1097    55.6899    446.024  
   925.052    344.976    4215.87    21.3612    57.6996    442.582  
    929.38     342.11    4215.46    19.7102    55.3665    441.086  
    922.74    342.631    4214.59    18.5374     53.397    444.175  
    923.84    343.548    4215.14    19.9525    55.5865    443.495  
   909.993    347.795     4214.5    21.7364    58.7896    448.786  
   908.024     345.05     4212.9     18.488    52.5928    450.223  
   909.304    346.673    4213.86    19.9975    55.6188    449.641  
   918.379    344.704    4214.76    19.7534    55.5835    445.939  
   924.807    344.341    4215.64    20.7064    56.9707    443.102  
   928.319    342.042     4215.3    19.2455    54.8708    441.771  
   921.842     342.94    4214.61    18.3908    53.3695    444.694  
    923.31    343.578    4215.11    19.6111    55.2255    443.938  
   926.727    344.614    4215.73    14.9652     48.542    440.908  
   933.152    344.207    4216.42    14.9874    49.6782    437.921  
   932.001    348.693    4217.63    12.9371    47.2393    436.757  
    924.63    348.515    4216.62    12.9439    45.9173    440.121  
   929.166    346.395    4216.59    13.9573    47.9138    438.981  
   912.355    351.395    4215.66    12.2189    42.6707    444.187  
   922.688    348.614    4216.37    12.6677    45.6087    440.759  
   923.557    353.574       4218    10.2056    43.2867    437.842  
   918.388     352.59    4216.97    11.1621    42.9961    440.671  
   932.717    351.134    4218.97    24.6732    60.9835    437.212  
   924.058    355.229    4219.47    27.2538    64.0026     439.93  
   936.493    357.132     4221.3    27.4663    62.9273    433.904  
   930.219     356.21     4220.4    27.2946    63.5418    436.745  
   911.718     347.91       4215    21.4434    58.5853    448.779  
   908.064    345.201    4213.14    18.6714    52.5653    450.506  
   910.126    346.695    4214.18     20.212    55.5734    449.738  
   944.347    358.039    4221.46    11.7483    49.0427     429.17  
   943.261    352.615    4219.92    14.9409    51.1744    431.179  
   949.713    357.886     4221.9    17.9339    54.5247    427.761  
   947.583    357.848    4221.69    14.9711     51.846     428.51  
   937.343    340.491    4215.93    17.2432    52.7116    437.576  
   934.261    341.918    4215.94    16.2458    51.1901    438.505  
   932.992    340.605     4215.4    17.0069    52.1143    439.587  
   936.159    339.441    4215.49     17.728    53.2263    438.597  
   935.082    340.555    4215.65    17.0985    52.3103    438.583  
   921.863    347.656    4216.42    22.8925    59.4717    443.443  
    916.82    352.195    4217.46     25.256    62.9759     444.45  
   914.325    350.456    4216.42    23.1873    60.6671     446.73  
     937.9    340.653    4216.07    18.2073    53.9163    437.409  
   936.819    339.399    4215.57    17.9401    53.5431    438.318  
   935.589    339.818    4215.54    18.5273     54.166    438.725  
    936.98    341.404    4216.21    18.9838    54.8063    437.703  
   936.685    340.288    4215.82     18.398    54.1366     438.08  
   936.289    339.456    4215.53    17.9836    53.6068      438.6  
   936.648    339.254    4215.49    17.8332    53.4174    438.401  
   936.495    339.274    4215.47    17.8351    53.4569    438.395  
   934.338    340.049    4215.46     18.529    54.1355     439.35  
   935.997    341.294    4216.07     19.093    54.9837    438.302  
   937.423    340.473    4215.97    18.3894    54.2187    437.757  
   935.921    340.276    4215.73    18.4644     54.255    438.522  
   934.974    339.971    4215.46    17.2534    52.6323    438.759  
   937.486    340.146    4215.85    17.5112    53.1369    437.655  
   935.889    341.099     4215.9    16.7154     52.053    437.968  
   936.164    340.094    4215.66    17.3796    52.8122    438.222  
   938.907    342.891    4216.84    18.3523    54.3233    436.313  
   938.842     342.62     4216.7    17.2477    53.0416     436.16  
   938.054     341.57    4216.34    17.8808    53.7053    436.972  
   938.485    344.948    4217.31    15.9627    51.6226    435.434  
    935.35    343.244    4216.41    15.4681    50.7095     437.18  
   937.252    343.059    4216.62    16.2792     51.794    436.663  
   931.002    342.072    4215.53    16.0989    50.7733     439.86  
   932.052    347.212    4217.17    13.3822    47.9935    437.093  
   926.962    345.493    4215.99    14.2184    48.1142     440.07  
   931.372     344.45    4216.27    14.8097    49.3709    438.618  
   944.005    357.732    4221.22    11.3182    48.7019    428.853  
   943.153    352.183    4219.79    14.8436    51.2763    431.169  
   949.573    357.626    4221.79    17.4668    54.1195    427.817  
   947.324    357.566     4221.5    14.5082    51.4335    428.369  
   932.209    340.377    4215.26    18.2174    53.5875    440.258  
    933.33    342.346     4216.1    20.1774    56.1149     439.32  
   932.605    341.094    4215.57    19.1178    54.7238    439.945  
   931.179    340.682    4215.23    18.0922    53.4859     440.76  
   931.901    341.886    4215.77    19.7493    55.6705    440.236  
   931.469    341.129    4215.44    18.8616    54.4532    440.572  
   938.642     343.23    4216.84    16.7657    52.3734    436.001  
    938.11    345.941    4217.54    15.4915    50.8214    435.313  
   936.161    343.819    4216.71    15.7894    50.9609    436.927  
   915.342    350.709    4216.13    12.6994    43.5103    443.739  
   924.433    354.891    4218.73    9.90067    42.8968    437.602  
   919.628    352.848    4217.45    11.3013    43.2013    440.686  
   937.923    348.694    4218.65    22.6358     58.674    435.387  
   934.603    344.502    4216.94    21.0387    57.1482    438.094  
   929.266    346.789    4217.11    22.7932     59.152     439.96  
    933.46    347.691    4217.87    22.7595    59.0216    437.704  
   942.514    348.005     4218.6    17.2988     53.549    432.971  
   938.127    348.734    4218.28    13.5851    49.3612    433.937  
   940.791    348.397    4218.51     15.455    51.4754    433.403  
   939.407    343.432    4217.04    18.0055    53.8131    435.832  
   938.199    341.996    4216.47    17.5574    53.2198    436.714  
   938.217    343.668    4217.06    19.8546     55.783    436.518  
   935.729    343.038    4216.58    20.0645    56.0167     437.85  
   918.619    347.878    4216.02    22.7727    59.5956    444.654  
   923.908     350.26    4217.65    24.4976    61.4194    441.539  
   924.408    347.364    4216.65     22.745    59.4204    442.139  
   942.684    348.651    4218.78    16.9992    53.0946    432.676  
   937.684    349.604    4218.49    13.4053    48.8909    434.051  
   940.652    349.149    4218.71     15.208    51.0287    433.315  
    940.64    345.682    4217.85    18.7291    54.8019    434.751  
    942.19    349.887    4219.28    21.1073    57.3014      433.2  
    944.58     352.09    4220.04    19.4078    55.7021    431.384  
   942.608    348.967    4218.97    19.0368    55.2396    433.068  
   927.542    341.873    4215.01    17.2663    51.8746     441.66  
    931.62    340.967    4215.31     17.271     52.239    440.151  
   930.406    350.638    4217.98    11.5596    46.0043    436.227  
   934.327    358.281    4220.57    8.60515    44.6131    431.653  
   928.336    355.732    4219.19    9.48481     43.786    434.903  
    937.52    352.987    4219.45    11.7665     47.478    432.585  
   939.346    357.996    4220.89    10.1591    46.7403    430.238  
   937.959     346.54    4217.92    21.1169    57.3495    436.073  
   936.401    343.636    4216.87    20.2981    56.3907    437.564  
   938.518    344.587    4217.33    19.6226    55.7105    436.109  
    932.39    344.097    4216.55    21.0243    57.1688    439.348  
   934.147    342.835    4216.34    20.1152     56.101    438.821  
   935.688    349.221     4218.6    23.3112    59.5297    436.515  
   930.238    347.736    4217.54    23.0297    59.5724    439.555  
   926.196    351.133    4218.26    25.1984    61.9214    440.454  
     932.9    353.139    4219.65    25.5754    62.0091    436.913  
    931.39    350.199    4218.51    24.1856    60.6967    438.368  
   916.834     344.42    4214.21    17.4125    50.7594    446.027  
    909.93    347.916    4214.15    15.0504    46.2762    448.267  
   909.138    346.749    4213.67    16.8584    49.5791    449.454  
   928.643    342.222    4215.27    16.3018    50.6835    441.074  
   925.975    341.945    4214.87    17.6711    52.4033    442.687  
   929.918    341.259    4215.19    17.3285    52.1532    440.959  
       935     358.83    4221.05    8.83009    44.7665    431.994  
   937.792    353.594    4219.66    11.8981    47.4457    432.668  
   939.978     358.43    4221.26    10.5265    47.0349    430.548  
   934.571     349.86    4218.23    12.5449    47.7332        435  
   945.971    358.003    4222.02    23.7546     59.461    429.969  
   940.167    352.615    4220.02     23.377    59.5661    433.666  
   936.259    357.771    4221.58    27.6212    63.2532    434.435  
   941.606    357.833    4221.83    25.3931    61.4289    432.046  
    927.49    345.942    4216.57    21.9508    58.3055    441.362  
    946.04    358.063       4222    24.0886     59.613    429.525  
   940.777    352.011    4219.91    23.0442    59.0278    433.271  
   941.412    357.559    4221.65    25.5816    61.4123    431.625  
   917.439    343.943     4214.2    17.5599    51.2669    446.101  
   909.695    347.024    4213.96    15.7479    46.9297    448.435  
   909.135    346.297    4213.67    17.2727    49.7792    449.589  
   919.782    345.593    4215.02    15.1903    47.8272    443.856  
   912.603    348.993    4215.12    14.1831    45.2961    446.136  
   924.576    356.755     4220.2    27.9778    64.9116    439.694  
   930.574    357.371    4220.94    27.6322    64.0777    436.829  
    913.52    352.581    4217.01    25.0958    63.1257    445.558  
   911.832    350.384    4215.86    23.2129    60.7194    447.346  
   916.814    347.319    4215.12    14.4202    46.7751    444.489  
   911.428    349.789    4215.03    13.8949    44.6443    446.277  
   919.026    354.188     4218.4    26.1714    63.5505    442.472  
   941.109    346.228    4218.04     18.243    54.1392    434.282  
   942.765    350.043    4219.37    20.8459     56.896     432.69  
   944.913    352.303    4220.14    19.3843    55.4952    431.116  
   943.016    349.361    4219.11    18.7663    54.8307    432.671  
   948.334    357.872    4221.94    21.0085    57.2264    428.622  
   939.778    346.554    4218.09    20.4569    56.5198     435.01  
   939.624     344.87    4217.51    19.0989    55.0162    435.369  
   948.321    357.722    4221.91    20.5867      56.89    428.869  
   920.483    354.468    4218.83    26.4292    63.8077    442.187  
   931.044    352.174    4218.53    11.2855    45.6151    435.789  
   929.117      356.7    4219.79    9.45452    43.6732    434.933  
   938.919    349.586    4218.97    22.2349    58.5006    434.919  
   934.652    351.013     4218.6    12.3567    47.3442    434.849  
   922.251    344.363    4214.98    15.7963    49.1397    443.256  
   922.367    346.413    4215.64     14.334    47.3915    442.098  
   922.396    343.314    4214.71    17.2544    51.3132    443.854  
   940.142    349.417    4219.01    21.7786    57.8433    434.115  
    921.31    343.557    4214.64    16.5715    50.0827    444.274  
   924.185    344.102    4215.22      15.67    49.2489    442.443  
   921.585    343.145    4214.59    17.5586    51.8079    444.518  
   620.438    237.958    412.362    142.674    154.767    230.948  
   617.429    236.615    411.454    141.285    152.954    229.925  
   616.284     236.95    409.275    140.828    152.696    230.116  
   614.551    237.854    409.143    140.917    153.768    230.383  
   580.859    227.475    394.641   -116.062   -102.789     215.76  
   578.931    227.212    394.221   -115.361   -101.871    215.538  
   577.635    227.708    392.589    -115.07   -101.949    215.934  
   575.337    228.357    392.435   -115.027   -103.097    216.204  
   573.976    230.012    392.247   -113.071   -100.854     216.25  
   576.313    229.364    392.406   -113.102   -99.6656    215.991  
   577.592    228.856    394.072   -113.388   -99.5834    215.584  
   579.542    229.093    394.494   -114.095   -100.526    215.802  
   616.127    237.948     409.76    140.313    153.707    229.188  
   617.869    237.042    409.895    140.227    152.628     228.92  
   619.011    236.712    412.086    140.684     152.89    228.728  
   622.046    238.066    413.002    142.082     154.72    229.756  
   835.414    188.378    484.229   -82.6652   -42.1915    98.2278  
   830.655    186.686    482.373   -79.9362    -38.765    96.9538  
   829.723    186.986    480.578   -78.9055   -37.7446    97.1984  
   828.012     188.85    479.793   -77.4602   -38.6477     97.944  
   428.438    236.057    338.915    68.9314    79.7798    346.451  
   427.892    235.521     338.28    68.5116    79.4667    345.646  
   427.081    236.179    337.555    68.6138    79.6094    345.825  
    426.65    236.743    337.876    68.7298    79.5964    345.995  
   409.763     240.85    332.304    100.375    98.5756    354.604  
    410.19    240.162     332.03    100.305    98.5977    354.457  
   411.048    239.498    332.729    100.356    98.5015     354.31  
   411.695    240.109    333.246    100.815    98.7605    355.021  
   827.965     188.81    479.767   -77.4714   -38.6139    97.9902  
   829.676    186.944    480.552    -78.919   -37.7107    97.2432  
   830.608    186.643    482.347   -79.9496   -38.7307     96.998  
   835.369    188.335    484.206   -82.6803   -42.1591    98.2742  
   861.301    186.669    492.206    73.8633    87.5975    110.208  
   861.392    183.998    492.543    75.4989     87.618    109.292  
   861.789     183.66     494.03    76.4293    88.7292    109.231  
   866.665     185.96    496.679    79.6962    92.9938    111.538  
   400.388    229.047    326.539   -30.0183   -36.9151    347.379  
   400.809    228.462    326.092   -29.7156   -36.9839    347.494  
   401.623    227.703    326.316   -29.3737   -36.6481    347.325  
   402.039     227.27    326.403   -28.8246   -36.2285    347.224  
   370.511    237.102    316.536     -69.72   -63.9564    353.499  
   370.129    237.551    316.472   -70.1694   -64.2533    353.651  
   369.371    238.359    316.246   -70.3645     -64.54    353.865  
    368.92    239.047    316.554   -70.5132   -64.5059     353.77  
   866.651    185.989     496.68    79.7186    93.0249    111.538  
   861.773    183.689     494.03    76.4504    88.7592    109.231  
   861.375    184.027    492.543    75.5196    87.6479    109.293  
   861.283    186.698    492.205    73.8842    87.6284    110.208  
   589.355    276.368    396.736     -22.05   -10.8072    202.548  
   590.386    277.035    406.666    -20.996   -2.74567    207.161  
   591.099    275.623    408.692   -20.9961   -2.45352    206.619  
   592.148    273.173    415.828    -21.386   -8.45041    208.539  
   546.279    282.632     396.16    43.6872    59.7063    243.453  
    544.22     284.44    392.868    45.0018    58.1156    242.393  
    544.31     285.21    390.204    45.6397    58.9289    242.936  
   540.867    283.827    388.345    47.8006    61.9738    242.073  
   540.409    284.282    388.116    46.2886    60.1753    241.434  
   543.823    285.768    390.112    44.0853    57.0934    242.353  
     543.7     285.01    392.703    43.4347    56.2672    241.821  
   545.667    283.051    396.106    41.9896    57.7795    242.772  
   592.196    273.033    415.609   -22.2216   -9.15656    208.595  
    591.04    275.446    408.643   -21.7756   -3.15934    206.684  
    590.33    276.854    406.611   -21.7721   -3.45209    207.236  
   589.137    276.187    396.928   -22.8923   -11.5382    202.708  
    712.46    225.072    461.595    54.7177    65.3261    177.305  
   715.028    224.038    447.135    55.1021    60.2008     170.91  
   714.513    225.625    444.338     54.729    60.0064    171.028  
   716.935    228.934    433.284    51.8296    63.4626    169.434  
   488.038    227.464    357.765    4.07759   -4.82442    298.127  
    488.12    227.368    358.667    3.39332   -5.40655    298.119  
   487.343    227.705    358.508    2.55097   -6.17176    298.231  
   486.588    227.539    360.364    1.86312   -5.74806    298.122  
    497.15     244.72    368.172  -0.664525   -6.48367    281.573  
   498.499    245.175    366.052   0.304598   -6.45497    281.845  
   499.308    244.844    366.393    1.29705   -5.50573    281.705  
   499.072    244.794      365.1    2.23008   -5.07253    281.608  
   716.946    228.933    433.291    51.8335    63.4602    169.428  
   714.524    225.622    444.341    54.7299    60.0063    171.024  
   715.038    224.036    447.139    55.1027    60.2007    170.906  
   712.472    225.069    461.593    54.7175    65.3214    177.297  
   510.601    242.953    370.991    125.847    137.084     293.87  
   511.723    242.214    370.788    125.621    136.681    293.558  
   512.853    241.747    372.254    125.723    136.643    293.365  
    514.35    242.756     372.83    126.373    137.321    294.284  
   468.652     238.78    354.206    44.4084    68.7052    316.244  
   469.275    238.556    353.808    44.1147    68.6049     315.89  
   469.997    238.033    354.746    43.6876    68.2238    315.642  
   470.436     238.34    355.958     43.866    68.6224    316.877  
     451.2    212.487    342.228    21.5568    33.6646    337.224  
   451.318    212.192    341.786    21.6468    33.5503    337.045  
   451.905    211.642     342.17    21.4962    33.4366    336.912  
   452.294    211.681    343.147    21.8849    34.0724    337.705  
   587.952    268.081    403.852    90.6792    100.919    226.227  
   591.059    267.618    405.145     89.755    98.0971      226.6  
   591.535    266.771    408.416    89.8279    97.9138    226.023  
   595.101    267.112     410.46    90.5086     100.79    227.223  
   692.878    213.002    433.468   -110.841   -81.2757     153.07  
   695.695    211.802     434.19    -111.57   -79.5771    152.634  
    696.89    211.316    436.421   -112.341    -80.007    152.233  
   700.597    212.347    437.541   -114.362   -82.4023    153.041  
   762.348    203.278    454.844   -59.9042    -12.401    137.425  
    764.67    200.281    458.594   -61.5625   -9.16996    136.491  
    765.24    199.194    460.857   -62.3328   -9.79694    135.883  
   769.433    201.182    465.689   -65.1356   -15.2704    138.907  
   839.247    168.345    479.777   -17.5403    22.4417    121.832  
   839.157    164.361    480.666   -20.2075    22.4477    118.838  
    839.57    163.807    481.548   -20.8732    21.6728    118.523  
   842.071    167.195      485.8   -23.7684    17.4731     122.33  
   558.267    263.582    392.422   -53.9477   -47.0992    221.639  
   561.991    263.344    393.165   -53.0156   -44.3713    222.039  
   562.799    262.556    395.567   -52.9308   -43.9841    221.452  
   565.153    261.638    396.303   -53.3136   -45.4737    221.439  
   701.088    212.108    437.663   -114.541    -82.877    152.843  
   697.391     211.07    436.551   -112.525    -80.497    152.038  
   696.191    211.549    434.331   -111.755   -80.0662    152.436  
   693.385    212.742     433.62   -111.027   -81.7482    152.872  
   769.479     201.16    465.694   -65.1776   -15.2911    138.872  
   765.285    199.172     460.87   -62.3773   -9.82249    135.853  
   764.715    200.258    458.607   -61.6067    -9.1949    136.461  
   762.392    203.256     454.86   -59.9508   -12.4231    137.392  
   842.076    167.198    485.802   -23.7757    17.4694    122.324  
   839.574    163.811    481.551   -20.8811     21.669    118.518  
   839.162    164.365    480.669   -20.2155    22.4442    118.833  
   839.252    168.349    479.779   -17.5492    22.4379    121.826  
   565.068    260.733    396.009   -55.3309    -47.992    221.655  
   562.756    261.584    395.341   -54.9423   -46.5859    221.662  
   561.911    262.351    392.977   -55.0198   -46.9642     222.24  
   558.275    262.616    392.346   -55.8953   -49.5447    221.902  
   332.986    244.091    303.945    9.42013    7.53689    387.105  
   332.664    244.132    303.701    8.92414    7.21859    386.936  
   332.148    244.913    303.554    8.74608    7.10456    387.064  
   332.111    245.539    303.859    8.62271    7.08864    386.941  
   510.807    245.854    372.193    121.506    132.898    294.371  
   509.346    244.913    371.595    120.931     132.24    293.442  
   508.249    245.393    370.078    120.876    132.313    293.658  
   507.077    246.087    370.277    121.156    132.752    293.951  
    594.91    266.831     410.25    91.2268    101.912    227.477  
   591.369    266.472    408.277    90.5402    99.1035    226.288  
   590.873    267.301    405.029    90.4646    99.2797    226.857  
   587.802    267.776    403.812    91.3673    102.026    226.516  
   473.973    228.729    354.047   -106.208   -100.789    285.312  
   473.153    229.034    353.939   -106.372   -100.792    285.423  
   471.983    229.689    353.158   -106.478   -101.117    285.739  
   470.661    230.332    353.372   -106.652   -101.442    285.866  
   738.377    219.534    452.016    130.852     144.06    162.969  
   740.173    218.068    452.631    131.302    142.687    162.756  
   741.129    217.742    455.055    132.147    143.414    162.618  
   746.012    219.428    456.868     134.79    146.891    163.971  
   746.004    219.382    456.848    134.905    147.148    164.052  
   741.125    217.696    455.039    132.263    143.678    162.702  
   740.165     218.02    452.618    131.418    142.951    162.839  
   738.369    219.482    452.006     130.97     144.32    163.052  
   469.086    234.915    353.763   -95.5738   -92.9266    285.494  
    470.47    234.309    353.496   -95.3267   -92.5651    285.394  
   471.626    233.664     354.31   -95.1509   -92.2014    285.073  
   472.439    233.295    354.392   -94.9525   -92.1909    284.934  
    438.37    208.503    336.487    4.98581    5.52215    342.072  
   437.975    208.678    336.159    4.44476    4.88034    341.838  
   437.295    209.308    335.959    4.23329    4.67528    341.953  
   437.172    209.712    336.548    3.91954    4.86243    341.918  
   616.275    269.853    430.055    48.1423    61.5438    207.361  
   617.315    271.345    418.506    49.3369    55.5939    204.233  
   616.882    272.994     415.93    49.4646    55.8469    204.753  
   617.627    273.035    404.424    49.6058    62.4183    200.324  
   525.495    272.896    381.472   -3.24848   -4.02288    246.474  
   525.181    274.262     382.47    -4.3745   -3.71828    247.323  
   524.659    274.801    381.087   -5.25114   -4.72756     247.62  
   521.353    273.693    381.806   -7.17056   -6.84321    246.418  
   524.254    276.392    383.155   -6.07946   -4.14329    243.404  
   527.717    277.746    382.731   -4.00321   -1.64937    244.875  
   528.132    277.183    384.163   -3.16604   -0.66835    244.572  
     528.5    275.678    383.169   -1.91992   -1.08049    243.605  
   617.619    273.046      404.4    49.5672    62.3861    200.318  
   616.838    273.005    415.913    49.4307    55.8339    204.757  
   617.271    271.355    418.493    49.3019    55.5806    204.239  
   616.193    269.858    430.046    48.0929    61.5063    207.365  
   481.832    215.635    355.773    3.02898    -2.4668    310.422  
   482.246    215.751    354.199    3.60205    -3.0169    310.548  
   482.907    215.363    354.337    4.22151   -2.48392    310.432  
    483.06    215.534    353.676    4.74695   -1.90824    310.447  
   794.457    186.156    460.624    43.2131    59.6072    144.975  
   792.212    181.759    466.112    45.6722    57.4935    144.172  
   792.656    180.784    467.634    46.1096    57.8517     144.33  
   790.176    183.553    479.115    46.6224    62.3463    152.007  
   790.164    183.563    479.113    46.6275    62.3478    152.013  
   792.643    180.793    467.631    46.1128    57.8503    144.333  
   792.199    181.769    466.109    45.6752    57.4922    144.175  
   794.443    186.165     460.62     43.215    59.6074    144.978  
   465.234    215.967    349.219    18.5204    36.9809    331.335  
   464.869    215.977    347.991    18.2223    36.3023    330.373  
   464.343    216.458    347.555    18.4845    36.5033    330.516  
    464.19    216.618    348.008    18.4737    36.6829    330.771  
   455.238    224.997    345.829    -18.508   -32.0902    314.193  
    454.85    225.581    345.949   -19.1024   -32.5783    314.444  
   453.892    226.181    345.601   -19.6585   -33.1214    314.625  
   453.141    226.608    346.355   -20.2131   -33.0655    314.512  
   911.274    180.783    510.763   -6.08551    28.1697    76.5994  
   909.853    178.462    510.174   -8.39177    26.6852    75.0921  
   910.157    178.359    510.652   -9.47316    25.3044    74.9509  
   913.618    180.571    512.158   -11.8652     22.485    76.2832  
   348.688    240.599    309.106      35.83    29.2902    382.794  
   348.738    239.986    308.796    35.9322    29.3221     382.86  
   349.291    239.224    309.035    36.0755    29.3642    382.739  
   349.648    239.375    309.382    36.5742     29.684    383.086  
   913.629    180.576    512.163   -11.8725    22.4783    76.2739  
   910.168    178.366    510.657   -9.48098    25.2973    74.9425  
   909.865    178.469    510.179   -8.39963    26.6782    75.0834  
   911.285     180.79    510.768   -6.09428     28.162    76.5901  
   834.098     165.41    483.758     29.532    49.8177    134.654  
   833.465    161.376    478.777    26.9122    46.3983    129.177  
   833.348    161.732    478.228    26.2831    45.7682    129.207  
    833.87    166.308    478.766    23.4743    44.8517    133.075  
   833.873    166.304    478.767    23.4681     44.849    133.074  
    833.35    161.728    478.229    26.2766    45.7661    129.206  
   833.468    161.373    478.777    26.9055    46.3963    129.176  
   834.101    165.406    483.757    29.5246    49.8148    134.652  
   468.404    206.463    348.016    9.35929    7.57023      327.8  
   468.524    206.289    347.143    9.80981    7.18651    327.804  
    469.14    205.812    347.308    10.1117    7.45031    327.714  
   469.512    205.664    347.602    10.6379    8.26577     328.01  
   505.648    249.706    370.276   -39.6693   -47.9774    264.837  
   504.736    250.515    370.303   -39.9053   -47.8754    265.113  
   503.633    251.101    369.118   -40.4114   -48.5165    265.466  
   501.506    251.449    369.644    -41.189   -49.3706    265.425  
   677.161    244.686    439.319    96.0415    99.5841     189.95  
   672.228    243.707    434.934    94.0875    94.0261    187.651  
   671.981    244.813    431.604     93.708     93.894    188.256  
   668.791    246.411    428.511    93.8089    97.8628    187.834  
   668.784    246.406    428.473    93.5896    97.6207    187.819  
    671.97    244.809    431.599    93.4857    93.6333    188.251  
   672.216    243.699    434.928    93.8637    93.7636    187.644  
   677.138    244.675    439.348    95.8115    99.3388    189.953  
   506.682    255.055    372.338   -33.9846   -41.2407    261.519  
   509.053     254.83    371.803   -33.0374   -40.1654    261.684  
   510.105    254.245    373.084   -32.4692   -39.4566    261.323  
   511.035    253.291    373.015   -32.1895   -39.6294     260.97  
   689.349    231.838    451.661   -27.0286      1.135    175.411  
   690.523    232.231    438.921   -27.9727    6.93948    170.415  
   689.748     233.96    436.496   -27.6242    7.00921    170.742  
   691.754    235.875    423.096   -26.6904   0.763667    167.349  
    502.69    256.449    369.935     30.092    49.5039    281.499  
   504.185    256.951    370.144     29.207    48.9295    280.918  
   504.449    256.573    371.412      28.31    48.0805    280.623  
   504.721    255.154    374.666    27.2999    48.5751    281.889  
   499.604    248.931    370.373    35.4525    60.1584    291.472  
   499.001    249.322    368.054    35.7715    59.4513    289.758  
   498.493     249.77    366.769    36.4788    60.1086    290.076  
   497.261    249.623    366.916    37.1714     60.549    290.639  
   691.807    235.901    423.072   -26.5444   0.872677    167.376  
    689.77    233.975    436.508   -27.4925    7.10907    170.756  
   690.547    232.247    438.931   -27.8404    7.03854    170.431  
   689.337    231.849    451.718   -26.8907    1.22999    175.445  
   561.384    290.418    407.682    31.5526    46.2582    224.287  
   561.878    294.311    400.718    34.3025    43.3418    224.506  
   561.727    295.406    398.918    34.8217     43.906    224.901  
   561.785    292.585    390.301    37.0324    49.3582    219.857  
   553.857    288.637    399.404    2.20292    7.68594    222.184  
   554.047    292.256    396.816   0.466743    10.7176    223.646  
   553.619    293.221    395.635  0.0065985    10.1284    223.975  
   553.178    290.295    388.662   -2.47853    3.75363    218.322  
   553.534    290.572    388.488   -2.01461    4.17344    217.999  
   553.694    293.524    395.727   0.384144    10.5014    223.807  
   554.132    292.556    396.896   0.842507    11.0791    223.497  
   553.809    288.887    399.584    2.62044    8.03241    222.017  
   561.696      292.7    390.204    36.8581    49.2129    219.832  
   561.549    295.531    398.873    34.6746    43.8164    224.916  
   561.703     294.44    400.668    34.1536    43.2542     224.53  
   561.137    290.522    407.632     31.384    46.1166      224.3  
   481.079    203.876    351.363    8.66927    8.58783    320.142  
   480.806    203.939    351.245      8.263    7.75896    319.784  
    480.31    204.275    351.195    7.86928    7.42437     319.85  
   480.223    204.353    352.384    7.42098     8.0082    319.936  
   623.467    256.392    412.451    -56.631   -31.1935    188.538  
   628.022     255.51    416.632   -55.9722   -25.8035    189.207  
   628.445    254.267     419.65   -56.3163   -25.8259     188.38  
   632.592    253.857    423.134   -57.8959    -30.463    189.647  
   531.963    269.071    386.107    65.6612    85.8058    263.842  
   530.301    268.834    384.739    65.6818    84.7875    262.501  
   529.634    269.484    382.341    66.0962    85.3034    262.997  
   527.374    269.502    382.278    67.1014    86.7348    263.091  
   529.214    271.136    383.163    63.0263    83.5344    260.604  
    531.54    271.263    383.329    61.9082    81.9904    260.567  
   532.152    270.608    385.765     61.432    81.4154    260.059  
   533.774    270.659    387.323    61.2725    82.4666     261.43  
   632.663    253.874    423.148   -58.0173   -30.5819    189.607  
   628.523    254.278    419.682   -56.4358   -25.9609    188.338  
   628.096    255.518    416.664   -56.0914   -25.9372    189.165  
   623.548    256.404    412.502   -56.7481   -31.3032    188.508  
   806.447    174.328    479.251   -12.0083    24.3998    142.507  
   806.931    170.872    470.957   -10.9406    27.3238    136.623  
   806.571     171.74    469.624   -10.2674    27.8076    136.878  
   807.516    176.609    466.642    -7.4044    27.6832    141.045  
   481.715     211.31     353.46    14.6749    29.4066    319.774  
   481.809    211.266    353.041    14.7484    28.9866    319.415  
   482.157    210.919    353.436    14.4081    28.6927    319.303  
   482.436    210.463     355.23    14.4152    29.5404    320.022  
   807.513    176.609    466.642   -7.39765    27.6855    141.049  
   806.568    171.741    469.623   -10.2604    27.8096    136.882  
   806.928    170.873    470.956   -10.9338    27.3261    136.626  
   806.443    174.329    479.251   -12.0008    24.4035    142.511  
   560.824    272.481    397.375   -28.4784   -20.7413    224.081  
   558.427    274.435    396.161   -28.5678   -18.9111    224.504  
   558.195    275.379    393.577   -28.8284   -19.4427    225.064  
   553.691     274.85    391.687   -30.6474   -23.4377    223.693  
   577.392    278.034    399.992    64.3882    76.4414    223.615  
   581.369    278.664     403.06    62.5379    71.8491    225.097  
   581.234    277.512    406.475     62.335    71.3517    224.387  
   585.072    276.782    410.169    62.0894    74.9989    225.491  
   585.617    276.472    410.179    63.3634    76.1061    225.638  
   581.716    277.142    406.617    63.5479    72.4927     224.53  
    581.85    278.284    403.181    63.7401    72.9806    225.237  
   577.837    277.707    400.271    65.5636    77.4891    223.826  
   554.279    275.528    391.801   -28.7891   -21.4621    223.147  
   558.811    276.144    393.938   -26.8934    -17.249     224.65  
   559.018    275.181    396.512   -26.6308   -16.7152    224.082  
   561.436    273.134     397.85   -26.5189   -18.6763    223.622  
   483.306     233.15    359.534   -10.7235   -20.9586    295.921  
    484.38     232.96    358.394   -9.91507   -20.9337    296.127  
   485.326    232.475    358.825   -9.18038   -20.2022    295.952  
     485.6    231.881    358.407     -8.554   -19.7234    295.603  
   758.078    208.405    466.478    77.3812    82.3471     161.87  
   754.572    206.158    458.461    74.8172    75.3622     157.39  
    754.07    207.352    456.172    74.3262    74.9905    157.884  
     752.4    210.682    451.421    72.9686    78.7146    158.465  
   752.385    210.668    451.408    72.9296    78.6878    158.477  
   754.051    207.336    456.163    74.2867    74.9647    157.896  
   754.555    206.143     458.45    74.7772    75.3361    157.402  
   758.052    208.389    466.474    77.3366    82.3173    161.881  
   751.146    200.443    468.083   -26.3211      10.84    157.244  
   753.376    198.638    456.268   -25.9048    15.7749    150.531  
   752.892    200.033    454.419   -25.2912    16.1418    150.736  
   756.017     204.19    445.197   -22.3139    13.4451    151.295  
   489.868    231.543    360.343    20.9846    41.4094    302.996  
   490.448    231.599    360.228    20.7746    41.0909     302.44  
   490.763    231.264    360.916    20.0968    40.5025     302.27  
   490.943    230.199    363.678    19.7456    41.2106    303.353  
   756.005    204.191    445.191   -22.2809    13.4627    151.313  
   752.879    200.036    454.414   -25.2604    16.1564     150.75  
   753.363     198.64    456.264    -25.874    15.7902    150.544  
   751.129    200.446    468.084   -26.2862    10.8614    157.258  
   488.681    228.143    362.298     21.385    42.4435    307.258  
   488.445     229.24    359.625    21.6076     41.639    306.205  
   488.082    229.592    358.971    22.2088    42.1574    306.364  
   487.566    229.631    359.076    22.3521     42.391    306.889  
   480.871    204.968    353.384    14.2303    27.0335    324.193  
   480.463    205.528     351.66    14.1935    26.1154    323.507  
   480.125    205.849    351.358     14.395    26.2746    323.588  
   480.108    205.977    351.762    14.2636    26.6701    323.972  
   524.395    269.704    382.971   -5.96345   -4.27191    246.184  
   504.914    249.435    370.544   -40.5089   -47.7942    265.244  
   455.081    224.751    346.132   -18.8339   -32.1678    314.312  
   488.379    225.336    358.362    3.38168   -5.07741    297.152  
   518.873    262.421    377.607   -19.7446   -24.0551    254.807  
   507.196    252.079    370.007  -0.548606   -5.27312    271.178  
   481.354    237.534    358.418   -30.5174   -41.6738    290.359  
   474.701    227.421    353.334   -5.75596   -17.2955    305.958  
   517.973    261.098    378.288   -21.3758   -24.1056     255.09  
   506.827    249.347      371.1   -2.32941   -5.57387    270.446  
   480.912    237.272    358.726   -31.0906   -41.6198    290.629  
   474.764    226.543    353.687   -6.24279   -17.5103    305.745  
   498.103    246.338    366.146   -13.5721   -21.2538    279.617  
   497.683    245.162    366.704   -14.6873   -21.4405    279.609  
   525.469      273.6    382.366   -3.87194   -3.78098    247.007  
    505.19    250.182    370.366   -39.7028    -47.965    264.963  
   455.066     225.34    345.948   -18.8066   -32.3392    314.373  
   488.179    227.143    358.621    3.67878   -5.07274     298.22  
   518.203    263.715    377.931   -20.3251   -23.8243    255.404  
   507.181    252.605    371.076   -1.44396   -5.38873     271.58  
   480.721    238.272    358.502   -30.9378   -41.8715    290.667  
   474.523    227.803    353.755   -6.39363   -17.8694    306.157  
   518.537    263.224    377.918   -19.9785   -23.9238    255.156  
   507.266     252.18    370.965   -1.04792   -5.19877    271.501  
   481.046    237.969     358.52   -30.6846     -41.79    290.536  
   474.657    227.617     353.69   -6.09441   -17.5838    306.169  
   497.742    247.162    366.612   -14.1908   -21.4354    280.057  
   497.951    246.829    366.528    -13.862     -21.33    279.939  
   524.932    274.572    381.905   -4.83668   -4.11745    247.614  
   504.227    250.811    369.755   -40.1932   -48.0664    265.322  
    454.42    225.892    345.771   -19.3926   -32.8203    314.529  
   487.811    227.563    358.607    2.96187   -5.77043    298.227  
   517.316    264.268    376.573   -21.0284   -24.6866    255.731  
   506.467    253.023    370.413   -2.34948   -6.32003    271.784  
   479.693    238.892    357.793   -31.4707   -42.4667    290.939  
   473.637    228.273    353.472   -7.10028   -18.5413    306.302  
   517.793    264.016     377.33    -20.703   -24.1197    255.631  
   506.875     252.85    370.814   -1.91165   -5.77602    271.778  
   480.254    238.587    358.166   -31.2282   -42.0905    290.811  
   474.145    228.067    353.613   -6.75483   -18.1778    306.244  
   496.863    247.686    365.865   -14.9215   -22.2344    280.294  
   497.353    247.454    366.276   -14.5738   -21.7541    280.217  
   523.352    274.379    381.227   -6.11079   -6.03249    247.201  
   502.664    251.302    369.272   -40.7151   -49.0747    265.463  
   453.458    226.381    345.943   -19.9027   -33.1854    314.601  
   486.899    227.633    359.225    2.17068   -6.22918    298.308  
   514.606    264.013    377.102   -22.4125   -26.2454    255.142  
   504.618    252.455    371.962   -3.58216   -7.03408    271.217  
   478.269    239.289    358.436   -32.1376   -42.8332    290.867  
   472.868    228.468    354.688   -7.75818   -18.3293    306.169  
   516.213    264.183    376.709   -21.6018   -25.5734    255.498  
   505.683    252.802    370.967   -2.95587   -6.90872    271.655  
   478.998    239.106    358.052   -31.7434   -42.7587    290.924  
   473.193     228.32    354.013   -7.41495   -18.5888    306.315  
   495.135    247.662    366.879   -15.9409   -22.8411    279.958  
   496.094    247.668    366.282   -15.3688   -22.6799    280.203  
    521.22    272.114    383.409   -8.69578   -5.66167    247.235  
   501.986    250.824    370.311   -41.5786   -48.5885    265.716  
   453.736    226.098    346.453   -20.0964   -32.7118     314.67  
   487.657    227.127    360.284    1.50837   -5.19509    298.157  
   514.821    262.737    378.388   -23.2775   -25.1493    255.697  
    505.06    251.498    372.528   -4.58853   -6.15625    271.578  
   478.787    238.665    358.771   -32.2602   -42.2811    291.068  
   473.687    227.831    354.826   -7.79607   -17.8446    306.348  
   495.626    246.649    367.489   -16.4186   -22.0476    280.318  
   834.897    173.702    474.969    24.6233    44.4501    131.499  
   786.188    193.601    461.265    49.0305    61.6466    147.148  
   751.812    213.538    451.308    77.6397    79.0607    157.044  
   863.656    188.929    491.735    75.8478    88.0762    109.339  
   816.851    175.594    471.059    32.7824    52.1198    138.534  
   847.633    175.124     485.03    46.7776    65.1136    121.435  
    772.33    199.248    456.427    57.5621    68.4987     152.41  
   803.034    196.429    470.301    75.0839    84.2229    136.246  
   813.443    182.793    469.005    36.4263    52.7859    138.273  
   849.247     179.78     483.09    48.4538    65.0639    120.466  
     769.9    204.497    455.409    62.6613    69.1823    151.452  
   804.097    199.174    469.945    78.2652    84.6707    135.266  
   809.572    186.142    470.956    53.9094    67.7085    136.621  
   810.107    191.364    469.135    56.8405     67.888    135.465  
   833.722    163.242    478.218    25.7674    45.3173    130.526  
   792.409    183.492    464.641    45.4712    57.1739    145.864  
   754.104    208.675    453.916    73.9088    75.8364    158.498  
   861.446    185.002    492.271    74.8033    87.5794    109.883  
   815.601    171.022    473.174     35.596    51.6265    135.902  
   847.461    171.594    485.178    48.9573    65.4077    119.338  
   772.827     195.41    461.254    59.4277     65.442    151.253  
   803.866    193.359    472.409    76.6101    82.6092    135.393  
   815.863    172.608    472.372    35.2536    51.2864    137.308  
     847.7    172.898    484.916    48.2656     65.197    120.335  
    773.11    196.913    459.181    59.1559    65.7359    152.175  
   803.853    194.552    471.314    76.0742    83.0565    136.007  
       810    182.558     472.97    55.8557    66.5227    134.848  
   810.214    183.981    471.892    55.3432    66.6455    135.773  
   833.398    161.506    478.437    26.5962    46.0877    129.084  
   792.418    181.257    466.863    45.8639     57.364    144.229  
   754.284    206.732     457.24    74.5034    75.3777    157.579  
   861.584    183.813    493.121    75.9803    88.1879    109.116  
   815.875    170.378    474.086    36.1944    52.1685    135.931  
   847.716    171.213    486.217    49.6591    66.2551    119.264  
   773.463    194.317    463.071    59.9168    65.8204    150.934  
   804.273    192.609    474.392     77.335    83.3401    135.127  
   815.719     170.65    473.585     35.867    51.7887    135.817  
   847.581    171.401    485.562     49.312    65.8892    119.198  
   773.118    194.845    462.137    59.6307    65.6204    151.034  
    804.06    192.968    473.274     76.977    83.0848    135.134  
   810.413    181.854    474.444    56.4471    67.1417    134.626  
   810.192    182.199    473.617    56.1415    66.9135     134.65  
   833.756    162.669    480.451    27.5937    47.3068    130.847  
   792.895    181.813    470.596    46.8543    58.5892    145.614  
   755.149    206.692      461.8    75.5983    77.2183    158.778  
   863.437    184.405    495.376    77.6538    90.4729    110.233  
   814.945    174.064    481.929    38.1621    56.3805    142.542  
   850.842    174.383    490.001    52.7604    70.4415    123.051  
   774.918    196.838    472.455    61.6976    71.8957    156.578  
   808.422    194.844     479.21    80.2695    88.8677    138.466  
   816.136    171.499    476.473    36.8371    53.0169    137.388  
   848.681    172.254    487.819    50.6672    67.7057     120.69  
   773.686    195.115    466.481    60.6065    67.0906    152.428  
   805.477    193.273    476.594    78.3836    85.2264    136.297  
    813.14    184.777    480.473    59.0231    72.2534    139.068  
   811.081    182.767     476.87    57.3269     68.621    136.111  
   837.741    173.481    479.126    33.4158    52.5443    134.624  
   802.657    194.198    470.147    57.5599     70.163    150.789  
   762.747    212.865    461.598    82.5013    83.9426    162.301  
   868.698     188.49    494.083     80.796    92.4982    110.564  
   822.914    182.535    475.331    44.7978    61.1961    141.531  
   853.436    179.412    486.244    54.8087     70.946    122.417  
   781.366    204.546    466.983    69.0447    75.5783    157.574  
   811.701    198.447    475.432    83.2976    89.3247    138.037  
   816.603    190.672    476.108     63.112    73.8523    139.473  
   469.158    206.245    347.863    9.59166    7.49378     327.83  
   482.696    215.565    355.168    2.70152   -2.45507    310.389  
   483.983    232.427    359.746   -10.8296    -20.423    296.199  
   400.878    228.672    326.573    -29.819   -36.7266    347.387  
   473.999    209.948    351.195    5.99563    3.11038    319.968  
   436.087    217.936    337.944   -7.94377   -12.3752     337.75  
   482.224    224.704    357.517   -3.50684   -11.6467    303.127  
   447.463    230.828    345.092   -20.9971   -30.3959    319.864  
    474.75    209.788    350.821    6.02951     3.0521    319.967  
   436.695    217.616    337.893   -7.71165   -12.2824    337.814  
   483.061    224.116    357.552   -3.66232   -11.2652    303.324  
   448.061    230.319    345.199   -20.9329   -30.0493    319.989  
   458.634    220.644    347.337   -6.50914   -13.1411    320.172  
    459.34    220.154    347.371   -6.41841    -12.881      320.3  
   468.364    206.391    347.525    9.65937    7.29348    327.863  
   481.949    215.743     354.77    3.32449   -3.00006    310.623  
   483.816    233.008    358.898   -10.2729   -21.0903    296.094  
    400.53    228.768    326.299   -29.8521   -36.9916    347.468  
   474.244    209.915    350.022    6.53277    2.64837    320.042  
   436.362     217.53    337.295   -7.56154    -12.564    337.822  
   482.985      224.6    356.221   -2.78677   -11.8716    303.306  
   448.217    230.437    344.342   -20.4616   -30.4308    319.989  
   474.019    209.965    350.489    6.32633     2.7195    320.104  
   436.143    217.739    337.594   -7.71443   -12.5187    337.828  
   482.565    224.614    356.782    -3.1037   -11.9328    303.326  
   447.792    230.624     344.68   -20.7002   -30.5046    319.969  
   459.144    220.359    346.429    -5.9758   -13.3411    320.271  
   458.828    220.482    346.844   -6.20355   -13.3373    320.282  
   468.885    206.065    347.206    9.96191    7.30796    327.762  
   482.641    215.579    354.268    3.91205   -2.73383    310.536  
   484.914    232.745    358.617   -9.55881   -20.5207    296.045  
    401.25    228.085    326.193   -29.5549   -36.8106    347.409  
   474.884    209.471    350.174     6.9896    3.04374    319.942  
   437.089    216.908    337.491   -7.23745   -12.2511    337.693  
   483.766    224.136    356.503   -2.10191   -11.2242     303.16  
   449.124     229.83    344.672   -19.9314   -29.9089    319.817  
   474.621    209.711    350.079    6.75968    2.84481    320.011  
    436.77    217.228    337.375   -7.40172   -12.4089    337.755  
   483.436      224.4    356.359   -2.45115   -11.5189    303.255  
   448.718    230.145    344.504   -20.2084   -30.1461    319.906  
   459.903    219.816    346.659   -5.48283   -12.8703    320.136  
   459.576    220.106    346.533   -5.73415   -13.0939    320.206  
   469.292    205.688    347.502    10.2738    7.75516    327.859  
   483.028    215.175    354.403    4.45985    -2.1252    310.579  
   485.491    232.249    358.742   -8.86275   -19.9609    295.902  
   401.843    227.474    326.384   -29.1213   -36.4465    347.285  
   475.152    209.459     350.03    7.54117    3.78716     320.09  
   437.474    216.597    337.652   -6.68999   -11.6625    337.747  
   483.991    223.801     356.04   -1.51875    -10.677    302.956  
   449.498    229.327    344.558   -19.3502    -29.445     319.62  
   475.019    209.314    350.286    7.17824    3.36652    320.084  
   437.279    216.738    337.605   -7.01552   -11.9903    337.735  
   483.894    223.957    356.454   -1.82981   -10.9465    303.206  
    449.33    229.599    344.682   -19.6505   -29.6861    319.768  
   460.209    219.445     346.57   -4.92098   -12.2867    320.069  
   460.071    219.639    346.696   -5.23401   -12.6007    320.165  
   469.811    205.513    347.477    11.0061    8.13116    328.013  
   483.488    213.563    354.518    4.58553   -1.74594    309.798  
   485.422     230.98    358.872    -9.2025   -19.9173    295.592  
   401.906    227.463    326.483   -28.9281    -36.314    347.279  
   475.525    208.445    350.337    7.63002    3.71556    319.806  
   437.548    216.626    337.666   -6.62045   -11.7817    337.808  
   484.091    222.644    356.476    -1.9415   -10.7964    302.721  
   449.348    229.024     344.81   -19.6924   -29.5589    319.655  
   460.331    219.053    346.733    -5.0546   -12.4172    320.034  
    837.74    173.487    479.127    33.4244    52.5475    134.627  
   802.646     194.21    470.146    57.5648    70.1613    150.794  
    762.77    212.877    461.601    82.5402    83.9629    162.284  
   868.684    188.518    494.083    80.8188    92.5286    110.564  
   814.934    174.073    481.928    38.1712    56.3843    142.548  
   850.834     174.39        490    52.7765    70.4521    123.054  
   774.917    196.852    472.454    61.7248    71.9148    156.578  
   808.419     194.87     479.21    80.3087     88.904    138.466  
   822.904    182.545     475.33     44.808    61.1994    141.536  
   853.429    179.419    486.242    54.8254    70.9561    122.419  
   781.364    204.558     466.98    69.0694    75.5911    157.569  
   811.696     198.47    475.432    83.3345    89.3569    138.035  
   813.133    184.788    480.471     59.044     72.268     139.07  
   816.596    190.683    476.106    63.1326    73.8648    139.474  
   833.753    162.672    480.452    27.6007    47.3089    130.849  
   792.881    181.822    470.595    46.8575    58.5879    145.618  
   755.169    206.707     461.81    75.6393    77.2467    158.767  
   863.422    184.434    495.377    77.6755    90.5036    110.233  
   815.864    170.387    474.084    36.2025    52.1707    135.935  
   847.707    171.219    486.215    49.6739    66.2645    119.266  
   773.458     194.33    463.072    59.9407    65.8361    150.932  
   804.265    192.635    474.394    77.3716    83.3749    135.128  
   816.125    171.508    476.472    36.8455    53.0194    137.393  
   848.673     172.26    487.818    50.6825    67.7156    120.692  
   773.681    195.128    466.482    60.6308    67.1076    152.427  
    805.47    193.299    476.596     78.421    85.2625    136.298  
   810.404    181.865    474.443     56.466    67.1546    134.628  
   811.073    182.777     476.87    57.3463    68.6346    136.113  
   833.395     161.51    478.437    26.6028    46.0898    129.085  
   792.405    181.267     466.86    45.8669    57.3629    144.232  
   754.302    206.747     457.25    74.5432    75.4043    157.567  
   861.567    183.842     493.12    76.0013    88.2177    109.117  
    815.59    171.031    473.171     35.604    51.6289    135.905  
   847.452    171.601    485.176     48.972    65.4171    119.339  
   772.822    195.423    461.255    59.4512    65.4576    151.251  
   803.858    193.386     472.41    76.6463    82.6439    135.394  
   815.708    170.659    473.583     35.875    51.7911    135.821  
   847.572    171.408     485.56    49.3268    65.8987    119.199  
   773.113    194.858    462.138    59.6543    65.6365    151.032  
   804.052    192.994    473.276    77.0135    83.1195    135.134  
   809.991    182.569    472.968    55.8744    66.5356    134.849  
   810.183    182.209    473.615    56.1603    66.9265    134.651  
   833.719    163.246    478.217    25.7739    45.3195    130.527  
   792.396    183.502    464.637    45.4738    57.1729    145.867  
   754.122     208.69    453.927    73.9473    75.8636    158.487  
   861.429    185.032     492.27     74.824    87.6097    109.883  
    816.84    175.603    471.055    32.7898    52.1231    138.537  
   847.623    175.131    485.027    46.7921    65.1237    121.436  
   772.323     199.26     456.43    57.5846    68.5153    152.408  
   803.023    196.454    470.304    75.1202    84.2584    136.246  
   815.852    172.617    472.369    35.2615     51.289    137.311  
   847.691    172.905    484.914    48.2802    65.2067    120.337  
   773.105    196.926    459.181    59.1787    65.7523    152.173  
   803.844    194.578    471.316    76.1101    83.0919    136.007  
   809.562    186.153    470.954    53.9276     67.722    136.622  
   810.205    183.992     471.89    55.3616    66.6588    135.774  
   834.895    173.706    474.968    24.6303    44.4528      131.5  
   786.175    193.611     461.26    49.0325    61.6448     147.15  
   751.833    213.549    451.326    77.6748    79.0826    157.034  
   863.638    188.957    491.735    75.8699     88.107    109.339  
   813.431    182.801    469.002    36.4346    52.7891    138.276  
   849.238    179.787    483.088    48.4692    65.0738    120.467  
   769.897    204.508    455.414    62.6818    69.1957     151.45  
   804.088    199.197     469.95    78.3009    84.7046    135.266  
   810.098    191.373    469.135     56.859    67.9008    135.465  
   628.136    269.639    426.412    56.9281       66.2    207.426  
   725.426    230.781    455.863    67.2198    75.1835     178.77  
   735.856    208.721    464.259    30.2973    47.3098    164.423  
   635.872    261.584     436.58    29.9277    44.0099    195.069  
   657.532    249.537    444.177      51.49    63.8656    194.083  
    739.81    221.585    474.554    42.4208    60.3881    182.234  
   639.498    261.999    449.454     40.923    56.9172    209.771  
   671.517    252.295    439.654    62.7816     71.698    194.711  
   682.589    235.875    449.585    30.2411    45.8697    180.159  
   685.959    242.585    462.098    41.6164    59.0022    197.357  
   617.185    270.627    422.684    49.3636    56.2907    204.258  
   715.129    224.155    451.086    55.7433    60.8385    171.533  
   737.835    208.173    453.114    32.4688    47.1027    161.846  
   637.196    263.182    425.374    32.7774     43.816    194.982  
   659.905    249.894     430.88    52.4521    58.2566    189.247  
   738.138    208.754    456.579    33.2728    47.7879    163.716  
   637.355    262.295     428.82    33.3668    44.2478     195.69  
   659.965    249.585    435.095    52.8103    58.9279    189.559  
   684.057     236.47    438.166    32.6326    45.6642    178.984  
   684.295    236.316    441.733    33.3381    46.2543    180.373  
   617.068    272.179    417.291    49.3327    55.6691    204.501  
    714.74    224.776    445.725     54.961    59.7256    170.837  
   737.834    209.607    449.956    32.3691    47.1141    162.465  
   637.203    264.863     421.44    32.8847      43.99    195.684  
   659.453    251.502    428.155    52.3645    58.3032     189.54  
   737.812    208.909     451.45    32.6852    46.9374    162.056  
   637.192    263.993    423.355    33.1223    43.7005    195.336  
   659.658    250.684    429.554    52.3873    58.0454    189.355  
   684.054    238.028    434.467    32.6189    45.7486    179.665  
   684.037    237.238     436.24      32.91    45.5226    179.308  
   617.221    273.171    411.748    49.8511    56.9706    204.341  
   714.782    226.855    441.143    55.0518    60.2863    171.664  
   739.813    213.239    443.932    30.0036     47.439    165.736  
   638.246     266.11    409.748    30.8315    44.9664    194.802  
   661.399    252.999     416.26    51.0028    63.4565     186.12  
   737.655     211.38     447.17    32.9168    47.3488    162.715  
   637.388    265.287    417.641    33.7223    44.5347    194.797  
   659.715    252.176    424.276    52.7272    59.0155    189.654  
   685.404    240.549     425.22    30.2603    46.4351     180.91  
   684.045    239.082    431.014    33.3315    46.1481    179.283  
   608.581    268.951    409.837    59.2343    66.4915     200.17  
   708.039    230.192    434.586    63.5433    70.2091    167.603  
   735.081    219.161    426.531     38.473     55.375    152.972  
   637.159    259.942    398.233    41.9792    55.9293    179.099  
   651.508    251.448    420.118    62.3307    69.5396    185.434  
    683.01    239.828    409.987    40.5153    55.9037    165.679  
   493.138    226.047    359.958    8.89772    8.48059    299.706  
   517.441     270.04     377.52    8.00911    10.4687    255.605  
   493.552    224.809    358.404    8.42964     7.5473    298.049  
   516.583    267.637    377.112    5.40553    8.11895    253.961  
   505.798    250.157    369.272    7.88998    8.99986     276.45  
   505.538    248.249    368.243    6.31794    7.31583     274.72  
   493.274    225.995    360.194    8.32393    7.74046    299.115  
   518.084    271.147    378.513    6.39134    9.77044    255.649  
   493.298    225.765    360.287    8.57496    8.03432    299.199  
    518.06    270.486    378.434    6.93335    10.0072    255.369  
   506.184    250.584    369.932    6.82596    8.33496    276.149  
   506.142    250.151    369.934    7.21689    8.61185    276.076  
   492.802    226.122    360.335    7.49585    6.97004    299.126  
   517.696    271.369    378.156    5.37072    8.62837    255.737  
   493.148    226.061     360.34    7.89442    7.35152    299.164  
   517.952    271.277    378.544    5.83154    9.25447    255.861  
   505.709    250.748    369.875    5.85215    7.34153    276.195  
   506.036    250.678    370.044    6.31046    7.87494    276.272  
   492.072    225.929    362.149    6.96991      7.299     299.35  
   515.164    270.117    379.714    3.74814    6.86044    255.127  
   492.507    225.967    361.145    7.12583    7.00912    299.277  
   516.755    270.799    378.727    4.42598    7.75426     255.45  
   504.204    250.088    371.728    4.80429    6.66649    276.045  
   505.157    250.416    370.655     5.2057    6.97767    276.163  
   493.983    224.852    363.855     6.7163    8.80355    299.404  
   515.905    267.872    382.675    2.42986    9.60386    255.587  
   505.549    248.456    373.994    3.99809    8.81456    276.286  
   523.873    274.603    385.039    -7.8519   -2.95436    244.309  
   497.968     244.08    368.232   -1.39128    -5.6265    281.667  
   496.024    234.069    365.463    6.62265    7.23172    291.072  
   516.262    271.441    380.338    4.45659    8.18536    253.793  
   512.265    262.762    376.838   -4.04058   -5.31265    260.237  
    497.93    232.933    367.396    6.08954    8.98862    291.149  
   516.901    269.036    383.514    3.08139    11.0601    254.271  
   512.414    261.611    377.677   -5.40855   -4.29692    260.692  
   506.654     254.46    373.544    5.15606    7.69064    271.486  
   508.008    252.722    376.169     4.2244    10.0903    271.761  
    526.41    277.235    382.736   -4.92306   -3.10452    244.356  
   497.812    244.974    366.805  -0.233965   -6.78802     281.87  
   497.043    234.456    363.532    7.25049    7.14771    290.941  
   518.814    272.776    378.839    6.13444    10.1129    254.467  
   514.552    263.653    375.401   -2.54386   -4.07927    261.081  
   496.642    234.242    364.376    6.79514    7.06232    291.061  
   517.881    272.167    379.376    5.15988    9.19987    254.146  
   513.631    263.314    375.852   -3.27478    -4.9237    260.844  
   508.321    255.266     371.71    6.29823    8.59534    271.697  
    507.73    254.882    372.473    5.58968    8.15576    271.626  
   527.923    277.503    383.581   -3.60998   -1.07804    244.878  
   498.979    245.044    366.292   0.779072   -5.93675    281.874  
    497.52    234.314    363.435     8.1541    8.01876    290.915  
   519.158    272.557    379.163    7.14011    11.2485    254.383  
   515.217    263.226     376.26   -1.60423   -3.08722    260.855  
   497.391     234.39    363.582    7.68152    7.58965     290.99  
   519.044    272.683    379.219    6.58414     10.729    254.598  
   514.924    263.475    375.931    -2.0918   -3.49098    261.097  
   508.778    255.112    371.781    7.29349    9.63058    271.655  
   508.636    255.199    371.905    6.76383      9.154    271.789  
   528.433    276.456    384.087   -2.63377  -0.774183      244.2  
   499.333    244.523    366.302    1.64002   -5.21545    281.754  
   497.236     234.33    363.028    8.84232    8.70603    291.463  
   518.497    271.376    378.174    8.86768    12.0096    254.325  
   515.214    262.533    375.033  -0.514521   -3.14104    260.333  
    497.51    234.014    363.488    8.44991    8.30444    290.958  
   519.127    271.863    379.089    7.69686    11.4906    254.069  
   515.302    262.687     376.15   -1.15332    -2.9383    260.706  
   508.322    254.575    371.097    8.47205    10.3245    271.932  
    508.71    254.624    371.774    7.71647    9.91028    271.539  
   527.268    272.123    384.805   -4.87932   -1.34734    243.301  
   499.082    242.065     366.12   0.719819   -5.57085    280.411  
   497.524    232.634    361.543    8.04753    7.57891    289.615  
   517.496    268.885    377.647    6.14635     9.4506    252.607  
   514.598    259.218    376.484   -2.87111   -3.49424    259.507  
   507.917    252.515    369.947    6.70199    8.40076    270.116  
    608.53    268.943    409.813    59.2247    66.4948    200.161  
   708.051    230.188    434.595    63.5463     70.209    167.598  
   739.827    213.231    443.937    30.0038    47.4382    165.731  
   638.201    266.131     409.75    30.8377    44.9647    194.819  
   661.444    252.982    416.275    51.0075    63.4536    186.105  
   735.097    219.153    426.537    38.4747    55.3774    152.968  
   637.129     259.95    398.246    41.9812    55.9158    179.117  
   651.546    251.432    420.134     62.339    69.5448    185.423  
   685.412    240.545    425.228    30.2632    46.4337    180.908  
   683.026    239.817    409.997    40.5194    55.9034    165.674  
   617.176    273.182    411.733    49.8181    56.9473    204.346  
   714.792    226.852    441.148    55.0529    60.2861     171.66  
    737.85    209.597     449.96    32.3684    47.1145    162.461  
   637.164    264.883    421.427    32.8828    43.9871    195.702  
    659.49    251.485    428.164    52.3667    58.3094    189.529  
    737.67     211.37    447.174     32.916    47.3489    162.711  
   637.347    265.307    417.629    33.7187    44.5348    194.813  
    659.75    252.159    424.289      52.73    59.0194    189.643  
   684.065    238.021    434.468     32.619    45.7489    179.663  
   684.055    239.075    431.017    33.3309    46.1489    179.281  
   617.024     272.19    417.276    49.2987    55.6496    204.506  
   714.751    224.773    445.729    54.9619    59.7253    170.833  
    737.85    208.163    453.118    32.4675    47.1031    161.841  
   637.156    263.202    425.363    32.7736    43.8129    194.998  
   659.941    249.878    430.892    52.4543    58.2629    189.237  
   737.827      208.9    451.454    32.6844    46.9377    162.052  
   637.152    264.014    423.343    33.1192    43.6984    195.353  
   659.695    250.668    429.564    52.3899    58.0499    189.344  
   684.067    236.463     438.17    32.6317    45.6642    178.981  
   684.047    237.231    436.242    32.9097    45.5229    179.305  
   617.142    270.638    422.665    49.3303    56.2682    204.262  
   715.141    224.153    451.087    55.7441    60.8389    171.529  
   735.874     208.71     464.26    30.2968    47.3082    164.414  
   635.833    261.607    436.552    29.9323    44.0107    195.082  
   657.562    249.519    444.182    51.4881    63.8611    194.068  
   738.154    208.745    456.581     33.272    47.7887    163.712  
   637.317    262.316    428.808    33.3626    44.2469    195.708  
   660.004     249.57    435.102    52.8135    58.9329    189.547  
   682.603    235.871    449.581     30.243    45.8681    180.152  
   684.306     236.31    441.734    33.3377    46.2558    180.371  
   628.102     269.64    426.408    56.9067    66.2052    207.431  
   725.432    230.771     455.86     67.214    75.1815    178.757  
    739.82    221.569    474.554     42.416    60.3893    182.226  
   639.456    262.009     449.42    40.9003    56.8985    209.769  
   671.548    252.278    439.659    62.7809    71.7033    194.696  
    685.96    242.568     462.09    41.6099         59    197.345  
   574.651    230.155    393.009   -113.936   -100.216    216.328  
   558.406    262.899    394.146   -55.3152    -45.994        222  
   622.611    255.773    415.452   -59.6274   -30.5168    188.206  
   694.006    213.766    434.375   -112.427    -80.976    152.986  
   568.366    247.689    393.421   -81.6572    -72.218    220.298  
   637.536    222.627    414.634   -112.619   -91.1376    184.394  
    592.97     261.26     403.57   -54.2416   -38.1529    204.742  
   654.537    237.047    422.212   -80.9865   -52.9118    173.735  
    568.79    247.419    394.621   -82.7326   -71.3452      220.5  
    638.44    223.076    415.505   -113.858   -90.6613    184.396  
   592.343    260.554    405.863   -56.5107   -37.2939    204.824  
   654.543    237.257    423.996   -83.3085   -52.4405    173.597  
   615.651    242.941    409.589   -81.7314   -62.2539    195.972  
   615.889    242.876    411.096   -83.4128   -61.5436    196.016  
   575.279    229.691    392.198    -112.99   -100.328    216.168  
   560.573    263.577    392.603    -53.283   -45.7063    221.945  
   626.962    256.079    414.493   -55.9799   -27.7847    189.106  
   694.541    212.331    433.674   -111.132    -80.414    152.951  
   571.364     247.19    393.805   -81.2113   -70.3109    220.339  
   640.139     221.71    415.083   -113.002   -89.6558    184.042  
   596.954    260.668    405.825    -53.519   -34.1769    205.318  
    658.02    235.906    424.384   -81.0979   -49.5473    173.809  
   570.145    247.491    393.453   -81.2889    -71.293     220.39  
   639.036    222.137    414.714   -112.724   -90.4222     184.29  
   595.651    261.063    404.546   -53.6623   -35.8231    205.243  
   656.894    236.499    423.178    -80.908   -50.9117    173.957  
   618.932    242.114    410.784   -81.5653      -59.6    196.023  
   617.735    242.557    410.027    -81.499   -60.7931    196.124  
   576.958    229.103    393.248   -113.287   -99.4558    215.775  
    562.39    262.938    394.429   -53.0243    -43.991     221.79  
   628.212    254.867    418.138   -56.1671   -25.9442    188.815  
   696.272    211.544    435.261   -111.991   -79.6275    152.374  
   572.436    246.533    395.866   -81.3044   -70.0758    219.834  
   641.397     221.22    417.068   -113.552    -89.833    183.631  
    597.56    259.671    408.636   -53.6386   -33.9891    204.625  
   658.812    235.026    427.144   -81.6693   -49.7705     173.18  
   571.901    246.852    394.869   -81.3036   -70.0137    220.105  
   640.761    221.454     416.06   -113.316   -89.5733      183.8  
   597.238     260.16    407.264   -53.6228   -34.0018    205.001  
   658.389    235.447    425.737   -81.4188    -49.579    173.473  
   619.872    241.362    413.255   -81.9105   -59.6017    195.453  
   619.389    241.725    412.026   -81.7795   -59.4627    195.734  
   578.471    228.888    394.387   -113.636   -100.129    215.633  
   563.738    262.149    396.075   -52.9878   -44.7434    221.319  
   629.512     253.93    421.571   -56.7794   -27.5644     188.66  
   698.401    211.632    437.139   -113.135   -81.2136    152.546  
    574.58    246.151      396.4   -81.8442   -71.2695    219.939  
    644.24    221.856    417.837   -114.928   -91.5114    184.142  
   600.655    258.935    410.593   -54.5148   -36.8294    205.161  
   662.584    235.257     429.25   -83.3453   -53.1289    174.222  
   573.349    246.329    396.258   -81.4567   -70.7248    219.792  
   642.597    221.395    417.584    -114.08   -90.7154    183.809  
   598.593    259.308     409.75   -53.9169   -35.2006    204.672  
   660.103    234.999    428.358   -82.2796   -51.2141    173.461  
   622.863    241.269    414.494   -83.0385   -61.8512    195.985  
   620.998    241.246    414.024   -82.3076   -60.6553    195.565  
   578.706    229.599    394.064   -114.655    -100.01    216.121  
   564.022    261.472    395.953   -54.7243   -44.8837    222.016  
    632.38    254.447    421.194   -60.5491   -29.3262    190.163  
   700.029    213.394    436.346   -115.037   -81.7331    153.103  
   573.608    246.344    395.992    -82.812   -70.7149    220.378  
   643.526    222.629    417.039   -115.543   -90.9058    184.348  
   600.065    259.064    409.486   -56.6819   -36.2197    205.728  
   662.239    236.217    427.642   -85.1183   -52.3806    174.479  
   622.165    241.794    413.515   -84.3643   -61.1872    196.335  
   620.086    238.846    411.353    143.413    154.098     231.08  
   594.704    267.393    408.483    92.8526    101.239    227.885  
   531.329    269.824    385.047    66.8808    85.4981    264.435  
   510.309     246.71     371.57    122.082    132.454    294.586  
   610.124    253.552     412.45    115.751     127.16    229.791  
   566.446    242.882    392.762    131.777    144.519    264.877  
   562.418    268.307    397.823    77.7213    93.7693    246.871  
   524.381    260.661    380.945     91.388    108.553    279.019  
    609.85    254.327    411.031    116.921    126.472    230.048  
   566.009    243.742     391.98    132.414    143.969    265.053  
   561.971    268.974    396.446    79.1455    93.2895    247.402  
   523.802     261.49    380.073    92.3003    108.134    279.428  
   567.111    257.745    396.723    103.551    118.322    255.985  
   566.664    258.519    395.627    104.562     117.78    256.323  
   618.683    237.071    412.057    141.823    153.913    230.358  
     592.6     266.48    409.441    90.7395    100.376    226.648  
   530.958    268.753     385.52    65.5497    85.3238    262.891  
   510.015    245.186     371.99    121.118    132.627    293.822  
   606.854    252.745    411.106    114.699    124.851    228.675  
   564.274    241.781    392.054    130.836    143.331    263.929  
    559.92    268.093    396.224    77.4477    91.9509     245.65  
   522.851    260.132    380.028    91.1176    107.711    277.911  
   608.099    252.958    411.951    115.072    125.975    229.075  
   565.213    242.129    392.528    131.183    143.985    264.325  
   560.836    268.036    397.154    77.4674    92.8195    246.009  
   523.503    260.217     380.59    91.1461    108.165     278.28  
    564.79    257.116    395.666    102.927     116.82    254.907  
   565.716     257.25    396.334    103.115    117.582    255.281  
    616.85    236.772    410.304    141.089    152.638    229.965  
   591.132    266.888    406.628    90.5435    99.0395     226.57  
   530.006    269.187    383.562    65.9283    84.8789    262.812  
   508.808    245.161    370.804    120.934    132.143    293.521  
   606.015    253.338    408.343     114.43    124.803     229.07  
   563.144    242.194    390.224    130.583    143.246    264.137  
    559.33    268.822    393.403     77.629    92.3086     246.18  
    521.94    260.691    378.039    91.2922    107.996    278.273  
   606.436    253.035    409.676    114.602    124.656    228.846  
   563.711    241.986    391.094    130.741    143.128    263.991  
   559.651    268.473    394.816    77.5785    91.9694    245.944  
   522.416    260.427    379.024    91.2393      107.7    278.104  
   563.902    257.694    393.294    102.884    116.948    255.288  
   564.358     257.41    394.453    102.941    116.718     255.09  
   615.509    237.355    409.072    140.746    153.295    230.324  
   589.795    267.625    404.227    90.6928    100.568    226.867  
     528.7    269.612    382.128    66.4571    86.1202    263.122  
   507.671    245.725    370.081    120.934    132.629    293.852  
   603.647    254.112    407.748    114.897    126.662    229.079  
   561.709    243.002    390.286    130.774    143.985    264.426  
    556.71    269.076    392.833     78.586    94.3516    246.074  
   520.263    261.074    378.127    91.9248      108.9    278.464  
   605.099    253.737     407.88    114.496    125.735    229.196  
   562.472    242.566     390.14    130.575    143.698    264.341  
   558.337    269.049     392.93    77.9293    93.3555    246.246  
   521.198    260.931    377.952    91.5021    108.549    278.425  
   561.907    258.278    393.099    103.439    118.301    255.401  
    563.08    258.016    393.046    103.025    117.682    255.429  
   615.708     238.63    409.832    142.181    153.412    230.572  
   588.451    267.816    405.363    93.1061    101.212    226.782  
   527.791    269.798    383.188    67.8955    85.8178    263.466  
   507.772    246.675     370.68    121.811    132.309    294.141  
    604.56    254.544    408.805    116.375    126.078    229.299  
   562.622    243.657    390.826    131.707    143.578    264.613  
   557.217    269.172    394.076    79.8239    93.5082    246.404  
   520.829    261.469    378.778    92.6658     108.24     278.75  
   562.632    258.657    393.939    104.512    117.673    255.654  
   617.294    238.732    410.452     141.58    153.351    229.377  
   588.575    268.091    405.442    92.4631    100.105     226.49  
   529.572    271.332    384.212    63.8676    82.6053    260.989  
   511.331    243.572     371.38    126.519    136.674    294.042  
   605.013    254.321    408.271    114.423     126.12    228.199  
   563.783    241.578    390.792    133.267    146.174    263.806  
   557.179    270.129    393.092    75.9861    91.4455    244.269  
   523.875    261.177    379.481    90.6485    108.223     275.71  
   605.922    254.742    409.347    115.928    125.535    228.417  
   564.711    242.258    391.324    134.203     145.78    263.984  
   557.639    270.151     394.43    77.2786    90.5757    244.613  
   524.441    261.569    380.159    91.4076    107.554    275.992  
   563.018    258.761     393.58    102.608    117.539    254.327  
   563.735    259.125     394.45    103.695    116.901    254.583  
   617.091    237.447     409.69    140.144    153.231    229.129  
    589.98     267.94    404.306    89.9904    99.4101      226.6  
   530.595    271.353    383.055    62.3131    82.8586    260.663  
   511.159    242.559    370.797    125.654    136.977    293.762  
   607.402    253.546    408.901     113.95    124.217    228.204  
   565.203    240.751    390.726    133.099    145.454    263.505  
   559.898     269.95    393.775    74.9523    89.2513     244.44  
   525.587    260.818    379.418    90.0011    107.274    275.516  
   606.484    253.947    408.419    114.017    125.164    228.326  
   564.535    241.129    390.645     133.08    145.897    263.715  
   558.886    270.154    393.241    75.2815    90.3581    244.482  
   524.837    261.052     379.31    90.2174    107.848    275.667  
   565.049    258.194    393.807     102.03    116.137    254.231  
   564.219    258.511    393.539    102.179    116.891    254.366  
   618.434    236.866     410.93    140.488    152.572    228.768  
   591.308    267.196    406.756    89.8325    97.8596    226.309  
   531.886    270.963    384.584    61.7078    81.5402    260.387  
   512.296    241.987    371.486    125.702     136.53    293.426  
    608.23    252.945    411.689    114.221    124.266    227.804  
   566.348    240.348    392.539    133.371    145.554    263.307  
   560.438    269.194    396.662    74.7462    88.8622    243.892  
   526.481    260.262    381.444    89.8165    106.979    275.148  
   607.817    253.239    410.247    114.123    124.072    227.977  
   565.777    240.548    391.587    133.266    145.343    263.361  
   560.195    269.588    395.226    74.8896    88.9014      244.2  
   526.057    260.555    380.424    89.9428    106.973    275.347  
   565.923    257.611    396.214    102.066    116.001    253.843  
   565.498    257.907    394.984    102.084    115.903    254.031  
   620.275    237.172    412.694    141.225    153.857    229.163  
   592.763    266.768    409.614    90.0241    99.2058    226.382  
   532.776    270.446    386.626    61.2413    81.9375    260.421  
   513.542     242.05    372.635    125.944    137.044     293.75  
   611.535    253.742    413.068    115.279    126.624    228.925  
   568.542    241.489    393.243    134.343    146.748     264.26  
   562.981    269.315    398.382    74.9606    90.7641    245.116  
   528.033    260.758    382.419     90.071    107.856    276.274  
   609.482    253.153    412.553    114.595    125.407    228.204  
     567.3    240.714     393.01    133.732    146.213     263.71  
   561.353    269.099    397.647    74.7395    89.7548     244.24  
   527.139    260.331    382.032    89.8381    107.448    275.519  
    568.27    258.215    397.308    102.671    117.533    254.926  
   566.854    257.734      396.9    102.246    116.774    254.215  
   621.696    238.956    411.982    142.825    154.047    229.889  
   594.928    267.654    408.658    92.1824    100.127    227.625  
   533.119    271.422    386.201    62.6069    82.1491    262.076  
   513.863    243.633    372.232    126.906    136.879    294.463  
   611.281    254.511    411.623    116.473    125.934     229.18  
   568.106    242.361    392.469     134.96    146.198    264.421  
   562.545    269.938    396.965    76.4701    90.2921    245.678  
   527.464    261.585    381.521    91.0164    107.444    276.714  
   567.828    258.979    396.191    103.708     116.99    255.275  
   580.026    227.992     394.22   -116.603   -102.279    216.069  
   563.937    260.616    395.671   -56.6563   -47.4034     222.22  
   632.445    254.471    421.213   -60.6569   -29.4389    190.117  
   700.516     213.15    436.478   -115.208   -82.2103    152.904  
   574.535    244.854    396.071   -83.8648   -73.4595    220.121  
   645.377    220.792    418.032   -116.072   -92.7434    183.753  
   600.777    258.534    410.499   -55.5415   -37.9262    205.158  
   662.732    235.146    429.266   -83.5034   -53.3515    174.134  
   573.563    245.071    395.674   -84.7848   -72.9116    220.552  
   644.663    221.569    417.243   -116.673   -92.1417    183.953  
   600.179    258.686    409.403   -57.6583   -37.3142    205.716  
   662.379     236.11    427.664   -85.2646   -52.6014    174.389  
    623.12    240.535    414.407   -84.1319   -62.8805    195.844  
   622.419    241.071    413.438   -85.4293   -62.2192    196.187  
   579.804    227.254    394.533   -115.609   -102.405    215.592  
   563.694    261.202    395.814   -55.0041   -47.3172    221.537  
   629.593    253.943    421.594   -56.9004   -27.6952    188.619  
   698.901    211.389    437.264   -113.318   -81.6984    152.352  
   572.426    245.193    395.568   -83.3251   -72.3179    220.013  
   642.544    220.138    417.266   -114.697   -91.0806     183.24  
   597.699     259.24    408.598   -54.6573    -35.132    204.628  
   658.964     234.91    427.174   -81.8271   -50.0064    173.095  
   573.333    245.006    395.943   -83.4797   -72.9475    219.977  
   643.743     220.32    417.778   -115.225    -91.957    183.421  
   598.734    258.889    409.685   -54.9404   -36.3302    204.677  
   660.255    234.886    428.382    -82.437   -51.4464    173.376  
   620.144    240.606    413.194        -83    -60.659    195.314  
   621.268      240.5     413.95      -83.4   -61.7037    195.428  
   578.289    227.454    393.413   -115.257   -101.743    215.721  
   562.331    261.955     394.22    -55.032   -46.5827    221.993  
   628.288    254.876    418.169   -56.2867   -26.0754    188.774  
    696.77    211.295    435.397   -112.175   -80.1163    152.178  
   571.332    245.835    393.546   -83.2258   -72.5473    220.508  
   641.276    220.618    415.302   -114.142   -90.8993    183.644  
   597.074    260.225    405.801   -54.5323   -35.3139    205.317  
   658.168    235.786    424.419   -81.2559   -49.7823    173.722  
   571.881    245.505    394.589   -83.3209   -72.2521    220.277  
   641.903    220.367    416.268   -114.458   -90.8191    183.404  
   597.368    259.724    407.232   -54.6388   -35.1371    204.999  
   658.539    235.329     425.77   -81.5767   -49.8137    173.387  
   619.192    241.349    410.741     -82.65   -60.6525    195.878  
   619.655    240.965    411.973   -82.8665   -60.5164     195.59  
   576.613    228.033    392.386   -114.954   -102.593    216.115  
   560.506    262.588     392.47   -55.2679   -48.2462    222.168  
   627.033    256.086    414.534   -56.0985   -27.9127    189.065  
   695.038    212.075    433.821   -111.318   -80.8973    152.753  
   568.393    246.343    393.211   -83.6396   -74.3676    220.497  
   638.698    221.533    414.861   -113.752   -92.3541    184.003  
   593.134    260.829    403.627    -55.226   -39.2094    204.775  
    654.69    236.925    422.262   -81.1455   -53.1326    173.654  
   570.125    246.136     393.22   -83.2923   -73.4959    220.571  
    640.18    221.042    414.939   -113.862   -91.6541    183.894  
   595.777    260.625     404.56   -54.6642   -36.9332    205.254  
   657.042    236.378     423.22   -81.0664   -51.1425    173.871  
    615.94     242.18    409.581   -82.7996   -63.2597    195.844  
       618    241.792    410.001   -82.5777   -61.8286    195.985  
   576.021     228.52    393.178   -115.878   -102.472    216.275  
   558.491    262.001    393.986   -57.1851   -48.4493    222.251  
   622.708    255.773    415.496   -59.7326   -30.6339    188.168  
   694.518    213.509    434.521   -112.605    -81.452     152.79  
   568.851    246.112    394.364   -84.6753   -73.5071    220.692  
   639.609    221.993     415.72   -114.981    -91.887    184.002  
    592.55    260.155    405.867   -57.4534    -38.354    204.851  
   654.706    237.137    424.041   -83.4543   -52.6604    173.516  
   616.199    242.131     411.06   -84.4593   -62.5559    195.883  
   616.217    183.313    398.571   -159.029   -137.211    207.734  
   763.577    174.255    452.446   -113.043   -105.189    125.563  
   617.077    183.673    399.202   -159.767   -136.725    207.645  
   764.766    175.288    453.257   -114.449   -105.072    125.471  
   694.103     177.15    426.766   -137.029   -122.536    166.246  
    695.14    177.861    427.508    -138.09    -122.21    166.162  
   618.336    182.469     398.88   -159.219   -136.349    207.358  
   765.846    173.439    453.121   -113.586   -103.955     125.14  
   617.341    182.856     398.64   -159.057   -136.858    207.608  
    764.87    173.756    452.697   -113.247    -104.58    125.427  
   696.357    176.303    427.262   -137.385   -121.461    165.824  
   695.341     176.66    426.924   -137.139   -122.046    166.103  
   619.922    182.024    400.147   -159.617   -136.312    207.091  
   767.323    173.424    454.742    -114.32   -104.498    125.051  
   619.131    182.245    399.515   -159.447   -136.183    207.166  
   766.547    173.425    453.892   -113.976   -104.053    125.009  
   697.929    176.077    428.733   -137.943   -121.701    165.645  
   697.125    176.187     427.98    -137.69   -121.416     165.66  
    621.93    182.399    400.725   -160.367   -137.125     207.46  
   770.946    174.778     456.05   -116.153   -106.747    125.981  
   620.867    182.099    400.491   -159.911   -136.793    207.268  
    768.86    173.907    455.452   -115.052   -105.655    125.488  
   700.756    176.944     429.67   -139.226   -123.211    166.306  
   699.182    176.357    429.258   -138.453   -122.516    165.959  
   621.076    183.109    400.375   -160.686   -136.673    207.522  
    770.37    175.737    455.303   -116.734   -106.076    125.854  
   700.001     177.79    429.128   -139.669   -122.643    166.281  
     651.2    197.546    414.769    178.792    190.695    237.119  
   492.996    227.573     361.07    187.446    166.662    322.011  
   652.431    198.472    415.447    179.846    190.469    237.203  
   493.802    228.114    361.479    188.069    166.398    322.055  
   573.964    211.634    388.442    185.773    180.509    280.981  
   574.975    212.345    388.981    186.587    180.256    281.039  
   652.689    196.513    414.934    178.765    189.978    236.802  
   493.856    226.654    360.975    187.438    166.426     321.77  
   651.966    196.949    414.755    178.682    190.409    237.033  
   493.385    227.085    360.954    187.375    166.617    321.949  
   575.135    210.632    388.461    185.759    180.046    280.692  
   574.535    211.078    388.368    185.685    180.353    280.903  
   654.192    196.317    416.497    179.279    190.287    236.825  
   495.099    226.126    361.981    187.813    166.429     321.68  
   653.423    196.405    415.673    179.039    189.963     236.72  
    494.48     226.39    361.456    187.643    166.329    321.661  
   576.531     210.25    389.739    186.204    180.189    280.651  
   575.826    210.436    389.069    185.999    179.983    280.591  
    657.05    197.714    417.524    180.618    191.847    237.931  
    496.53    226.982    362.588     188.54    166.988     322.52  
   655.453    196.806    417.073     179.82    191.134    237.365  
    495.78    226.368    362.323    188.108    166.753    322.072  
   578.628    211.337    390.528    187.206    181.207    281.608  
   577.487    210.598    390.184    186.611    180.756    281.112  
   656.585    198.692    416.936    181.109    191.242    237.823  
   496.133    227.883    362.274    188.802    166.653    322.504  
    578.18    212.276    390.093    187.562    180.742    281.546  
   656.779      197.7    417.417    180.919    191.974    238.166  
   496.245    229.288    362.983     183.58     164.09     321.33  
   656.313    198.676     416.83    181.408    191.367    238.057  
   495.839    230.184    362.644    183.865    163.748    321.339  
   576.625    212.977    390.118    184.805    179.527    282.074  
   576.176     213.91    389.675    185.168    179.061    282.025  
   653.921    196.308    416.391    179.582    190.416    237.062  
   494.824    228.431    362.381    182.876    163.531    320.486  
   655.182    196.795    416.967    180.123    191.262    237.601  
   495.499    228.673    362.725    183.158    163.856    320.876  
   574.546    211.901    389.339    183.821    178.519    281.123  
   575.493    212.245    389.782    184.219    179.081    281.579  
   652.416    196.507    414.829    179.068    190.107     237.04  
   493.597    228.958    361.336    182.526    163.537    320.587  
   653.151    196.397    415.568    179.342    190.092    236.957  
   494.214    228.695    361.836     182.72    163.434    320.477  
   573.159    212.287    388.046    183.389    178.383    281.171  
   573.847     212.09    388.662    183.623    178.317     281.07  
   650.926    197.542    414.664    179.095    190.824    237.356  
   492.715    229.861    361.441    182.558    163.785     320.83  
   651.692    196.944     414.65    178.985    190.539     237.27  
   493.119    229.382    361.318    182.474    163.736    320.767  
   571.984    213.281    388.034    183.411    178.849    281.459  
   572.559    212.731    387.956    183.319    178.692    281.381  
   652.157    198.464    415.342    180.147    190.597     237.44  
   493.504    230.405    361.846    183.181    163.506    320.888  
   572.986    213.983     388.57    184.219    178.588    281.523  
   622.347    180.848    400.553   -161.909   -138.488    207.679  
   771.178    174.528     456.08   -116.263   -107.067    125.918  
   621.493    181.563    400.209   -162.217   -138.041    207.732  
   770.599    175.484    455.338   -116.841   -106.397    125.791  
   701.578    175.974    429.774   -139.898   -123.899    165.969  
   700.822    176.822    429.238   -140.335   -123.333    165.939  
    620.35    180.468    399.972   -161.164   -137.689    207.306  
   767.561     173.17    454.774   -114.433   -104.825    124.989  
   621.292    180.544    400.315   -161.456   -138.163    207.487  
   769.097    173.655    455.482   -115.165   -105.979    125.426  
   698.754    175.099    428.834   -138.616   -122.394    165.304  
   700.007    175.383    429.359   -139.126   -123.207    165.622  
   618.754    180.909    398.725   -160.765   -137.728    207.567  
   766.081     173.18    453.159   -113.701   -104.283    125.075  
   619.555    180.688    399.351   -160.993   -137.563    207.377  
   766.784    173.169    453.927   -114.091    -104.38    124.945  
   697.177     175.32    427.375   -138.057   -122.153    165.479  
   697.948    175.207    428.087   -138.362   -122.109    165.316  
   616.649    181.755    398.414   -160.572   -138.572    207.948  
   763.815    173.991    452.485   -113.162   -105.513    125.498  
   617.762    181.296    398.486   -160.603   -138.229     207.82  
   765.106    173.495    452.736   -113.364   -104.907    125.362  
   694.931    176.165    426.878     -137.7   -123.219    165.903  
   696.163    175.675    427.038   -137.811   -122.733     165.76  
   617.514    182.122    399.038   -161.301   -138.091    207.853  
   765.005    175.025    453.295   -114.564   -105.395    125.407  
    695.97    176.882    427.617   -138.757   -122.897    165.817  
   821.117    163.112    476.321    14.7149    41.6197    139.532  
   774.178    192.031    456.125    25.6545    45.9396    155.402  
   818.327    178.806    469.362    13.9105     39.786    141.704  
   770.765    200.772    439.111    32.6743    51.8848     144.72  
   803.094    176.584    468.429    20.0494    44.2695    146.763  
   800.267    189.748    456.269    22.6026    45.9158    142.822  
   820.519    159.516    473.204    15.9133    41.8365    134.775  
   772.543    187.676    459.309     28.292    46.2834    150.843  
   820.498    161.522    473.543    15.6804    41.4885    136.385  
   772.324    189.634     457.24    28.7321    46.3167    151.451  
    802.23    172.713    468.296    21.6761    44.3842     142.04  
   802.111    174.757    467.496    21.7753    44.2102    143.161  
    820.57    159.373     473.55    16.2684    42.0906    134.783  
   772.538    186.492     461.89     28.508    46.3663    150.336  
   820.487    159.495    473.278    16.1104    41.9404    134.609  
   772.478    187.122    460.383    28.6434    46.1912    150.441  
   802.292    172.065    469.778    21.9401    44.5294    141.785  
   802.202    172.451    468.891    21.9389    44.3722    141.735  
   821.001    162.714    479.039    16.8702    43.1096    140.096  
   771.333    188.085    472.047    27.3633    46.2682      153.7  
   820.562    161.208     474.65    16.6242    42.6076    136.569  
   772.747    187.536    464.655    29.2362    47.0478    152.386  
   802.214    174.405      477.8    21.4479    44.9282    145.947  
   802.346    173.603    471.702     22.486     45.121     143.75  
   820.046        179    473.543    21.3219    46.7857    144.742  
   772.471    202.493    478.896    37.1685    58.0655    169.683  
   801.282    190.801    478.046    28.8791    52.5449    157.081  
   483.739    203.234    353.261     9.2841    13.7757    321.625  
   491.973    221.044    360.934     7.5864    8.76736    303.839  
   484.879    202.967    353.106     9.4078    13.9113    321.644  
   493.674    219.978    362.399     7.4697    10.0926    303.829  
   487.363    209.555    356.352    8.12179    11.5222     314.38  
   488.829    208.931    357.019      8.122    12.2403    314.391  
   483.711    203.228     352.27     9.5101    13.1354    321.396  
   492.516    221.217     359.25    8.13767    8.41301    303.625  
   483.657    203.243    352.662     9.4362    13.3119    321.524  
   492.295    221.079    359.983    7.80479    8.47625    303.759  
   487.605    209.632    355.055    8.47916    10.9849    314.145  
   487.486     209.58    355.615    8.29086    11.1179    314.287  
   484.016    202.997    352.341    9.66045     13.262    321.348  
   492.938    221.087    359.113    8.87201     9.0852     303.62  
   483.931    203.124    352.295    9.58992    13.1752    321.377  
   492.824    221.149    359.237    8.49137    8.74034    303.659  
   487.949    209.454     355.01    8.90564    11.3664     314.12  
   487.858    209.548    355.053    8.69019    11.1564    314.152  
   484.269    202.871    353.009    9.78824    14.0476    321.732  
   492.942    221.166    358.995    9.42394    9.85724    304.208  
   484.125    202.894    352.646    9.73873    13.5558    321.526  
   492.984    220.862    359.229    9.09312    9.37742    303.704  
   488.091    209.415    355.275    9.17955    12.1162    314.587  
   488.029    209.305     355.22    9.05232    11.6571    314.256  
   485.113    202.594    352.651      10.55    14.4677    321.861  
   493.293    219.959    357.513    9.07539    9.06756    302.669  
   488.721    208.773    354.332      9.495    12.0483    313.923  
   820.999    162.715    479.039    16.8724    43.1104    140.097  
   771.327     188.09    472.049    27.3628    46.2671    153.703  
   820.044    179.002    473.543    21.3249    46.7869    144.743  
   772.465    202.501    478.896    37.1708    58.0664    169.685  
   802.209    174.408    477.801    21.4501    44.9291     145.95  
   801.278    190.806    478.046    28.8825    52.5462    157.084  
   820.568    159.375    473.549    16.2705    42.0912    134.784  
   772.533    186.496    461.889    28.5082    46.3659    150.337  
    820.56     161.21     474.65    16.6265    42.6082     136.57  
   772.741     187.54    464.654    29.2364    47.0472    152.387  
   802.286    172.069    469.777    21.9423    44.5303    141.787  
    802.34    173.606    471.702    22.4882    45.1217    143.752  
   820.517    159.517    473.203    15.9151    41.8373    134.775  
   772.538     187.68    459.307    28.2918    46.2833    150.843  
   820.486    159.496    473.278    16.1124    41.9411     134.61  
   772.472    187.126    460.382    28.6433    46.1909    150.442  
   802.225    172.717    468.295     21.678    44.3852    142.041  
   802.196    172.455     468.89     21.941    44.3732    141.736  
   821.115    163.114     476.32    14.7165    41.6206    139.532  
   774.174    192.036    456.123    25.6534    45.9393    155.402  
   820.496    161.523    473.543    15.6823    41.4894    136.385  
   772.319    189.638    457.239    28.7318    46.3162    151.451  
   803.089    176.588    468.427    20.0507    44.2707    146.763  
   802.106    174.761    467.495    21.7772    44.2112    143.161  
   818.324    178.808    469.361    13.9128    39.7871    141.704  
    770.76    200.775    439.109    32.6734    51.8845     144.72  
   800.262    189.752    456.267    22.6045    45.9167    142.822  
   489.107    230.962    360.924    23.0591    42.5392    309.401  
   481.473    206.457    352.342    15.6274    27.3086    325.399  
   465.417    216.941    348.621    19.4342    36.9964    331.872  
   494.032    225.355    363.535    14.7317    29.3309        303  
   476.725    222.144    355.542    20.7162    39.2988    318.661  
   490.731    214.594    359.455     12.349    24.3742     310.65  
   473.216     210.42    351.271    17.8984    32.5423    327.212  
   495.648    226.067    364.538    16.4886    30.9926    305.843  
   477.091    223.681    354.775    21.9338    39.4113     319.81  
   492.278    215.062    360.474    13.7769    25.7921    312.972  
   473.643    211.481    350.605    18.9851    32.7086     327.97  
   485.119     218.51    358.275     16.852    31.5277    313.185  
   485.971    219.632    358.032    18.2889    32.2716    315.044  
   488.466     229.11    360.402    21.4073    41.7158    306.454  
   480.564    205.445    352.142    14.1862    26.3681     323.71  
   465.014    215.876    348.518    18.2538    36.5387    330.654  
   494.244    226.081    361.135    15.3601     28.906    302.703  
   476.466    222.535    353.715    20.6546    38.6007    317.575  
   490.799    215.234    357.589    12.7678    23.8065    310.479  
    472.83     210.64    349.843    17.6962    31.7341    326.344  
   494.114    225.963    361.798    15.1673    29.0468    303.007  
    476.56    222.369    354.399    20.5712    38.7754    317.841  
    490.76    215.156    358.151    12.6326     24.005    310.755  
    472.96    210.527    350.391    17.6963      31.98    326.582  
   484.958    219.092     356.19      17.08    30.8568    312.556  
   484.966    218.973    356.805    16.9677    31.0379    312.819  
   488.337    229.447    359.354    21.9168    41.8395    306.284  
   480.358    205.701    351.506    14.3041    26.1704    323.519  
   464.664    216.228    347.773    18.3704    36.3707    330.464  
    494.15    226.276    360.603    16.0803    29.5664    302.835  
   476.042    222.916    353.185    21.0939    38.9751    317.726  
   490.714     215.42    357.214    13.2728    24.2731    310.576  
   472.407    211.025    349.498    17.9212    31.9221     326.45  
   494.266    226.224    360.849    15.7516    29.2034     302.78  
   476.322    222.732    353.479    20.8877    38.7448     317.66  
   490.823    215.365     357.36    13.0443    24.0096    310.532  
   472.681    210.839    349.679    17.8186    31.7978    326.393  
   484.705    219.373    355.724    17.5551     31.278    312.676  
   484.899    219.257    355.954    17.3371    31.0352    312.619  
    487.79    229.671    359.039    22.4517    42.4348    306.531  
   480.043    205.945    351.587    14.4381    26.4848    323.715  
   464.172    216.627    347.714    18.5323    36.6345    330.654  
   493.828    226.018    361.072    16.3308     30.203    303.333  
   475.733    222.933    353.549    21.1753    39.2062    318.144  
   490.661    215.279    357.836     13.341     24.931    310.991  
   472.338    211.136     349.98    17.8369    32.2318    326.772  
    493.96    226.273    360.601     16.357    29.8196    302.973  
   475.809     223.05    353.284    21.2301    39.1655    317.885  
   490.623    215.416    357.271    13.4636    24.4958    310.703  
   472.278    211.161    349.677    17.9675    32.0859    326.586  
   484.445    219.296    356.114    17.6363    31.7076    313.104  
    484.54    219.434    355.814    17.7253    31.5057    312.819  
   488.309    229.457    359.461    23.2607    41.8255    307.032  
    481.05    205.825    351.917    14.7164    26.4429    323.983  
   464.739    216.924    347.841    18.9537    36.2862    330.815  
   494.544    226.434    359.277     16.756    28.8968    303.441  
   476.301    223.227    353.418    21.8183    38.6768    318.163  
   491.369    215.434    356.019    13.7873    24.0122    311.062  
   473.054    211.292    349.815    18.3291    31.8501    326.769  
   485.257    219.509    355.464    18.1704    31.0133    313.177  
   499.356    251.118    368.757    37.1782    59.9328     292.59  
   494.844    239.208     366.78     29.155    52.8051    298.838  
   507.233      258.5    376.006    22.4276    38.8879    275.576  
   494.823    241.956    365.139    31.0091    52.6609    300.448  
   507.743    259.599    376.754    24.2353    40.4427    278.929  
   501.128    243.576    370.422    18.8926    34.0496    288.011  
   502.373    244.283     371.45     20.677     35.864    291.197  
   499.223    249.086    369.013    35.5397    59.6351    290.093  
   494.361    239.995    364.218    29.4774     52.013    297.373  
   507.532    260.006    373.096    23.6982    39.1086    275.214  
   494.488    239.806     365.13    29.2709    52.1426    297.658  
   507.375    259.616    373.903    23.2082    39.0089    275.332  
   501.454    244.627    367.662    19.8489    34.0049    287.697  
   501.302    244.384    368.409    19.4959    34.0182    287.917  
    498.83     249.56    367.512    36.1421    59.6811    289.962  
   493.923    240.411    363.247    30.1445    52.6052    297.619  
     507.4    260.266    372.029    24.6555    40.0825    275.445  
    494.22    240.225    363.827    29.8248    52.2301    297.518  
   507.531    260.183    372.614    24.2155    39.5342    275.399  
   501.368    244.861    366.865    20.7195    34.8562    287.879  
   501.478    244.792     367.27    20.3208    34.3846    287.824  
   497.913    249.882    366.778    36.7889    60.5677    290.294  
   492.991    240.357     363.34    30.6025    52.9086    298.192  
   506.105    259.462    372.074    25.5033    40.9976    275.762  
   493.475    240.517    363.286    30.4196    52.9901    297.818  
   506.849     260.08     371.79    25.2469    40.5916    275.435  
   500.568    244.329    367.131    21.2647    35.6685    288.305  
   500.994    244.767    366.728    21.1631    35.2196    287.944  
   497.882    249.995    367.782    37.8027     60.146    290.744  
   493.741    240.435    364.119     31.359    52.5282    298.296  
   506.068    259.443    371.227    26.4593    39.0171    276.159  
   500.816    244.605    365.583    21.9635     33.825    288.532  
   567.956    287.739    406.048    36.4959    47.5905    224.352  
   545.699    291.591    397.428    21.5549    34.1127    226.656  
   567.045    291.228    409.511    23.2702     35.898    215.932  
   547.192    287.766    399.433    23.7794    35.8375    228.772  
   570.693    283.233    419.921    27.8697    42.1887    222.247  
   551.145     294.62    398.322    19.1582    30.2525    219.638  
   552.365    284.908    406.768    20.1559    32.9208    221.579  
   561.746    292.939    403.413    33.7627    43.3599    223.647  
   545.995    295.787    394.356    24.7494    34.4638    229.082  
   568.145    294.902    403.703    25.8139    35.9727    218.562  
   545.807    294.465    395.456     24.076    34.0285    228.009  
   568.345    293.055    405.785    25.8614    35.8066    217.936  
   551.583    298.545     397.12    21.2071    31.2063    223.261  
   551.696    296.754    397.832    21.0715    30.7931    222.127  
   561.781    294.879    399.993    34.4732    43.6373    224.776  
   546.022    296.347    393.232    25.3766    35.1733    229.328  
   568.266    296.036    401.059    26.1758    36.2677    219.038  
   545.967    296.113    393.899    25.0578    34.8551    229.281  
   568.211    295.417    402.424    26.1359    35.9765    218.928  
   551.672    299.111    395.701    21.6267    31.5565    223.499  
   551.604    298.799    396.442    21.5173    31.3276    223.508  
   561.848    294.648    395.658    35.4464     45.163    223.918  
   545.532    292.837    387.998    27.7258    39.1905    225.322  
   568.728    293.976    390.642    25.6704      37.46     215.31  
   545.962    295.342    391.132    26.1823    36.1531    228.194  
   568.495    295.069    397.818    26.8633    36.8258    217.553  
   551.868    295.998    388.196    21.8906     32.605    219.317  
   551.831    297.742    393.572    22.2049    31.9748    221.995  
   553.903    286.097     397.46    43.4226    52.0362    221.484  
   540.038    287.763    392.471    31.4513    38.3421    227.031  
   568.498    281.116    388.921    34.2888    45.5809    204.829  
   550.876    284.166    390.663    27.4296    36.3635    214.065  
   557.455    283.259    399.836   -3.51626     7.9489    221.086  
   563.671     291.06    405.315    9.99504    18.3975    214.921  
   542.969    291.121    392.263    12.0827    18.4294    226.512  
   564.835    281.452     415.78    3.98702    14.7889    220.148  
   542.525    285.948    393.453    7.90098    16.4384    225.491  
   550.415     294.61    395.729     14.904    22.7833    219.202  
   550.176    283.886    403.717    11.4647    20.5402    219.698  
   553.959    290.959    398.199    0.84786     10.386    222.676  
    564.21    294.724    401.816    8.42908    19.6719    217.971  
   543.251    294.714    392.551    9.40705    18.6285    228.647  
   564.327    292.915    403.354    8.13463    19.5519    217.151  
   543.169    293.403    392.846    9.91282    18.7281    227.562  
   550.659    298.257    396.399    13.2002    23.1328    222.656  
   550.786    296.466     396.77    13.1426    23.1509    221.484  
    553.79    292.761    396.258   0.322106     10.384    223.908  
   564.175    295.789    399.493    8.22029    19.4669    218.386  
   542.947    295.147    392.142     8.8214     17.897    228.774  
   564.163     295.23    400.713    8.19267    19.7438    218.284  
   543.075    294.948    392.473    9.10876     18.251    228.833  
    550.59    298.766    395.324     12.876    22.8238    222.836  
     550.6    298.476    395.952    12.9354    23.0723    222.885  
   553.433    292.354    392.889  -0.660482    8.49226    222.791  
   564.541    293.519    389.088    8.84306    17.6882     214.14  
   542.167    291.699    388.379    6.18391    12.8071    224.182  
   564.251      294.8    396.617    7.57402    18.6111    216.753  
    542.73    294.015    390.747    7.91114    16.5997    227.541  
   550.765    295.616    388.185    12.7435    20.8243      218.3  
   550.667    297.344    393.606    12.2549    22.0566    221.238  
   543.602    284.354    395.644   -8.91585    2.33898     221.18  
   563.046     281.09    388.925  -0.822285    9.07638    204.822  
   536.436    285.773    394.855     1.8223    14.0374    226.155  
   549.343    283.466    392.075    5.83898    16.5383    213.045  
   543.595    284.382    395.616   -8.72499    2.45511    220.861  
   564.639    293.669    389.088    9.08817    17.9797    214.126  
   542.249    291.779    388.338    6.43942     12.997    224.123  
   563.181    281.065    388.718  -0.617479    9.24945    204.558  
    536.42    285.765    394.869    2.02312    14.1631    226.086  
   550.795    295.694    388.186    12.8633    20.9473    218.281  
   549.377    283.448    392.033    5.95163    16.6333    212.944  
   553.553    292.643    392.946  -0.266157    8.91669    222.621  
   564.222    295.928     399.53    8.41517    19.6681    218.347  
   542.928    295.241    392.159     9.0546     18.068    228.756  
   564.306     294.93    396.654    7.77066     18.822    216.704  
    542.73    294.102    390.763    8.15211    16.7923    227.519  
   550.597    298.838    395.341    12.9763    22.9151    222.815  
   550.679    297.411    393.625    12.3574    22.1529    221.215  
   553.871    293.063    396.339   0.701487    10.7697    223.748  
   564.251    294.863    401.861    8.62061    19.8667    217.931  
   543.234    294.812    392.554     9.6399    18.7947    228.636  
   564.207    295.369    400.755     8.3824    19.9431    218.246  
   543.058    295.044     392.48    9.34183    18.4247    228.817  
   550.664    298.331    396.413    13.2987    23.2209    222.635  
   550.606    298.549    395.967    13.0336    23.1623    222.865  
   554.033    291.243    398.286    1.20677    10.7777    222.495  
   563.684    291.195    405.324    10.1827    18.6339    214.814  
   542.921    291.194     392.25    12.3382    18.6109    226.472  
   564.372    293.045    403.398     8.3153    19.7475    217.113  
   543.152    293.496    392.837    10.1386    18.9052    227.537  
   550.417    294.684    395.706    14.9948    22.8825    219.152  
   550.793    296.536    396.779    13.2365    23.2375    221.463  
   557.729    283.356    400.054   -3.23048    8.22197    220.843  
   564.875    281.483    416.069    4.17917    14.9692    220.169  
    542.52    285.963    393.463     8.1467    16.5927    225.435  
   550.174    283.899    403.781    11.5764     20.631    219.663  
   553.727     286.11    397.408     43.319    51.9854    221.468  
   545.446     292.86    387.962    27.6276    39.1049    225.361  
   568.637    294.049    390.637    25.5967    37.3512    215.343  
   539.909    287.757     392.43    31.3615    38.2584    227.075  
   568.452    281.143    388.863    34.1897    45.4808    204.799  
   551.841     296.03    388.201    21.8524    32.5512    219.324  
   550.858    284.175    390.654    27.3793     36.308     214.05  
   561.675    294.767    395.618    35.2975    45.0486    223.935  
   545.903    296.371    393.194     25.293    35.1158    229.371  
   568.173    296.113    401.033    26.1008    36.1902    219.053  
   545.843    295.363    391.103    26.0951    36.0846    228.238  
   568.401     295.14    397.799    26.7894    36.7463    217.562  
   551.646    299.142    395.697    21.5915    31.5196    223.497  
   551.804    297.771    393.573    22.1694    31.9363    221.991  
   561.605    295.006    399.945    34.3257    43.5379    224.796  
   545.877    295.815    394.311    24.6635    34.4067    229.128  
   568.048     294.98    403.679    25.7405    35.8964    218.576  
   545.848     296.14    393.856    24.9732    34.7946    229.326  
   568.116    295.494      402.4    26.0626    35.8997    218.943  
   551.555    298.578    397.114    21.1728    31.1706    223.259  
   551.577    298.831    396.436     21.483    31.2912    223.507  
   561.575     293.06    403.347    33.6203    43.2501    223.658  
   545.562     291.61    397.359    21.4682    34.0242    226.689  
   566.944    291.298    409.439     23.199    35.7915     215.92  
   545.691    294.492    395.398    23.9943    33.9635    228.052  
   568.253     293.13    405.753    25.7873    35.7284    217.951  
   551.119    294.651    398.289      19.13    30.2043    219.629  
    551.67    296.784     397.82     21.038    30.7565    222.125  
   567.824    287.799    406.032    36.3467    47.5099     224.32  
   547.071    287.764    399.389    23.6806     35.766    228.792  
   570.565    283.269    419.941    27.7799    42.0935    222.266  
   552.318    284.918    406.764    20.1137    32.8713    221.565  
   699.819     237.78    445.135   -39.8386   -4.99082    176.204  
    761.44    209.379    462.682   -37.2029    4.00624    158.285  
   667.905    242.757    444.243   -3.15668    19.2931    179.981  
   719.046    217.355    459.822   -26.5308    5.74976    166.966  
   756.821    195.048    467.513   -3.37522    26.9339    154.619  
   671.891    245.817    458.573   -14.3341    8.23619    196.426  
   730.279    224.143    454.384   -38.5658   -1.05158    167.827  
   755.359     209.71    477.187   -13.5358    16.7915    172.757  
   710.414    220.564    455.678   -3.02181    22.8254    168.133  
   710.614    230.114    468.696   -13.9654    12.4633    186.913  
   690.412    232.315    442.909    -28.709    6.12258    170.944  
   753.529    199.242    459.892   -26.6351    15.0767    151.412  
   669.652     243.79     433.96     -4.803    20.2799    179.587  
    721.02     216.45    447.441   -26.7292    11.1628     160.98  
   757.265     194.08    457.525   -4.89036    26.9074     152.02  
    669.75    243.358     437.51   -5.81111    19.8072    180.765  
   721.119    216.721    451.388   -27.4506    10.4004    161.666  
   757.317    194.916    460.643   -5.80768    26.2986    153.995  
   711.267    220.824    445.375   -4.71841    23.2137     166.84  
   711.422    221.045    448.812   -5.67338    22.6932    168.419  
   690.143    233.139    437.685   -27.7468    7.26065    170.575  
   753.111    199.298     455.27    -25.594    16.2199    150.502  
    669.59    245.514     430.26   -4.55841    20.4022    180.377  
   720.421     217.98    445.331   -26.2319    11.3991    161.241  
   757.164    195.386    454.562   -4.57465    27.0673     152.64  
   669.538    244.679    431.982   -4.95348    20.6155    179.987  
   720.712    217.196    446.332   -26.4432    11.5496     161.04  
   757.139    194.773    456.021   -5.00479    27.1294    152.222  
   711.223    222.331     441.88   -4.42891    23.3677    167.571  
    711.18    221.608    443.587   -4.86222    23.5037    167.111  
   690.087    235.158      432.7   -27.6223    6.61559    171.465  
   752.895     201.62    451.651   -25.3345    16.0762    151.872  
   672.593     248.08    419.067   -1.39823    20.0046    180.824  
    723.45    221.025    433.949   -24.0451    7.01131    159.935  
   758.886    199.408    449.394   -2.30155    27.8433    157.073  
   669.495    246.432    426.439   -5.19061    19.9823    179.823  
     720.5    219.344    441.875   -26.2776    11.1407    162.114  
   756.918    197.413    452.468   -5.02521    26.8483    153.196  
   713.209    225.717    433.449   -1.81983    23.8261    170.373  
   710.989    223.783    438.878   -5.02245     23.001      167.4  
   678.492    237.729    429.159   -35.6079   -4.90038    169.451  
   743.898    208.704    444.988   -30.9315    6.87975    150.628  
   665.625    243.179    404.018   -14.3928    6.37615    164.423  
    709.59    223.839    436.118   -33.5286   0.235726    159.964  
   754.545    207.628    431.499   -8.79626    18.5545    144.958  
   708.991     227.11     416.21   -11.1161    12.1401    154.771  
   503.301    256.371    371.033    30.9878    48.9506    281.654  
   490.585    231.517    360.516     21.858    40.6369    303.148  
   508.843    262.519    373.694    22.4794    36.2895    271.015  
   496.706    245.093     365.56    25.9752    45.4634    292.055  
   494.114    227.672    361.533    16.7205    29.7816    301.647  
   508.541    262.369    372.221    23.4573    33.7303    271.477  
   497.321    245.013    366.085    26.9152    44.7486    292.212  
   494.713    228.034    359.451     17.202    28.3627     301.71  
   502.094    245.978    368.056    20.2615    33.4474    285.591  
   502.241    246.203    366.087    20.9597     31.331    285.842  
   503.573    256.925    370.029    29.6826    49.5394    281.014  
   490.138    231.661    360.263    21.0428    41.3875    302.604  
   510.159    263.522    373.662    21.5565    35.1825    270.769  
   497.733    245.354     365.58     25.446    45.0272     291.46  
   494.431    227.928    361.025    16.4573     29.114    301.136  
   509.606    263.253     373.36    22.2285    35.7025    270.698  
   497.269    245.374    365.537    25.8207    45.4708      291.6  
   494.236    227.908    360.989    16.7543    29.3702    301.262  
   502.907     246.57    367.762    19.6915    32.5307    285.186  
   502.537    246.446    367.595    20.1699    32.8975    285.236  
   504.408     256.79    370.903    28.7786    48.4216    280.813  
   490.685    231.461    360.627    20.4519    40.7447    302.357  
   510.185    263.301    374.655    20.5224     34.111    270.553  
   498.022    244.995     366.53    24.6533     44.305    291.232  
   494.493    227.735    361.573     15.707    28.4179    300.994  
   510.231    263.468    374.205    21.0852    34.5969    270.744  
   497.957    245.204    366.146    25.0662    44.5988    291.369  
   494.531    227.876     361.27    16.1134    28.7323    301.076  
   502.941    246.355    368.539    18.7835    31.6307    285.005  
   502.989    246.516    368.153    19.2763     32.037    285.139  
   504.515     256.18    372.425    27.9107    48.1205    280.789  
   490.762    231.096    361.725    19.8818    40.5948    302.514  
   509.581    261.463    377.589    18.9372    33.5531    270.502  
   498.277     243.73    369.577    23.9861    44.9096    292.413  
    494.22    226.962    363.969    15.0603    28.7916    301.232  
   509.923    262.858    375.416    19.9556    33.9358     270.61  
    498.04    244.734    367.457    24.3414    44.3567    291.441  
   494.353    227.607    362.243    15.4867    28.5447    301.298  
   502.452    245.164    371.291    17.6904    31.5367    285.125  
   502.742      246.1    369.277    18.3915      31.61    285.217  
   504.806    257.906    373.115    29.6009    48.8184    284.354  
   491.415    232.787    362.521    21.5657      41.58    305.587  
   510.403    262.355     379.31    20.8733    35.7571    274.513  
   498.471    246.558    368.263    26.0422    45.1906     294.86  
    495.98    227.613    365.293    16.7183    30.5667    304.183  
   503.971    245.779     372.91    19.5192    33.7017    288.626  
   678.498    237.713    429.113   -35.5079   -4.84356     169.43  
   743.886    208.711    444.969   -30.9044    6.89171    150.634  
   672.614    248.085    419.068   -1.32195    20.0822    180.848  
   723.442    221.038    433.934   -23.9627    7.06901    159.963  
   758.871    199.417    449.392   -2.28757      27.85    157.085  
   665.654    243.179    403.941   -14.3199    6.41865    164.392  
   709.574    223.838    436.077   -33.4696   0.267977    159.961  
   754.525    207.632    431.481    -8.7871    18.5576    144.959  
   713.213    225.715    433.453   -1.78409    23.8544    170.385  
       709    227.117    416.181   -11.0758    12.1673    154.765  
   690.115    235.176    432.706   -27.4914    6.72151     171.48  
   752.881    201.623    451.645   -25.3042    16.0912    151.887  
     669.6    245.515    430.262    -4.4935    20.4476    180.381  
   720.404     217.99    445.326   -26.1584    11.4466    161.259  
   757.147    195.395    454.557   -4.56251     27.072    152.649  
   669.504    246.434    426.442   -5.12893    20.0294    179.824  
   720.484    219.354    441.867   -26.2054    11.1894    162.132  
   756.901    197.421    452.462   -5.01349    26.8526    153.205  
   711.226    222.332     441.88   -4.39374    23.3885    167.577  
   710.992    223.783    438.878   -4.98849    23.0217    167.404  
   690.166    233.155    437.696   -27.6147    7.36295    170.591  
   753.098    199.301    455.265   -25.5636    16.2351    150.516  
   669.659    243.792    433.964   -4.73937    20.3245     179.59  
   721.002    216.459    447.436   -26.6557    11.2104    160.998  
   757.248    194.088    457.521   -4.87895    26.9122    152.028  
   669.547    244.679    431.986   -4.89079    20.6617     179.99  
   720.695    217.205    446.327     -26.37    11.5979    161.059  
   757.122    194.782    456.016   -4.99291     27.134     152.23  
   711.269    220.824    445.375   -4.68402    23.2348    166.845  
   711.182    221.609    443.588   -4.82802    23.5244    167.116  
   690.429    232.327    442.927   -28.5781    6.23012    170.959  
   753.515    199.244    459.889   -26.6047    15.0928    151.427  
   667.885     242.75    444.248   -3.08574    19.3655    179.983  
   719.012    217.363    459.834   -26.4535    5.80327    166.993  
   756.802    195.055    467.507   -3.36223    26.9405    154.626  
   669.758    243.358    437.516   -5.74903    19.8551    180.768  
   721.099    216.728    451.386   -27.3775    10.4511    161.685  
     757.3    194.924    460.639   -5.79566     26.304    154.004  
   710.409    220.561    455.676   -2.97987    22.8585    168.134  
   711.424    221.045    448.815   -5.63931    22.7147    168.425  
   699.875    237.816     445.21     -39.74   -4.92166    176.262  
   761.419    209.392    462.692   -37.1755    4.01749    158.316  
   671.893     245.85    458.666   -14.2781     8.2731    196.488  
   730.259    224.167    454.416   -38.5036   -1.01575    167.874  
    755.34    209.721    477.194   -13.5234    16.7991    172.773  
    710.61    230.129    468.731   -13.9312    12.4847    186.943  
   553.425    273.527    394.826   -31.1069   -20.7269    223.802  
   507.105    254.275    373.139   -34.4849   -40.3788    261.879  
    536.02    275.889    386.191   -15.7314   -11.6825    234.715  
   517.457    266.125     378.49   -19.5019   -21.9039    252.602  
    557.97     269.28    392.758   -42.0658   -34.4436    222.299  
    531.72    259.728     382.23   -44.1676    -44.723    242.963  
    535.35    273.679     388.84   -17.6187   -10.5873    235.523  
   517.545    264.676    379.951   -20.5168   -20.7631    253.214  
   557.719    267.993    395.093   -43.8718   -33.3826    222.797  
   531.969    258.932    383.444   -45.0705   -43.7681    243.312  
   535.266    268.086    384.803   -29.4322   -27.9406    239.388  
   535.107    266.644     386.65   -30.7966   -26.8367    239.905  
   557.226    276.023     392.77   -27.5887   -19.3462    224.123  
   508.006    254.976    371.953    -33.413   -40.8342    261.628  
   540.011    276.822    387.043   -13.6601   -8.29755    236.177  
   520.323    266.517    378.064   -17.9814   -20.0906    253.352  
   562.107    269.448    394.146   -40.6464   -30.9496    223.225  
   534.692    259.471    382.255   -43.2404   -42.8991    243.217  
   538.549    276.497    386.505   -14.4739   -10.0528    235.636  
   519.194    266.376    378.148   -18.6068    -21.083    253.056  
   560.642    269.515    393.283   -41.1221   -32.6112    222.914  
   533.484    259.668    382.096   -43.5592   -43.8739    243.153  
    538.65    268.378    385.211   -27.9428   -25.3379     240.22  
   537.408    268.348    384.863   -28.4903   -26.6118    239.903  
   558.857    275.634    395.347   -26.8474    -17.019    224.428  
   509.622    254.545    372.498   -32.7871   -39.6729    261.543  
   540.284    276.064    389.013   -13.0784   -7.49044    235.759  
   521.134    265.949    379.479   -17.2741   -19.2132    253.017  
   562.681    268.579    396.669   -40.4717   -30.4849    222.639  
   535.637    258.785    384.057   -42.8995   -42.3325    242.745  
   540.127    276.464    388.157   -13.4187   -7.86252    236.071  
   520.756     266.26    378.858    -17.654   -19.5192    253.255  
   562.366    268.994    395.497   -40.6236   -30.5948     222.99  
   535.188    259.128    383.218   -43.1117   -42.4565    243.029  
   539.375    267.674     387.13   -27.4691   -24.6332    239.768  
   539.023    268.035    386.263   -27.7433   -24.8423    240.057  
   559.925    274.419     397.31   -26.5152   -17.7524    223.699  
   510.557    253.865    373.138    -32.239   -39.5702    261.145  
   541.617    274.055    389.222   -12.3651   -8.49845    234.927  
   521.818    264.527    379.144   -16.6239   -19.5267    252.342  
   565.099    267.102    397.703   -40.6223   -32.2509    222.423  
   537.174    257.812    384.347   -42.9149     -43.09    242.536  
   540.903     275.34    389.301     -12.73   -8.05182    235.348  
   521.467    265.414    379.476   -16.9047   -19.3396    252.737  
   563.573    267.989     397.33   -40.4428   -31.3443    222.397  
   536.292    258.378    384.304   -42.8021   -42.7384    242.584  
   540.789    266.156    387.427   -27.1621    -25.575    239.265  
   539.932     267.08    387.419   -27.2425   -25.0621    239.479  
   560.201    271.868    397.816   -29.0621   -18.3726    224.346  
   510.237    252.788    373.368   -33.2256   -39.4744    261.386  
   540.385    271.956    389.943   -15.0047   -8.64197    235.329  
   520.855    262.984    379.896   -18.4409   -19.6026    252.621  
   563.855    266.425    397.489   -42.5744   -31.6906    223.104  
   536.232    257.468    384.391   -44.1459   -42.7724    243.039  
   539.709    264.957    387.817   -29.0412   -25.3519    239.762  
   585.664    276.229    407.956     65.693    75.5242     226.17  
   678.879    246.218    435.861    98.9599    99.2073     189.97  
   604.957    273.417     420.56    55.0137    67.6966    214.151  
   648.268    256.653    434.108    70.9221    79.4728    198.808  
   591.033    271.297    410.415    77.5613    89.4026    227.104  
   639.065    256.353    425.998    94.6718     101.26    208.106  
   607.668    272.615    418.491    59.7713    68.6544    215.567  
   651.734    257.278    431.071    75.8423    80.4689    199.865  
    590.96    271.498    408.507    79.5621    88.7783    227.625  
   639.779     257.33    423.429    96.8854    100.684    208.316  
   623.208     264.17    423.579    74.5636    83.7907    211.477  
   624.827    264.406    420.974    77.9982    83.9214     212.11  
   582.788    276.753    408.501    63.3937    74.0501     224.76  
   673.622    243.896     437.18    94.7478    96.1432    188.409  
   602.269    274.415    413.622    55.4796    62.5405    212.541  
   644.867    256.739     426.69    70.3128    73.3307    196.427  
   587.425    271.489    407.731    77.3313    86.2475    225.963  
   634.779    255.681    422.897    93.3048     97.072    206.393  
   602.482     273.81    416.794    55.3798    63.8154    212.865  
   645.361    256.485    430.014    70.5862    74.9784     196.99  
   588.549    271.279    409.228    77.3448    87.5994     226.25  
   636.117    255.784    424.579    93.7554    98.7737    206.945  
   619.602    264.344    418.622    74.0763    79.0427    209.721  
   620.429    264.097     421.04    74.2407    80.6335    210.161  
   581.803    277.731    404.934    63.6941    72.8913    224.932  
   672.113    244.255      433.2    93.9307    94.0694    187.925  
   601.978    275.794    410.572    55.6584    62.9174    213.316  
   644.478    258.092     423.61    70.1645    73.4151    197.128  
    587.18    272.455    404.343    77.3915    86.5763    226.596  
   634.395    256.634    419.537    93.0641     97.084    206.979  
   602.101    275.122    412.151    55.5625    62.9149    212.987  
   644.646    257.409    425.143    70.2273    73.5596    196.742  
   587.314    271.977    406.041     77.405    86.3542    226.299  
   634.597    256.155    421.168    93.2217    97.0376    206.661  
    619.31    265.492    415.291    74.0355    79.2512    210.394  
    619.45     264.92    416.953    74.0742     79.245    210.061  
   580.721    278.269    401.539    64.2808    74.9657    224.915  
   671.164    245.588     429.92    93.6186    95.4497    188.431  
   599.236    275.439    403.944    56.8913     68.825     210.87  
   641.884    258.858    417.148    70.6429    78.9498    195.301  
    583.72     272.41    402.366    78.7652    90.1396    225.749  
   631.252    257.725    417.413    93.5694    100.464    206.608  
   601.774    275.908      407.5    56.0827    64.6377    212.777  
    644.28    258.614    420.617     70.328     74.983    196.837  
   586.104    272.619     403.16    77.7835    88.1491    226.428  
   633.437    257.192    418.298     93.128     98.513    207.061  
   616.241    265.897    411.111    74.9673    83.9291    209.017  
   618.667    265.847    413.174     74.302    80.9052    210.163  
   577.579    276.755    403.326    67.8454    76.4997    224.543  
   669.269    247.144    430.248    97.0861     97.409    187.772  
   597.338    273.205     407.22     61.936    69.4221    210.059  
   640.435    257.996    419.643    75.9497    79.5795     194.37  
   583.968    272.016    404.556    80.7406    89.2293    226.173  
    631.86     258.06    419.076    96.0658    99.8096     206.69  
   615.647    265.194    413.623    78.6335    83.7392    208.867  
   577.046    276.981    403.112    66.7609    75.5096    224.299  
   669.243    247.136    430.216    96.8866    97.1752    187.752  
   598.931    275.639    403.786    56.4223    68.4143    210.877  
   641.863    258.878    417.116    70.5099    78.8217    195.283  
   583.415    272.836    402.218     77.559    88.9632    225.559  
   631.125    257.826     417.33    93.0582    99.8665    206.492  
   596.996    273.352    407.082    61.5066    69.0427    210.038  
   640.399    258.004    419.609    75.8383    79.4673    194.338  
   583.601    272.379    404.462     79.599    88.0755    225.972  
   631.711     258.15    419.016    95.5823    99.2144    206.573  
   616.065    266.086    411.008    74.4536    83.4393    208.937  
   615.438    265.354    413.546    78.1577    83.2679    208.774  
   580.276    278.634    401.354    63.0889    73.8421    224.752  
   671.159    245.585    429.901    93.3982    95.1918    188.424  
   601.658    276.025    410.493    55.1741    62.4822    213.356  
   644.445    258.115    423.602     70.032    73.2826    197.116  
   586.876    272.914    404.301    76.1633    85.3223    226.457  
    634.28    256.746    419.506     92.539    96.4441    206.882  
   601.467    276.129    407.392    55.6042    64.1986    212.806  
   644.253    258.637    420.601    70.1963    74.8465    196.825  
   585.815    273.069     403.07    76.5641    86.9127    226.274  
   633.324    257.301    418.243    92.6088    97.8851    206.959  
   619.131    265.702    415.259    73.5087    78.7248    210.342  
   618.497    266.051    413.113    73.7806    80.3838    210.102  
    581.32    278.106    404.806    62.4849    71.7665    224.793  
   672.101     244.25    433.195    93.7074    93.8109    187.918  
   601.949    274.641    413.529    54.9918    62.1014     212.58  
   644.837    256.759     426.68    70.1792    73.1977    196.415  
   587.107    271.934    407.691    76.0936    84.9835    225.817  
   634.656    255.784    422.874    92.7753    96.4261    206.292  
   601.781     275.35    412.066    55.0756    62.4803    213.026  
   644.614    257.431    425.134    70.0941    73.4266     196.73  
   587.003    272.429    406.003    76.1714    85.1053    226.158  
   634.478    256.263    421.142    92.6942     96.399    206.563  
   619.419    264.546    418.586    73.5457     78.512    209.666  
   619.269    265.126     416.92    73.5449    78.7209    210.008  
   582.262    277.095    408.411    62.1647    72.8947    224.606  
   673.603    243.887    437.188     94.522    95.8817    188.403  
   604.605    273.619    420.525    54.4947    67.2574     214.18  
   648.221    256.674    434.122    70.7814    79.3409      198.8  
   590.697    271.702    410.476    76.2863    88.1848    226.967  
   638.942    256.442     426.03    94.1298    100.648    208.016  
   602.145    274.025    416.721    54.8844    63.3625    212.897  
   645.323    256.504    430.011    70.4516    74.8401    196.979  
   588.209    271.706     409.23    76.0949    86.3377    226.101  
   635.986    255.881     424.58    93.2205    98.1344    206.845  
   623.008    264.354    423.607    74.0091    83.2796    211.426  
   620.232    264.291    421.029    73.7032    80.0997    210.104  
   585.198    276.473    407.966     64.503    74.4789    226.052  
   678.879    246.211     435.88    98.7526    98.9766    189.976  
   607.348    272.779    418.482    59.2844     68.249     215.62  
   651.702     257.29    431.087    75.7179    80.3564    199.863  
    590.67    271.863    408.551     78.351    87.5933    227.494  
   639.679    257.419    423.439    96.3788    100.084    208.232  
   624.657    264.575    421.001    77.4803    83.4341    212.074  
    559.57    271.359    397.305   -30.9121   -20.4596     224.77  
   539.781    272.283    388.093   -13.9137   -10.7925    236.822  
   564.659    266.305    397.281   -42.5113   -34.3102    222.719  
   534.941    255.632    383.024   -47.3068   -47.9541    244.514  
   538.598    270.413    388.749   -16.3686   -10.9296    237.215  
   563.398     265.71    397.059   -44.3712   -33.7541    223.378  
   534.035    255.409    383.037   -48.4144    -47.634    245.003  
   538.882    264.364    386.291   -29.7329   -28.8787    241.263  
   537.837    263.322    386.635   -31.4607   -28.6486    241.746  
   559.372    273.711    396.892   -28.4625   -19.9192     224.14  
   538.489     274.18    387.974   -14.5572   -9.91716     237.59  
   562.269    267.704    396.338   -42.3472   -32.6403    222.918  
   533.443    256.499    382.755     -47.27   -47.2684    244.689  
   539.134    273.501    388.203   -14.2286   -10.4377    237.215  
   563.175    267.146    396.952   -42.3242   -33.4731    222.687  
   534.093    256.128    382.986   -47.1871   -47.6476    244.546  
   537.498    265.774    386.039   -29.9979   -28.0306    241.719  
   538.059    265.218    386.296   -29.7871   -28.4284    241.452  
   558.255    274.882    394.991   -28.7845   -19.1871    224.849  
   538.165    274.923    386.017   -15.1555   -10.7335    238.004  
   561.663    268.558    393.833   -42.5163   -33.1004    223.498  
   532.455     257.17    381.027   -47.5793   -47.8008    245.152  
   538.312    274.575    387.121   -14.9054   -10.2625    237.899  
    561.94    268.113    395.173   -42.4964   -32.7335    223.264  
   532.973    256.834    381.947   -47.4665   -47.3779    244.964  
   536.719    266.464    384.171   -30.4633   -28.7218    242.167  
   537.123    266.127    385.192    -30.268   -28.2245        242  
   556.555    275.288    392.521   -29.5083   -21.4861    224.597  
   534.234    274.146    385.461   -17.1142     -13.82    236.736  
   557.573    268.438     392.61   -43.8778   -36.4268    222.663  
   529.649    257.494    381.061   -48.3964   -49.4422    244.981  
   536.661    274.657    385.616   -15.9325   -12.3936    237.546  
    560.18    268.636    393.045    -42.978   -34.7122    223.221  
   531.296    257.393    380.903    -47.854   -48.6938    245.124  
   533.453    266.268    383.912   -31.8469   -31.0979    241.462  
   535.491     266.47    383.896   -30.9724   -29.9086    241.899  
   552.969    272.978     394.57   -32.8436    -22.681    224.366  
   533.754    272.115    387.871   -18.8034   -12.7152    237.523  
   557.428     267.24    394.834   -45.5885   -35.3568    223.154  
   529.953    256.801    382.159   -49.2165    -48.534    245.291  
   533.411    264.958    385.591    -33.076   -30.0149    241.939  
   740.164    220.632    452.732    132.913      144.1    162.908  
   807.378    205.091    475.333    103.393    117.084    134.351  
   711.596    230.124    440.565    85.0108    88.5014    173.157  
   703.144    232.763    440.179    112.942    119.933    177.042  
   809.494    206.828    475.575    105.458    117.343    133.942  
   711.537      231.9     441.67    89.0218    88.4467    172.601  
   704.355    233.631    441.263    115.564    119.749    176.896  
   758.656     215.32    457.422    95.5685    102.183    154.902  
   759.872    217.185    457.924    98.5021    102.273    154.395  
   739.454    218.681    452.173    130.968     143.34    162.996  
   808.458    203.035    475.884    104.412    116.305    133.827  
   714.114    227.731    444.594    85.6086    84.5626    173.209  
    705.48    231.172    441.847    113.144    117.423    177.106  
   808.067    203.839    475.468    103.897    116.645    134.222  
   713.656    228.764    442.557    85.3701    85.8527    173.601  
    704.76    231.889    440.867    112.917    118.449    177.299  
   760.318    212.997    459.406    96.4145    100.019    154.562  
   759.932     213.95    458.308    96.0231     100.77    154.957  
   740.638    217.884    453.732    131.753    142.909    162.594  
   809.163    202.721    477.928    105.332    117.261    133.734  
   714.463    226.576    447.485    86.0367    84.8075    172.657  
   706.122    230.462     444.79     113.79    117.872    176.727  
     808.8    202.859    476.765    104.893    116.711    133.663  
   714.286     227.15    445.964    85.8324    84.8802    172.898  
   705.793    230.798    443.217    113.495    117.579    176.834  
   760.869     212.28    461.941    97.1128     100.63    154.244  
   760.585    212.622    460.553    96.7785    100.339    154.303  
   742.991    218.323    456.119    133.189    145.048    163.207  
   814.297    204.752    480.248    108.387    121.239    135.574  
   718.852    228.206    453.632    88.3396    91.1369    176.032  
   710.955    231.706    447.604    116.069    122.284    178.467  
   811.036    203.405    479.188    106.501    119.005    134.526  
    715.55    226.958    450.315    86.8131    86.8999    173.731  
   707.737    230.813    446.336    114.642    119.696    177.368  
   765.555    214.071    465.808    99.8118    105.712    156.801  
   762.343     212.81    463.865    98.0943    102.527     155.17  
   746.484    220.645    455.136    135.866     146.15    163.777  
   815.556    206.612     478.07    109.497    120.589    135.018  
   721.989    231.019    449.376    92.3371    91.6347     176.12  
   711.985    233.056    445.114    117.939     121.64    178.363  
    767.66    216.501    462.642    102.243    105.521    156.532  
   746.471    220.596    455.123    135.978    146.405    163.859  
   814.343    204.744    480.259    108.438    121.345    135.571  
   718.901    228.218    453.627    88.4832     91.263    176.012  
   710.899    231.693    447.558    116.269    122.533    178.515  
   815.601    206.602    478.085    109.546    120.695    135.015  
   722.023    231.025    449.375    92.4652    91.7472    176.093  
   711.917    233.038    445.079    118.127    121.882    178.411  
   765.595     214.06    465.808     99.919    105.822    156.784  
   767.694    216.486    462.648    102.343    105.625    156.513  
   742.987    218.278      456.1    133.305     145.31    163.291  
   809.209    202.713    477.942    105.381     117.37    133.732  
   714.501    226.585    447.502    86.1733    84.9388    172.642  
   706.064    230.449    444.762    113.989    118.134    176.782  
   811.083    203.397    479.201    106.551    119.113    134.524  
   715.593    226.968    450.325    86.9517    87.0329    173.716  
   707.683      230.8    446.301    114.841    119.956    177.421  
   760.904    212.267    461.951    97.2167    100.743    154.229  
   762.381    212.798    463.872    98.1995    102.641    155.155  
   740.632    217.837    453.718    131.869    143.172    162.678  
   808.502    203.026    475.898    104.461    116.413    133.825  
   714.152    227.739     444.61    85.7442    84.6927    173.193  
    705.42    231.156     441.82    113.341    117.683    177.159  
   808.846    202.851     476.78    104.942    116.819    133.661  
   714.324    227.159     445.98    85.9688      85.01    172.882  
   705.734    230.782     443.19    113.693    117.839    176.888  
   760.353    212.984    459.416    96.5175    100.132    154.547  
    760.62    212.609    460.563     96.882    100.452    154.288  
   739.445    218.631    452.161    131.084    143.603    163.078  
   807.423     205.08     475.35    103.442     117.19    134.347  
    711.63    230.132      440.6    85.1443    88.6234    173.146  
   703.083    232.743    440.168    113.139    120.183    177.098  
   808.111    203.829    475.484    103.946    116.753    134.218  
    713.69    228.772     442.58    85.5038    85.9828    173.586  
   704.697    231.871    440.848    113.114    118.708    177.352  
   758.689    215.305     457.44    95.6707    102.291    154.887  
   759.965    213.936    458.322    96.1254    100.882    154.942  
   740.155     220.58    452.723    133.028    144.361    162.992  
   809.539    206.816    475.593    105.507     117.45     133.94  
   711.583    231.907    441.705    89.1432    88.5615    172.593  
   704.301    233.609     441.25    115.752    119.998    176.955  
    759.91    217.168    457.942    98.6001     102.38    154.382  
   469.603    234.667    354.131   -95.7565    -92.369     285.52  
   430.549    234.243    339.048   -64.0452   -66.4261    320.928  
   494.295    244.208    365.707   -22.0583    -32.017    279.177  
   492.172    247.597    365.234   -62.8617   -66.8693    273.667  
   431.036    233.888    339.224   -64.0167   -66.0562    320.929  
   494.818     243.41    366.184   -22.3563   -31.3196     279.48  
   492.661    247.076    365.817   -63.1841   -66.1491    273.857  
   466.856    240.138    354.256   -41.8558   -49.9763    299.724  
   467.382     239.58    354.568   -41.9653   -49.4495    299.873  
   469.784    234.624    353.561   -95.4024   -92.8401    285.472  
   431.415    233.637    338.682   -63.7641    -66.325     320.95  
   496.007    243.998    364.856   -21.1758   -31.4862    279.364  
   494.021    247.186     364.83   -62.2784   -66.1785    273.698  
    430.95    233.957    338.828   -63.8739    -66.444    320.969  
   495.207    244.106    365.196   -21.5471   -31.8886    279.312  
   493.163    247.415     364.94   -62.4996   -66.6325    273.709  
   468.108    239.727    353.658   -41.2951   -49.6976     299.81  
   467.489    239.942      353.9    -41.528   -49.9362    299.802  
   471.076    233.987    353.918   -95.2711   -92.2927    285.235  
   432.373    232.904    339.135    -63.491   -65.9638    320.702  
   497.001    243.441    365.671   -20.5165   -30.7541     279.09  
   495.165     246.58    365.888   -61.9091   -65.6504    273.354  
   431.926    233.272    338.911   -63.6492   -66.1007    320.828  
   496.557    243.735    365.295   -20.8687   -31.0267    279.247  
   494.628    246.886    365.391   -62.1265   -65.7992     273.55  
   469.113    239.093    354.283   -40.8304   -49.1612    299.551  
   468.652    239.418    353.985   -41.0849   -49.3644    299.695  
   472.051    233.461    354.399    -95.014    -92.243    284.993  
   432.938    232.438    339.198   -63.0854   -65.7264    320.538  
   497.566    242.613    365.406   -20.0415   -30.5969    278.694  
   496.034    245.913    365.887   -61.6606   -65.7033    273.106  
   432.672    232.659    339.198    -63.282   -65.8688    320.624  
   497.294    243.111    365.639   -20.2308   -30.6776    278.952  
   495.608    246.288    365.958   -61.7254   -65.7187    273.222  
   469.682     238.46    354.203   -40.3859   -48.9323    299.285  
   469.413    238.813    354.305   -40.5836   -49.0658    299.447  
   471.842    233.561    354.408   -95.3107   -91.9637    285.156  
   432.599    232.652    339.278   -63.3114   -65.6629    320.668  
   497.096    241.897     365.87   -20.8931    -30.609    278.904  
   495.333    245.797    366.051    -62.346   -65.5086    273.426  
    469.29    238.246    354.448   -40.8969   -48.9029    299.465  
   545.316    283.499    394.304    45.8841    59.1655    244.676  
   525.043     274.13    386.128    25.8225    40.0735    253.562  
   555.195    286.846    401.545    37.6567    52.7933    232.585  
   525.158     274.57     386.94    28.1972    41.7177    256.828  
   555.258    285.954    400.594    40.5454    52.4173    234.222  
     535.7     283.78    391.762    23.8643    36.9905    239.444  
   535.394    282.082    393.563    25.9041    38.5898     242.56  
   544.867     283.66    394.358    44.3926    58.7116    242.289  
   524.957    276.333    383.084    27.8573     40.265    253.546  
   553.367    289.693    397.032    39.6005    50.4375    232.504  
   524.941    275.657     384.07    27.1515    40.2118    253.409  
   553.523    288.563    399.115    38.9226     50.888    232.086  
   535.459    286.809    388.907    26.4478    37.3502    240.616  
   535.313    285.792    389.921    25.6603    37.1536    240.045  
   544.308    284.836    391.693    45.3392     58.495      242.8  
   525.096    276.763    381.522    28.7805    41.3155    253.883  
   553.305    290.594    394.634    40.1141     51.127     233.08  
   525.066    276.601    382.446    28.3579    40.7479    253.841  
   553.328    290.138    395.999     39.834    50.8765     232.88  
   535.538    287.274     387.43    27.1813    38.2488    240.946  
   535.483    287.074    388.301    26.8415    37.8364    240.889  
    543.16    284.915    389.117    46.4268    60.5286    242.601  
   522.763    275.305    380.754    30.3809    43.3348    253.578  
   550.487    288.428    390.183    42.5361     55.419    230.724  
   524.277    276.389    380.934    29.6093    42.3135    253.633  
   552.814    290.055    392.489     40.893    52.7544    232.228  
   533.549     284.84    385.055    29.2434     41.184    239.278  
   535.046    286.576    386.198    28.0914    39.3496    240.195  
   540.273    282.482    391.412     49.576    61.3202    242.747  
    522.35     274.64     381.24    31.5568    41.0883    254.351  
   548.979    284.999    394.423    45.7965    55.7334    230.887  
   531.952    282.523    386.879    31.2278    39.0992    240.045  
   598.044    271.089    410.602    -27.457   -8.47378    205.836  
   623.218    264.056    429.275   -3.55418    12.2432    196.173  
   570.072    280.678    406.767   -9.48414  -0.488984    215.958  
    626.44    264.038    438.344    -14.393    4.85613    206.272  
   576.063    277.422    404.148   -15.0259  -0.394723    213.929  
   591.641    277.076      416.9     3.6952    15.7571    205.427  
   593.124    272.449     427.14   -4.53319    9.93737    213.943  
    590.98    274.439    411.388   -21.7615   -4.08915    206.138  
   623.925    266.173    420.177   -5.50714      14.33     195.72  
   569.947    283.883    401.692   -10.1614    3.93528    215.676  
   624.092      265.2    423.678   -6.17848    13.7951    196.026  
   569.923    282.757    403.822   -9.96696    3.25869    214.862  
   592.019    280.037    410.193    2.00281    17.2729    206.812  
   592.167    278.651    412.793    1.46974    16.9398    206.611  
   590.656    276.127    407.552   -21.6666   -3.28352    206.975  
   623.773    267.787    416.893   -5.39568    14.2685    196.376  
    569.39    285.052    400.147   -10.4168    3.44601    216.073  
   623.839    266.942    418.663   -5.64524    14.4929    196.078  
   569.632    284.477    400.895    -10.187    3.68824    215.921  
   591.938    281.382    407.227    1.95218    17.1334    207.351  
   591.951    280.673    408.809    1.79486    17.4078    207.158  
   590.284    276.818    402.794   -22.1297   -5.04056    206.589  
   624.964    268.269    404.612   -4.35616    11.7705    194.196  
   569.014    283.167    391.625   -12.3548   -4.02926    210.736  
   623.744    268.078    413.208   -6.07147    13.4105    195.548  
    569.23    284.596    396.756   -10.9131    1.85374    215.172  
   592.537    280.593    395.485    2.90962    15.0887    204.256  
   591.948    281.008     403.89    1.27757     16.312    206.085  
    578.79    271.513    405.888   -30.9774   -12.8117    205.669  
   619.816    263.054    399.658    -14.456    0.96585    183.942  
   557.786    277.838    400.068   -19.6015   -5.29563    214.216  
   590.021    271.269    392.519   -7.34959    5.07608    193.421  
   578.828    271.534    405.737   -30.3615   -12.3317    205.411  
   624.972    268.378    404.561   -3.95039    12.1311    194.267  
   569.433     283.39    391.457   -11.6916   -3.42852    210.451  
   619.763    263.074    399.379    -14.124    1.17397    183.812  
   557.879    277.823     400.01   -19.2309   -5.00423    213.881  
   592.621    280.711    395.476    3.24549    15.4331    204.289  
   590.095    271.251    392.266   -7.06423    5.28638    193.212  
   590.375    276.997    402.807   -21.3576   -4.29578     206.51  
   623.709    267.889     416.88   -5.02264     14.555    196.421  
   569.556    285.278    400.256   -9.84734    4.00499    215.914  
   623.689    268.176    413.192   -5.70275     13.708    195.581  
   569.435    284.814    396.824   -10.3369    2.46494    215.012  
   591.959    281.488    407.247    2.24782    17.3892    207.353  
   591.977    281.108    403.912    1.57233    16.5776    206.075  
   590.713    276.307    407.602   -20.8889   -2.56526    206.907  
   623.857    266.273    420.171   -5.13245    14.6148    195.765  
    570.12    284.106    401.791   -9.59199    4.48739    215.533  
   623.773    267.042    418.655   -5.27434    14.7823    196.123  
   569.801    284.701    400.996   -9.61633    4.26313    215.771  
   592.035    280.144    410.221    2.29801    17.5247    206.812  
    591.97    280.779    408.835    2.08682    17.6637     207.16  
   591.011    274.598    411.465   -20.9895   -3.35269    206.063  
   623.085    264.133     429.28   -3.15195    12.5773    196.177  
   570.093    280.855    407.023   -8.86776  0.0557654    215.825  
    624.02    265.294    423.677   -5.81065    14.0916    196.072  
   570.075    282.961    403.941   -9.41215    3.84535    214.696  
   591.614    277.168    416.911    4.00497    16.0629     205.37  
   592.183    278.751    412.823    1.75532     17.197    206.615  
   598.138    271.149    410.856   -26.7946   -7.91954    205.833  
   626.392    264.121    438.617   -14.0389    5.09696    206.449  
    576.38    277.491    404.421   -14.5716 0.00499901    213.767  
   593.141    272.498    427.445   -4.24527    10.1631    214.053  
   539.719    282.809    391.266    48.1244    59.5224    242.119  
   523.113    275.902    380.955    30.1507    42.9916     253.02  
    550.44    288.837    390.118    41.9452    54.7083    230.331  
   522.601    275.144    381.403    31.3398    40.6706    253.809  
   548.871    285.267    394.437    45.2703    55.0837    230.475  
   533.572    285.028    385.072    28.9299     40.798    239.081  
   531.934    282.646    386.874    30.9352    38.6821    239.856  
   542.705     285.44     388.97    44.8933    58.7023    241.982  
   525.439    277.405    381.773    28.5288     40.945     253.37  
   553.213    291.067    394.691    39.5088    50.4073    232.751  
   524.628    277.012    381.158    29.3701    41.9496    253.096  
    552.75    290.507    392.504    40.2903    52.0238    231.873  
   535.535    287.491    387.475    26.8708    37.8652    240.782  
   535.055    286.783    386.234     27.784    38.9575    240.018  
   543.803    285.401    391.571    43.7765    56.6704    242.225  
   525.287    276.978    383.315    27.6093    39.8978    253.038  
   553.274    290.169    397.047    38.9914    49.7193     232.18  
     525.4    277.245    382.684    28.1103    40.3865    253.332  
   553.234    290.613    396.038    39.2248    50.1602    232.553  
   535.454    287.032    388.928    26.1376    36.9675    240.457  
   535.478    287.295    388.333    26.5316    37.4546    240.727  
   544.302    284.193    394.212    42.7928    56.8239    241.674  
   525.325    274.695    386.356    25.5062    39.6268    252.957  
   555.046    287.242    401.601    36.9868    52.0447     232.19  
   525.262    276.286    384.287    26.8964    39.8265    252.875  
   553.404    289.016    399.142    38.3044    50.1368    231.735  
   535.669    283.968    391.762    23.5286    36.5611    239.228  
   535.297    286.006    389.927    25.3491    36.7544    239.872  
   544.749    283.847    394.342    44.2319    57.3284    244.147  
   525.446    275.068    387.296    27.8649    41.3382    256.296  
   555.148    286.267    400.724    39.8961    51.6839    233.871  
   535.357    282.201    393.654    25.5496    38.1988    242.362  
   685.845     229.04    435.631    139.298     151.49    198.866  
   799.467    193.965    471.169    134.436    179.072    152.787  
   685.862    230.109    434.299    140.167    150.771    198.847  
   799.634    195.075    470.251    135.291    178.266    152.479  
   732.213    193.858    445.409    158.177    186.946    195.936  
   732.018    194.919    444.674    158.831    186.231    195.731  
   681.931    227.492    434.323    137.276    148.893    197.679  
   794.922    191.953     469.39    132.025    175.982      151.4  
   683.488    228.026    435.133     138.07    150.179    198.191  
   796.758    192.713    470.322    132.991    177.514    152.065  
   728.525    192.137    444.024    156.321    184.655    194.676  
   730.078    192.769     444.77    157.068    185.837    195.289  
   680.854    227.805    432.003    136.618    148.402     197.84  
   793.675    191.791    467.655    131.213    175.108    151.239  
   681.383    227.633    433.079    136.978    148.476    197.683  
    794.26    191.852    468.442    131.634    175.366    151.214  
   727.114    192.143    442.361    155.669    184.072    194.578  
   727.792    192.125    443.132     156.01    184.185    194.525  
   679.091    228.998    431.669    136.427    149.618    198.104  
   792.286    192.868    467.264    130.985    175.985    151.464  
   680.099    228.314    431.687    136.405    149.031     198.07  
   793.068    192.195    467.358    130.994    175.562    151.439  
   725.642    193.223    442.088    155.581     184.88    194.873  
    726.43    192.569    442.124    155.525    184.525    194.804  
   680.576    229.973    432.388    138.069    149.439    198.188  
   794.022    194.244    468.045    132.746     176.14    151.485  
   727.126    194.405    442.834    156.963    184.825    194.934  
   473.391    229.066    354.032   -106.504   -100.553    285.502  
   532.025    228.201    376.099   -111.619   -102.198    250.511  
   456.918    215.246    344.805   -170.731   -133.228    299.122  
   531.314    228.627      375.9   -112.032   -101.827    250.763  
   456.417    215.732    344.763   -170.808    -133.05    299.167  
   544.352    195.989    374.032   -169.317   -137.581    252.786  
   543.667      196.6    373.853   -169.496    -137.27    252.838  
   473.583    228.849    354.037   -106.258   -100.839    285.358  
   530.666    228.241    375.845   -111.365   -101.755    250.472  
   456.184    215.549    344.674   -170.709   -133.243    299.226  
   531.313    228.161    376.041   -111.427   -102.041    250.462  
   456.575    215.347    344.765   -170.709   -133.272    299.183  
       543    195.987    373.686   -168.944   -137.217    252.666  
   543.663    195.907    373.896   -169.087   -137.456     252.73  
   472.595    229.361    353.561   -106.456   -100.868    285.577  
   529.426     228.82    374.655    -111.27   -101.961    250.833  
   455.026    216.305    344.094   -170.499   -133.502    299.554  
   530.063    228.529    375.262   -111.354    -101.73    250.643  
   455.631    215.925    344.395   -170.631   -133.309    299.362  
   541.594    196.609    372.777   -168.633   -137.378    252.972  
   542.313    196.297    373.239   -168.816   -137.193    252.774  
    471.32    230.021      353.2   -106.519    -101.37    285.834  
   527.618    229.473    374.705   -111.337    -102.68    251.043  
   453.918    217.155    344.142   -170.385   -133.712     299.68  
   528.582    229.153    374.585   -111.233   -102.405    250.978  
   454.444    216.735    344.071   -170.401    -133.68    299.671  
   539.979    197.485    372.657   -168.467    -137.89    253.238  
   540.798    197.032    372.651   -168.497   -137.713    253.164  
   471.194    230.135    353.722   -106.832   -100.915    285.854  
   528.228    229.446    375.243   -111.849     -102.1     251.07  
   454.471     216.99    344.424   -170.624   -133.318    299.506  
   540.698    197.567    373.108   -168.942   -137.442    253.095  
   525.883    232.842    374.758   -104.179   -97.5074    251.527  
   455.317    220.252    345.341   -161.187   -128.519    298.538  
   526.479    232.776    375.312    -104.69   -96.9041    251.576  
   455.864     220.07    345.633   -161.421   -128.101    298.391  
   538.553    200.785    372.813   -163.075   -134.594    253.982  
   539.262    200.851     373.27   -163.546   -134.133    253.855  
   527.733     232.21     374.68   -104.067    -96.754    251.336  
   456.462    219.429    345.262   -161.253    -128.29    298.423  
   526.875    232.535    374.621    -104.05    -97.216    251.469  
   455.867    219.846    345.251   -161.177    -128.48    298.532  
   540.179    199.926    372.913   -163.215    -134.07    253.727  
   539.381    200.342    372.795   -163.091   -134.412    253.912  
   528.956    231.627    375.902   -104.122   -96.5264    250.966  
    457.62    218.687    345.874   -161.413   -128.018    298.094  
   528.363    231.916    375.305   -104.132   -96.5099    251.146  
   457.067    219.056    345.579   -161.361   -128.087    298.235  
   541.573    199.306    373.842     -163.5   -133.901    253.417  
   540.892    199.615    373.386   -163.386   -133.879     253.53  
   530.309    231.536    376.141   -104.351   -96.9662    250.988  
   458.368    218.366    345.997   -161.402   -128.005    297.978  
   529.598    231.529    376.093   -104.168   -96.8101    250.943  
   458.017    218.482    345.965   -161.394   -128.049    298.043  
   542.917    199.291    374.176    -163.85   -134.262    253.522  
   542.232    199.221    374.049   -163.631   -134.138    253.471  
   529.591    231.922    375.955   -104.798   -96.5958    251.263  
   457.852    218.818    345.962   -161.519   -127.818    298.046  
    542.23     199.88        374   -164.049   -133.947    253.592  
   679.283    229.157    431.772     136.16     149.35    197.794  
   792.295    192.931    467.279    130.917    175.838    151.424  
   680.772    230.134    432.491    137.806    149.172    197.876  
    794.03    194.307     468.06    132.678    175.994    151.444  
   725.839    193.295    442.177    155.477    184.756     194.66  
   727.324    194.478    442.923    156.862    184.702    194.721  
    681.05    227.962    432.109    136.352    148.131     197.53  
   793.682    191.852     467.67    131.146     174.96    151.199  
   680.294    228.472    431.791    136.139    148.761    197.761  
   793.076    192.257    467.373    130.926    175.414    151.399  
    727.31    192.215     442.45    155.566    183.946    194.365  
   726.626    192.641    442.212    155.421    184.399    194.592  
   682.122    227.648    434.435    137.011    148.623    197.368  
   794.926    192.013    469.406    131.959    175.835    151.359  
   681.576    227.789    433.188    136.712    148.205    197.372  
   794.266    191.913    468.458    131.567    175.218    151.173  
   728.719     192.21    444.115    156.218     184.53    194.462  
   727.986    192.198    443.222    155.907    184.059    194.311  
   686.047    229.199    435.748    139.037    151.228    198.557  
   799.471    194.025    471.186     134.37    178.926    152.746  
   683.682    228.182    435.248    137.806    149.911     197.88  
   796.761    192.773    470.339    132.924    177.366    152.024  
   732.408    193.933    445.502    158.076    186.825    195.724  
   730.271    192.842    444.863    156.966    185.713    195.076  
   686.068    230.268    434.408    139.909    150.509    198.537  
   799.641    195.136    470.265    135.226    178.121    152.438  
   732.217    194.995    444.764    158.732     186.11    195.518  
   488.595    239.863    363.347    -4.9972    -13.224     289.55  
   489.372      239.1    363.612    -5.4006   -12.5117    289.813  
   490.119    229.907    362.048     2.3788   -1.03645    296.587  
   491.282    229.033    362.665    1.99026  -0.123464    296.663  
   489.815    239.955    361.794   -4.10405   -13.1891    289.815  
   489.204    239.867    362.439   -4.55435   -13.4144    289.803  
   490.966    230.088    360.333    3.08411   -1.21308    296.641  
   490.564    229.973    361.029    2.68842   -1.31116    296.697  
   490.695    239.538    362.202   -3.23483   -12.3408    289.658  
   490.322    239.788    362.022   -3.67876   -12.7156    289.785  
   491.576    229.793    360.442    3.87642  -0.470277    296.553  
   491.355    229.958    360.433    3.46719  -0.821325    296.643  
   490.714    239.139    361.402   -2.48697   -11.8849    289.369  
   490.774    239.302    362.063   -2.88838   -12.0723    289.664  
   491.502    229.675    359.817    4.54042  0.0865056    296.697  
   491.645    229.543    360.455     4.1564  -0.177384    296.605  
    490.62    237.498    362.042    -3.5077   -12.2232    288.911  
   491.798    228.061    359.723    3.83363  -0.405252    295.635  
   734.644    219.159    442.941    61.3301    70.3444    163.089  
    731.03    221.292    442.833    68.8958    72.9322    161.146  
   754.705    205.751    448.478    41.8297    56.7719    158.511  
   750.407      211.9    442.082    49.4392    61.4354    153.658  
   734.694    215.827    450.423     63.169    66.3412    163.438  
   735.097    217.142    447.456    63.0136    66.8422     163.97  
   753.644     202.27    454.967    44.1856    54.9934    157.107  
   753.716    203.917    452.515    44.3682    55.1954    157.887  
   735.368    214.433     452.74    63.5477    66.6161     163.01  
   735.006    215.118    451.544    63.3291    66.4163    163.156  
   753.965    201.033    457.395    44.4812    55.1808    156.825  
   753.774     201.66    456.101    44.4479    54.9487    156.876  
   736.254    215.986    463.623    64.6602    73.0327    168.162  
   735.493    214.802    456.668     64.258     67.831    164.193  
   753.278    202.835    469.028    44.1888    58.3577    161.829  
   754.183    201.708     460.78    45.2097    56.0551    158.267  
   744.032    221.076    458.929       73.3    77.8823    169.637  
   759.022    212.328    468.158    54.2651    67.3309    169.072  
    736.28    215.985    463.633    64.6768    73.0474    168.152  
   744.061    221.076    458.937     73.316    77.8908    169.625  
   753.265    202.848    469.027    44.2044    58.3697    161.836  
   759.012    212.342    468.153    54.2819    67.3382    169.075  
   735.391    214.431    452.748    63.5605    66.6254    162.997  
   735.516      214.8    456.678    64.2714    67.8416    164.181  
   753.951    201.045    457.392    44.4951    55.1891    156.828  
   754.169     201.72    460.779    45.2237    56.0638    158.271  
   734.717    215.826    450.432    63.1817    66.3504    163.425  
   735.029    215.116    451.553    63.3417    66.4262    163.143  
    753.63    202.283    454.964    44.1991    55.0018     157.11  
    753.76    201.672    456.098    44.4615    54.9573    156.879  
   734.665    219.156     442.95    61.3405     70.356    163.077  
   735.121    217.141    447.464    63.0252    66.8523    163.957  
   754.691    205.763    448.474    41.8422    56.7825    158.514  
   753.702    203.929    452.512    44.3814    55.2042     157.89  
   731.054    221.291    442.844    68.9049    72.9391    161.135  
   750.393    211.911    442.082    49.4507    61.4423    153.662  
   370.338    237.411    316.607    -69.794   -63.9659    353.533  
   493.357    242.269    364.134   -70.1414    -72.736    275.511  
   425.527    233.237    336.601   -90.6756   -83.8416    321.142  
    420.93    233.092    334.679   -41.1315   -47.1583    332.499  
   492.687    242.261    364.252    -70.728   -72.5337    275.801  
   425.151    233.556    336.638   -90.8571    -83.732    321.246  
   420.749    233.106    334.836   -41.3466   -47.2025     332.57  
   458.893    238.206    350.164   -57.0662   -60.9848    305.361  
   458.478    238.194    350.316    -57.472   -60.9146    305.532  
   370.335    237.301     316.52   -69.9593   -64.1135     353.58  
   492.503    242.842    364.114   -70.3635   -72.7101    275.719  
   424.935    233.655    336.519   -90.9925   -83.9966    321.301  
   420.518    233.576    334.682    -41.659   -47.5571    332.681  
   492.943     242.58    364.189   -70.1995   -72.7682    275.606  
   425.249    233.418    336.588   -90.8268   -83.9452    321.222  
   420.744    233.339    334.718   -41.4028   -47.3677    332.618  
   458.279    238.766    350.166   -57.4522   -61.1763    305.584  
   458.602    238.502    350.212    -57.237   -61.1048    305.486  
   369.777    237.953    316.355   -70.2835   -64.3832    353.756  
   491.341    243.456    363.119   -70.6729   -73.1921    276.055  
   423.971    234.415    336.049   -91.1395   -84.3056    321.572  
   419.628    234.263    334.375   -42.0497    -47.976    332.878  
   491.956    243.151    363.644   -70.5506   -72.8412    275.905  
    424.48    234.034    336.289   -91.0901    -84.103    321.433  
   420.111    233.925    334.525   -41.8691   -47.7458    332.782  
   457.263     239.44    349.563    -57.807   -61.6316    305.854  
   457.808    239.107    349.876   -57.6533   -61.3419    305.729  
   369.094    238.724    316.382   -70.4239   -64.5653    353.852  
   489.628    243.919    363.498   -71.1579   -73.7753    276.076  
   423.085    235.091    336.304   -91.2998   -84.4327    321.581  
   418.997    234.798    334.902   -42.4067   -47.9367    332.785  
   490.529    243.708    363.222   -70.8511     -73.59    276.091  
   423.501    234.772    336.139   -91.1892   -84.4351     321.61  
   419.257    234.535     334.61   -42.2069   -48.0243    332.866  
     456.1    239.939    350.022   -58.2283    -61.879    305.815  
   456.678    239.706     349.74   -57.9756   -61.8421    305.865  
    369.34    238.703    316.631   -70.3865    -64.281    353.696  
   490.143    243.474    364.019   -71.4444   -73.1019    276.219  
   423.557    234.789    336.503   -91.3233   -84.0609    321.522  
   419.526     234.37    335.006     -42.29    -47.628    332.822  
    456.61    239.463    350.306   -58.3119   -61.3953     305.89  
   572.111    276.137    396.187   -25.2798   -14.8808    213.024  
   538.825    284.662    387.405   -5.09889   0.182453    230.258  
   570.213    273.815    399.797   -28.8929   -14.0966     212.92  
   536.963    281.329    390.689   -8.51685   0.685486    230.837  
   552.214    280.392    390.487   -14.1477    -6.9664    222.567  
   550.516    277.293    394.239   -17.4354   -6.11167    222.858  
   576.247    276.969     400.93   -23.3857   -8.74541    215.257  
   541.954    286.893    389.798   -2.65226    4.58816    233.188  
   575.527    276.979    398.451   -23.8491   -10.7698    214.498  
   541.296    286.184    388.565   -3.55137    2.83651    232.114  
   555.911    281.917    394.117    -11.871   -1.62491    225.151  
   555.241    281.537     392.29    -12.568   -3.48487    224.187  
   576.712    275.841    403.385   -23.1911   -8.31578    214.527  
   542.394    286.155    391.356   -2.09474    5.32197    232.766  
   576.466    276.394    402.212   -23.3018   -8.68154    214.963  
   542.146    286.533    390.686    -2.3771    4.89806    233.092  
   556.387    281.002    396.108   -11.4811   -0.99961    224.593  
   556.131    281.464    395.204   -11.6899   -1.41418    224.946  
   579.485     273.67    406.506   -23.2987   -11.8924     214.38  
   543.309     283.74    391.425  -0.684818    3.66633    231.143  
   577.112    274.925    405.163   -23.1705    -9.4942    214.321  
   542.415    285.059    391.883   -1.57268    5.00877    232.146  
   558.273    278.472     397.81   -10.8227   -3.44699    223.598  
   556.566    280.016    397.215   -11.1918   -1.74833    224.135  
   578.648    271.851    406.536   -26.7175   -11.2452    215.705  
   541.865    278.839    393.726   -4.49703    4.03642    231.489  
   556.905    275.515    398.811    -14.229   -3.10961    224.672  
   563.603    278.958    401.936    52.2681    66.7493    234.946  
   584.787    280.113    417.416    39.2786    53.9959    216.687  
   563.219    278.694    400.385    54.4896    66.5709    235.803  
   594.967     278.25    414.572     46.277     57.479     216.23  
   577.111     279.95    409.589     45.797      59.99    223.658  
   578.591    278.353    408.569    49.4184    60.5252    225.062  
   560.732    280.033    398.725    53.0371    64.3342    233.925  
   585.826    282.692    408.125     41.311     49.697    215.143  
   561.581    279.436    400.388    52.6646    65.4257    234.042  
   585.728    281.644    411.534     41.045    50.0532    214.674  
   574.897    281.694    404.111    47.0178    56.3617    222.925  
   575.053    280.793    406.727    46.6172    57.2284    222.881  
   560.863    280.975     395.67    53.4807    65.0256    234.558  
   585.503    284.032    405.884    41.6328    50.1389    215.553  
   560.831    280.525    397.289    53.2993    64.7443     234.36  
   585.636    283.374    407.118    41.3921    49.8656     215.38  
   574.686    282.809    401.366    47.3518      56.92      223.6  
    574.77    282.251     402.84    47.1727    56.7747    223.333  
   557.181    279.995    393.446    55.4989    68.8985    233.454  
   586.279    282.462    395.718    42.9075    56.4111    210.465  
   559.734     280.84    394.324    54.1397    66.7954    234.257  
   585.733     283.69    402.166    42.1625     51.278    214.854  
   571.952    281.416     395.91    49.2793    62.2051    221.089  
    574.38    282.574    398.744    47.9656    58.5529    222.869  
   556.718    279.042    396.098     57.284    67.8387    234.082  
   576.968    277.296    402.536    50.9986    59.5888    211.819  
   570.359    278.738    399.487    53.2124    62.3318    220.761  
   556.903    280.475    393.267    54.3917    67.7385        233  
   586.241    282.509    395.635     42.712    56.2492    210.413  
   556.345    279.403    396.014    56.2606    66.7173    233.617  
   576.841     277.27    402.467    50.8803    59.5206     211.76  
   571.693    281.671    395.758    48.6917    61.5845    220.951  
   570.038    278.904    399.372    52.6779    61.7553    220.597  
   560.567    281.546    395.652    52.3224      63.78    234.188  
   585.384    284.083    405.844    41.4645    50.0228    215.533  
   559.469    281.385    394.238    52.9982    65.5655    233.853  
   585.616    283.737    402.129    41.9953    51.1415    214.837  
   574.391    283.115    401.311    46.7514    56.2808    223.512  
   574.107    282.864    398.655    47.3693    57.9039    222.765  
   560.423      280.6    398.673    51.8738      63.08    233.557  
   585.709    282.745    408.089    41.1414    49.5823     215.13  
   560.527    281.093    397.259    52.1361    63.5113    233.993  
   585.517    283.426    407.078    41.2241    49.7392    215.365  
   574.603    281.999    404.029    46.4128    55.7204     222.84  
   574.474    282.557    402.774    46.5683    56.1358    223.247  
   563.249    279.429    402.001    51.0188    65.5033    234.538  
   584.595     280.15    417.398    39.0867    53.8344    216.669  
   561.233    279.968    400.382    51.4762     64.155    233.645  
   585.613    281.692    411.485      40.88    49.9191    214.653  
   576.769    280.207     409.56    45.1501    59.3336    223.538  
   574.736     281.08    406.662    46.0034     56.562    222.781  
   562.912    279.093    400.489    53.2962    65.3689    235.433  
   594.886    278.257    414.581    46.1235    57.3984    216.198  
   578.286    278.546    408.591    48.7947    59.9003     224.97  
   579.346    273.241    406.228     -24.62   -13.1485    214.542  
    542.09    282.424    390.653   -1.64268    2.41619    232.509  
    578.42    271.526     406.22   -27.9099   -12.4786    215.839  
   540.631     277.81    392.807   -5.30713    2.75781    232.839  
   557.395    277.662      397.2   -11.9238   -4.76162    224.404  
   555.978    274.874    398.129   -15.1886    -4.4205    225.448  
   576.538    275.353    403.249   -24.4763   -9.65716    214.676  
   541.165     284.74    390.641   -2.97948    3.97403    234.027  
   576.972    274.455    404.962   -24.4632   -10.8371    214.483  
   541.219    283.691    391.117   -2.46465    3.66011    233.446  
   555.495    280.108    395.621   -12.5338   -2.41837    225.347  
   555.708    279.153     396.66   -12.2469    -3.1646     224.91  
   576.065    276.466    400.762   -24.6682   -10.0846    215.407  
   540.715    285.471    389.058   -3.55566    3.22024    234.446  
   576.289    275.898    402.061   -24.5895   -10.0108    215.114  
   540.916    285.116    389.961   -3.27479    3.55548    234.354  
   555.009    281.012    393.599     -12.93   -3.05291    225.903  
   555.236    280.565    394.703   -12.7496   -2.82329    225.701  
   571.872      275.7    396.272   -26.5399   -16.0902    213.294  
    537.52    283.395    387.009    -5.9709  -0.992211    231.744  
     575.3    276.497    398.382   -25.1246   -12.1045    214.679  
   539.994    284.809    387.962   -4.45004    1.49272    233.444  
   551.253    279.592    390.285   -15.1799   -8.22112    223.491  
   554.282    280.662    391.898   -13.6258    -4.9011    224.989  
   570.154      273.5     399.78   -29.9984   -15.2255    213.206  
   535.871    280.292    390.093   -9.14754  -0.398792     232.34  
   549.756    276.677     393.88   -18.2749   -7.28478    223.806  
   332.991     244.59    303.877    9.51892     7.3883    387.121  
   438.506    208.726    336.394    5.25692    5.37543     342.19  
   446.128    216.661    340.852    -7.1954   -14.1124    329.975  
   351.736    243.612    310.867   -31.2039   -29.3641    373.358  
    391.81    226.762    322.644    6.92125     5.4295    363.881  
   446.129    216.606    340.963   -7.24159   -14.2309    330.064  
   351.653    243.998    310.868   -31.1907   -29.4507    373.375  
   391.851    227.109    322.543    7.09425    5.27449     363.93  
   406.245    231.069    328.846   -17.8326   -21.8788    350.647  
   406.179     231.23    328.875   -17.8563   -21.9851    350.694  
   332.824    244.028    303.831    9.12761     7.3703    386.998  
   438.161    208.553    336.345    4.63899    5.15558    341.952  
   445.742    217.045     340.78   -7.75655   -14.6633    330.008  
   351.386    243.871     310.72   -31.6747   -29.6674    373.362  
   391.435    226.857     322.35    6.39615    4.95138    363.671  
    445.94    216.859    340.861   -7.51452     -14.41    330.025  
   351.565    243.689    310.805   -31.4694   -29.5228    373.352  
   391.617    226.742    322.513    6.59868    5.16681    363.758  
   405.854    231.374    328.712   -18.3569   -22.3124    350.651  
   406.055    231.193    328.806   -18.1293   -22.1112    350.656  
   332.425    244.523    303.609    8.83385    7.14674    386.997  
   437.677    209.004    336.034    4.34393    4.76364    341.895  
   444.949    217.679     340.54   -8.14319   -15.0386    330.152  
    350.77    244.672    310.548   -31.8544   -29.8634    373.532  
   390.803    227.557    322.161     6.1994    4.78726    363.791  
   445.391    217.373    340.643   -7.95402    -14.845    330.076  
     351.1     244.27    310.622   -31.7737   -29.7685    373.445  
   391.151    227.212    322.234    6.29993    4.85336    363.729  
   405.114    232.081     328.49   -18.6464      -22.6    350.806  
   405.518    231.732    328.587   -18.5081   -22.4559    350.728  
   332.066    245.251    303.698    8.68577    7.10583    387.036  
   437.138    209.524    336.231    4.11714    4.74643    341.978  
   444.507    218.088    341.203   -8.58757    -14.907    330.062  
   350.515    245.318    310.836   -31.9882   -29.8451    373.406  
   390.705    228.068    322.598    5.98321    4.86158    363.714  
   444.656    217.885    340.847   -8.32688   -15.0307    330.147  
   350.588    245.021    310.681   -31.9125   -29.8695    373.504  
   390.673    227.833    322.364    6.10889     4.8201    363.788  
   404.745    232.595    328.954   -18.9371   -22.5316    350.705  
   404.865    232.353    328.703   -18.7708   -22.6008    350.792  
   332.475    245.439    303.847    8.89306     7.0535    386.924  
   437.779    209.543    336.439    4.24547    4.81264    341.993  
   445.102    217.716    341.181   -8.38538   -14.7603    330.169  
   350.897    245.078    310.861   -31.7925   -29.7612    373.357  
   391.197     227.93    322.545     6.2759    4.82967    363.734  
   405.247    232.289    328.965   -18.7375   -22.4062    350.726  
   913.425    183.045    509.918   -6.73649       27.6    75.5283  
    898.27    183.971    507.416     39.028    64.6617    93.2797  
     933.5    213.938    525.975    6.76604    40.5394    47.4894  
   899.686    204.566    511.905    71.0328    118.648    85.1076  
   900.475    186.411      505.7    39.2858     64.157    92.2363  
   935.429    215.404    525.745    6.02784     39.687    46.8101  
   901.217      206.1    510.721    71.7114    117.898    84.4086  
   922.154    211.113    521.471    38.9299    83.8967    66.4514  
   923.914    212.609     520.72    38.9514    83.0898    65.7276  
   910.388    179.295    510.404   -7.45039    27.3523    75.8701  
   894.944    181.643    505.709    36.2062    61.6807    91.3508  
   931.264    212.366    525.099    4.29843    38.5762    46.6874  
   895.009    202.385     509.81    67.9891    114.918    83.6073  
   896.108    182.447    506.538    37.3018    62.9284    92.2569  
   932.126    212.942    525.468    5.37332    39.5033    47.1165  
   896.773    203.202    510.838    69.2189    116.622     84.305  
   918.506    209.167    519.891    36.0885    80.8968    65.2756  
   919.885    209.894    520.629    37.2723    82.2804    65.8505  
   909.977    178.396    510.253   -8.93489     26.003    74.8772  
   894.843    181.738    505.179    35.1869    60.3927    91.3014  
    931.48    212.383    525.329    2.87348    36.8804    46.6316  
   894.469    202.215    508.689    66.8042    113.477    83.4571  
   894.876    181.676    505.278    35.7024     61.042    91.1811  
   931.313     212.35    525.096    3.58191    37.7398    46.5681  
   894.695    202.276    509.123    67.4049    114.116    83.4206  
   918.323    209.061    519.423    34.7586    79.2954    65.1597  
   918.363     209.09    519.532    35.4263    80.0572     65.115  
   911.451     179.13      511.4   -10.4216    24.0661    75.6127  
   896.538    184.187    505.752    33.2002    58.9455    92.4132  
   934.749    214.073    526.672   0.622105    34.2841    47.3392  
   894.885    203.712    508.742     65.601    113.097    83.8244  
   895.514    182.626    505.413    34.3796    59.7343    91.9279  
   932.748    213.007    525.944    1.89695    35.6787    47.0007  
   894.654     202.75    508.632    66.2109    113.286     83.731  
   920.107    210.626    520.093    33.0445    77.8322    65.6834  
   919.029    209.626    519.688    33.9757    78.6145    65.4752  
   915.348    182.876    510.624   -11.5061    23.1743    75.3132  
   898.639     186.54     504.74     34.431    59.6039     91.465  
   936.499    215.515    526.167    1.29424    35.1118    46.7169  
   896.984    205.458    508.884    67.4505    113.778    83.3794  
   922.117    212.251    519.915    34.3778    78.6056     65.128  
   260.096    290.455    285.946    12.2837    3.42071    418.855  
   310.601     266.84     300.07   -110.429    -83.108    380.198  
   260.141    290.926    285.947     12.349    3.32601    418.839  
     310.5    267.184    300.123   -110.413   -83.1125    380.186  
   283.069    283.896    293.243   -49.4447   -40.0538    402.677  
    283.04    284.284    293.266   -49.4053   -40.1073    402.659  
   259.885    290.409    285.786    11.7406     3.2463    418.702  
   310.425    267.183    300.067   -110.769   -83.2912    380.369  
   259.982    290.349    285.863    11.9738    3.33038    418.757  
   310.526    266.975    300.076   -110.622   -83.2041    380.287  
   282.885     284.04    293.166   -49.8946   -40.2261    402.693  
   282.978    283.911    293.207   -49.7009   -40.1427    402.676  
   259.627    291.099    285.722    11.5253    3.17669    418.834  
   309.937    267.959    299.942   -110.741   -83.4852    380.617  
   259.765    290.751    285.742    11.6278    3.20256    418.762  
   310.202    267.566    300.004   -110.775   -83.3802    380.487  
   282.538    284.762    293.082   -49.9878   -40.3523    402.878  
   282.726    284.397    293.117   -49.9543    -40.291    402.781  
   259.684    291.746    285.959    11.4355    3.15668    418.668  
   309.684     268.69    300.155   -110.717   -83.4524     380.48  
   259.618    291.441    285.833    11.4742     3.1722    418.787  
   309.771    268.345    300.034   -110.707   -83.4985    380.592  
   282.442    285.434    293.297   -50.0246   -40.3408    402.715  
   282.455    285.118    293.181   -49.9975   -40.3573    402.836  
   259.904    291.688    285.973    11.7158    3.13361    418.633  
    309.95    268.399    300.202   -110.679   -83.3038    380.339  
   282.667    285.254     293.32   -49.8645   -40.2873    402.628  
   349.062    240.638    309.093    36.1462    29.1765      382.8  
   372.414     235.23    317.092   -3.22882   -7.00559    368.226  
   270.257    287.952    289.175    31.9599    19.8874    416.213  
   328.851     261.31    305.948   -81.4626   -65.2339    375.423  
   372.844     235.04    317.094   -2.97765   -6.97248    368.219  
   270.502    287.969    289.197    32.2741    19.8284    416.197  
   329.175    261.011    305.988   -81.3689   -65.0869    375.326  
   298.805    277.025    297.777    -31.434   -25.7941    398.106  
   299.077    276.868    297.796   -31.2411   -25.7571    398.043  
   348.645    240.316    308.935    35.8776    29.3323    382.862  
   372.644    234.634     316.74   -3.03899   -7.02756    368.337  
    270.21    287.308    288.936    32.0491    19.9163    416.348  
   329.123    260.629    305.673   -81.3947   -65.2766    375.564  
   372.464    234.952    316.904   -3.12743   -7.02316    368.316  
   270.193    287.648    289.046    31.9945    19.9162    416.316  
    328.94    260.989    305.797   -81.4104   -65.2855    375.533  
   298.916    276.376    297.535   -31.3598   -25.8036    398.259  
   298.819     276.72    297.647   -31.3903   -25.8063     398.22  
   349.034    239.609    308.893     36.009    29.3186    382.795  
   373.299    233.856     316.94    -2.8112   -6.83906    368.195  
   270.505    286.623    289.048    32.2686    19.9551    416.225  
    329.68    259.864    305.819    -81.312   -65.0539    375.345  
   372.997    234.248    316.823   -2.92799   -6.94388    368.264  
   270.367    286.964    288.978    32.1573    19.9216    416.279  
   329.424    260.243    305.742   -81.3701     -65.16    375.452  
   299.324    275.654    297.647    -31.226   -25.6729     398.09  
   299.136    276.012    297.581   -31.3028   -25.7434     398.17  
   349.467    239.182    309.221     36.266     29.514    382.871  
   373.685    233.697    317.148   -2.29391   -6.46883    368.298  
   270.764    286.764    289.268    32.8191    20.1416    416.468  
   329.923    259.524     305.86   -80.9026   -64.8062    375.211  
   373.494    233.713    317.062   -2.59421   -6.66175    368.234  
   270.624    286.595    289.156    32.5001    20.0444    416.316  
   329.813     259.66    305.851   -81.1309   -64.9351    375.281  
   299.567     275.54    297.771    -30.752    -25.457    398.125  
   299.445    275.535    297.714   -31.0234   -25.5688    398.095  
   349.615    239.975    309.211    36.7468    29.4986    383.118  
   373.619    234.074    317.101   -2.25552   -6.60924    368.321  
   270.798    287.307    289.229    32.9165    20.0276    416.467  
   329.827    259.827    305.913   -80.9147   -64.8394    375.212  
   299.537    275.944    297.773    -30.707   -25.5351    398.118  
   915.358    182.881     510.63   -11.5134    23.1674    75.3045  
   896.548    184.181    505.754    33.1835    58.9304    92.4075  
   934.756     214.08    526.676   0.618363    34.2776    47.3318  
   894.909    203.699    508.748     65.585    113.074     83.818  
   898.648    186.534    504.742    34.4137    59.5889    91.4597  
   936.506    215.521    526.171    1.29033     35.105      46.71  
   897.006    205.446    508.889    67.4339    113.756    83.3731  
   920.113    210.626    520.096    33.0368    77.8242     65.679  
   922.122     212.25    519.917    34.3697    78.5976    65.1239  
   911.462    179.136    511.405   -10.4293    24.0591    75.6038  
   894.852    181.732    505.181    35.1698    60.3779     91.296  
   931.488     212.39    525.334     2.8692    36.8734    46.6248  
   894.491    202.202    508.695    66.7881    113.455    83.4505  
   895.522     182.62    505.415    34.3626    59.7194    91.9224  
   932.756    213.014    525.948    1.89284    35.6719    46.9936  
   894.676    202.738    508.638    66.1948    113.264    83.7244  
   918.328    209.061    519.425    34.7506    79.2873    65.1554  
   919.035    209.626    519.691    33.9678    78.6064    65.4709  
   909.989    178.403    510.259   -8.94271     25.996    74.8687  
   894.953    181.637     505.71     36.189    61.6659    91.3452  
   931.272    212.374    525.103    4.29402    38.5692    46.6805  
    895.03    202.372    509.815     67.973    114.896    83.6006  
   894.885     181.67     505.28    35.6853    61.0273    91.1757  
   931.321    212.358      525.1    3.57758    37.7329    46.5612  
   894.717    202.264    509.129    67.3888    114.094     83.414  
   918.511    209.168    519.892    36.0803    80.8886    65.2712  
   918.368     209.09    519.534    35.4182    80.0491    65.1107  
     910.4    179.301     510.41   -7.45859     27.345    75.8611  
   898.277    183.964    507.417    39.0095    64.6458    93.2735  
   933.507    213.945    525.979    6.76067    40.5317     47.482  
   899.706    204.553     511.91    71.0156    118.625    85.1007  
   896.116    182.441    506.539    37.2841    62.9132     92.251  
   932.133    212.949    525.472    5.36853     39.496    47.1092  
   896.794     203.19    510.843    69.2023    116.599    84.2982  
   922.158    211.112    521.472    38.9206    83.8876    66.4467  
    919.89    209.894    520.631    37.2637    82.2718    65.8459  
   913.435     183.05    509.923   -6.74538    27.5921    75.5197  
   900.482    186.404    505.702     39.267    64.1414    92.2308  
   935.435     215.41    525.749    6.02248    39.6793    46.8032  
   901.237    206.088    510.726    71.6939    117.876    84.4019  
   923.917    212.609    520.722     38.942    83.0811    65.7233  
    835.84    190.058    482.519   -83.1928   -41.5214    97.7248  
   880.706    186.715     501.05   -45.9111   -8.90465    87.5273  
   883.769    194.166    503.233   -56.0947   -46.9648    66.5082  
   881.813    188.696    499.406   -46.0428   -8.23634    86.7755  
   884.283    195.291    502.374   -56.4823   -46.2008    66.0672  
   913.848    207.009    517.314   -25.4939   -4.91929    55.8689  
   915.017    208.264     516.63   -25.3812   -4.11895     55.326  
   832.479    187.254     483.41   -81.0111    -40.331    97.5248  
   876.484    184.716    499.291   -43.3155   -5.69783    86.1884  
    879.34     192.23    501.417   -53.5382   -43.7087    65.4379  
   878.083    185.405    500.221   -44.3417   -7.13218    86.8178  
   881.096    192.966    502.322   -54.5835   -45.2685    65.9472  
   909.908    205.143    515.679    -23.028   -1.90253    54.9706  
   911.448    205.847    516.462   -24.0646   -3.32187    55.4126  
   830.153    186.821     481.36   -79.4373   -38.1744    96.9572  
   875.856    184.889     498.14   -42.2479   -4.47329    86.3672  
   878.419    191.974    500.194   -52.3815    -42.449    65.3937  
   876.137    184.787    498.576   -42.7908   -5.04282     86.145  
   878.818    192.086    500.716   -52.9751    -42.965    65.3218  
   909.356    204.971    514.952   -21.7062  -0.391577    54.9615  
    909.57    205.036    515.211   -22.3771   -1.08523    54.8744  
   829.071    187.713    480.079   -78.2121   -38.1112      97.69  
   875.665    186.962    497.978   -40.3809   -4.21343    87.4679  
    877.69    192.882    499.808   -51.0396   -42.7421    65.8047  
   875.788    185.658    497.978   -41.4319   -4.32739    86.9938  
   878.136     192.28    499.936   -51.7145   -42.5639    65.6737  
   910.115    206.156    515.173   -19.7863   0.432302    55.5322  
   909.656    205.388    514.998   -20.8245   0.014399    55.2994  
   829.651    190.374    480.232   -79.1267   -38.9725    97.3847  
   877.564    188.894    497.807   -41.5884   -4.69864    86.6555  
   879.292    194.339    500.331    -52.646   -43.2543     65.487  
   911.893    207.624    515.335   -21.0138  -0.282257    55.0343  
   829.605    190.336    480.205   -79.1386   -38.9375    97.4299  
   875.648    186.954     497.97   -40.3676   -4.19169    87.4899  
   877.693    192.865    499.805   -51.0299   -42.6941    65.8093  
   877.548    188.887    497.798   -41.5754   -4.67636    86.6764  
   879.297    194.323    500.328   -52.6371   -43.2063    65.4907  
   910.101    206.153    515.167   -19.7825   0.443278    55.5479  
   911.879    207.621    515.329   -21.0104  -0.271082    55.0494  
   829.024    187.671    480.052   -78.2248   -38.0774    97.7356  
    875.84     184.88    498.133    -42.236   -4.45171    86.3883  
   878.422    191.955    500.191   -52.3738   -42.4017    65.3974  
   875.772     185.65     497.97   -41.4194   -4.30579    87.0154  
   878.139    192.262    499.933   -51.7059   -42.5163    65.6779  
   909.342    204.967    514.946   -21.7035  -0.380947    54.9768  
   909.642    205.385    514.992   -20.8213  0.0251354     55.315  
   830.106    186.778    481.334   -79.4508   -38.1404    97.0016  
   876.468    184.706    499.284   -43.3035   -5.67604     86.209  
   879.343     192.21    501.414   -53.5309   -43.6617    65.4413  
   876.121    184.778    498.569   -42.7788   -5.02118    86.1658  
    878.82    192.067    500.714   -52.9676   -42.9179    65.3253  
   909.893    205.138    515.673   -23.0253   -1.89185    54.9857  
   909.556    205.032    515.205   -22.3744   -1.07458    54.8895  
   832.432     187.21    483.385   -81.0251   -40.2972    97.5698  
   880.692    186.706    501.044   -45.9003   -8.88414    87.5494  
   883.773    194.147    503.231   -56.0889   -46.9195    66.5128  
   878.067    185.395    500.215     -44.33   -7.11078     86.839  
   881.098    192.946     502.32   -54.5767    -45.222    65.9511  
   913.835    207.004    517.308   -25.4921   -4.90954    55.8847  
   911.434    205.843    516.457   -24.0622   -3.31153    55.4279  
   835.798    190.018    482.493    -83.209   -41.4887     97.771  
   881.799    188.689    499.398   -46.0325   -8.21549     86.797  
   884.289    195.273    502.372    -56.477   -46.1552    66.0714  
   915.004    208.261    516.624   -25.3797   -4.10896    55.3413  
    410.23    241.243    332.441    100.787    98.2975    354.683  
   380.181    242.812    321.503    69.0491     64.487     371.31  
   346.203    266.968    313.597    141.661    107.921    390.138  
     380.6    243.026    321.561    69.4233    64.3012    371.351  
    346.67    267.272    313.772    142.131    107.767    390.163  
   305.941     281.47    301.356    87.7823    63.8961    406.276  
   306.292    281.631    301.452    88.1844    63.7959    406.282  
   409.921    240.508    332.119    100.308    98.6538     354.57  
   380.431    242.175    321.228    69.0676    64.5255    371.275  
   346.428    266.209    313.393    141.738    107.958     390.09  
   380.247     242.51    321.336    69.0396    64.5518     371.33  
   346.263    266.592     313.46    141.658    107.984    390.159  
   306.032    280.784    301.145    87.8661    63.9366    406.325  
   305.942     281.14     301.23    87.7971    63.9441     406.34  
   410.635    239.841    332.355    100.349    98.4918    354.364  
   381.126    241.452     321.68    69.1767    64.5002    371.142  
   347.115    265.548    313.831     142.08    107.912     389.98  
   380.796    241.821    321.432    69.1338    64.4737    371.197  
    346.78    265.882    313.596    141.921    107.898    390.004  
   306.507    280.111    301.407    88.1585    63.9348     406.21  
   306.278    280.449    301.262    88.0178    63.9119     406.25  
   411.375    239.621    333.024    100.508    98.6446    354.597  
   381.634     241.84    322.129    69.6665    64.7962    371.671  
   347.764    266.073    314.259    142.679    108.126    390.582  
   381.379    241.494    321.926    69.3538     64.647    371.349  
   347.428     265.65    314.051    142.328    108.025    390.238  
   306.967    280.453    301.741    88.7429    64.1355    406.634  
   306.724    280.151    301.574    88.4034    64.0345    406.383  
   411.419    240.974     332.88    101.154    98.4989    355.132  
   381.479    242.581    321.856    69.9238    64.5795    371.743  
   347.646    266.869    314.115    142.839    107.959    390.597  
   306.929    281.122    301.649    88.8737    63.9988    406.642  
   385.065    241.918    323.114   -145.139   -110.205    341.034  
   384.773    242.324    323.127   -145.166   -110.122    341.049  
   384.632    242.277    323.058   -145.297   -110.311    341.201  
   384.867    242.057    323.102   -145.225   -110.277    341.125  
   383.818    243.068    322.729   -145.161    -110.54    341.499  
   384.249    242.669    322.899   -145.253   -110.392    341.334  
   383.153    243.863    322.862   -145.081   -110.612    341.484  
    383.45    243.482    322.767   -145.088   -110.627    341.541  
   383.556    243.602    323.014   -145.188   -110.344    341.315  
   849.867    199.073    490.509    96.5467    144.932    115.906  
   851.845    200.701    491.054    98.4493    145.376    115.722  
   850.426    197.809    490.733    97.2484    144.598    115.633  
   850.193    198.265    490.525     96.843    144.762    115.862  
    851.32    198.011    492.215    98.2672    145.787    115.799  
    850.83    197.888     491.37    97.7696     145.06    115.608  
    856.13    200.201    494.249    101.094    149.339    117.289  
   853.188    198.837    493.243    99.4009    147.468    116.498  
   857.016    201.543    493.194    101.925    148.544    116.795  
   856.156    200.186    494.254    101.109      149.4    117.288  
   857.041    201.528    493.201    101.939    148.603    116.794  
   851.343    197.996     492.22    98.2811    145.848    115.799  
   853.213    198.822    493.248    99.4153     147.53    116.498  
   850.449    197.793    490.738    97.2623    144.659    115.632  
   850.854    197.873    491.375    97.7835     145.12    115.607  
   849.888    199.056    490.514    96.5608    144.992    115.905  
   850.215    198.249     490.53    96.8569    144.823     115.86  
   851.867    200.684     491.06    98.4633    145.436    115.721  
   389.239     245.04    325.464   -123.597   -97.9037    341.356  
   389.659    244.759    325.615    -123.66   -97.6248    341.226  
   389.909     244.29    325.275   -123.593   -97.8398    341.389  
   389.538     244.68     325.34   -123.564   -97.9242    341.418  
   390.739    243.515    325.615   -123.629    -97.586    341.109  
    390.35    243.899    325.449   -123.634     -97.68    341.239  
   391.189    243.137    325.675   -123.397   -97.4394    340.944  
   390.982    243.292    325.664    -123.52   -97.5313    341.033  
   390.904    243.494    325.703   -123.462   -97.3685    340.977  
   536.471     243.87     381.11   -77.8867   -73.3681    247.884  
   535.657    243.971    380.995   -78.6431   -73.0062    248.245  
   535.022    244.349    380.864   -77.7344   -72.7982     247.95  
    535.68    244.113    381.076   -77.7272   -73.1324    247.867  
   533.889    244.981    379.373   -77.8327   -73.1591    248.371  
   534.475    244.662    380.151   -77.8226   -72.8324    248.176  
   531.582    245.485    379.429   -78.2731   -74.3377    248.391  
   532.887    245.266    379.281   -77.9516   -73.8229    248.425  
   532.054    245.113    380.241   -78.9423   -73.5832     248.55  
   662.691    243.282    430.915    116.238    125.328    204.788  
   663.018     244.34    428.999    117.725    124.643    204.881  
   658.642    242.244     428.91    114.564    122.011    203.368  
   660.083    242.536    430.077    115.182    123.483    203.892  
   657.883    242.876    426.014    114.105    121.762    203.751  
   658.259    242.547    427.388    114.368     121.76    203.507  
   655.516    244.075    424.931    114.238    123.946    203.747  
   657.049    243.435    425.308    114.025    122.752    203.919  
   656.601     244.75    426.028    116.254    123.543    203.816  
   655.615    244.251    424.981     113.79      123.5    203.565  
   656.692    244.922    426.087    115.819    123.097    203.632  
   657.989    243.053    426.085    113.652    121.294    203.577  
   657.156    243.613    425.369    113.574    122.291    203.742  
   658.743    242.416    428.991    114.109     121.54     203.19  
   658.363    242.721    427.464    113.914    121.293    203.331  
   662.798    243.447     431.02    115.779    124.878    204.616  
   660.182    242.704     430.17    114.724    123.017    203.715  
   663.137    244.507     429.09    117.283    124.197    204.711  
   532.405    248.078    380.254   -72.8367   -69.9251    247.503  
   532.853    247.647    381.124   -73.5347    -69.138     247.69  
   534.802    247.606    380.205   -72.3278   -68.6552    247.523  
   533.774    247.879    380.105   -72.4753   -69.3619    247.559  
   535.915    246.967    381.746   -72.1941   -68.2669    247.094  
   535.379    247.285    381.011   -72.3002   -68.3122     247.33  
    537.38    246.415    381.994   -72.3256   -68.8643    247.005  
   536.574    246.706    381.962   -72.1734   -68.6116    246.999  
   536.551     246.45      381.9   -73.1472   -68.5011    247.387  
   428.192    236.967    338.443    69.4001    79.5436    346.669  
   380.107    239.275    321.035    47.6891    47.5908    370.737  
   358.645    262.295    317.655    120.049    96.1774    384.289  
    379.99    239.995    320.769    47.9644    47.3902    370.834  
   358.507     263.09    317.452    120.267    95.9976    384.341  
   310.576    278.177    302.642    74.8602    53.9261    404.815  
   310.532    278.821    302.537    75.0021    53.7875    404.831  
   428.174    235.616    338.626     68.631    79.6303    345.957  
   379.667    239.012    320.578    47.2223    47.2698    370.246  
   358.057    261.812    317.206    119.501    95.9508    383.681  
   379.883    239.008    320.822    47.3867    47.4203    370.429  
   358.344    261.896    317.443    119.716     96.067    383.929  
   310.156    277.882    302.318     74.294    53.7183    404.413  
   310.356    277.904    302.482    74.5286    53.8205    404.574  
   427.515    235.868    337.893    68.5862    79.4805    345.731  
   379.017    239.739    320.182    47.1558    47.2838    370.385  
    357.37    262.474    316.738    119.255    96.0081    383.803  
   379.362    239.382    320.359    47.1986    47.2415     370.31  
   357.724    262.147    316.955     119.39    95.9406    383.718  
   309.687    278.558    302.063    74.0345    53.7129    404.531  
   309.931    278.221    302.175     74.169    53.6923    404.457  
   426.809    236.477    337.668    68.6517    79.6785    345.945  
   378.799    240.332    320.474    47.1292    47.2528    370.401  
   357.129    263.175     316.97    119.214    95.9659    383.858  
   378.848     240.06    320.301    47.1335    47.3089    370.427  
   357.197    262.835    316.819      119.2    96.0338    383.872  
   309.593    279.219    302.284     73.958    53.6746    404.474  
   309.595    278.905    302.154    73.9735    53.7203    404.541  
   427.094    237.128    337.959    69.1455    79.2821     346.09  
   379.206    240.491    320.496     47.485    47.0788    370.439  
   357.572     263.47    317.105     119.66    95.7838    383.898  
   309.929    279.354    302.356    74.3433    53.5728     404.48  
   839.835    173.606    477.781   -18.5451    22.2982    120.776  
    871.89    171.743    493.575   -14.0231    25.7846    101.118  
   840.797    166.571    483.266    8.32129    38.6854    128.093  
   873.314      175.4    492.055   -14.8384    25.3683    100.023  
   842.771    173.624     479.88    9.77904    39.9643    127.695  
   867.681    173.118    494.238    21.3894     51.508    111.276  
   869.761     177.53    491.498    22.0336    51.5727    110.372  
   839.398    165.829     480.18   -19.4162    22.6915    120.191  
   871.106    168.534    493.542   -16.5647     24.938    98.8464  
   840.243    162.653    481.257    5.68119    36.8819    123.895  
   871.486    169.709    493.482   -15.6724    25.3903     99.922  
   840.561    164.042    481.871    6.42342     37.545    125.441  
   865.625    169.943    492.308    18.5515    48.9034    108.237  
   866.358     171.05    493.089    19.5024    49.8919    109.488  
   839.358    164.078    480.976   -20.5128    21.9959    118.587  
   871.451    168.211    494.257   -17.4342    23.8605    98.6128  
   840.385    162.583    481.343     5.0567    36.1897    123.776  
    871.26    168.359    493.743   -16.9903    24.3681    98.5951  
   840.311    162.597    481.201    5.38638    36.5257    123.738  
   865.644    169.981    492.098    17.7598    47.9165    108.161  
    865.62    169.952    492.053    18.1615    48.4137    108.074  
    840.25    164.871    483.283   -21.7743     20.379    119.873  
   874.376     170.96    496.805   -20.1108    20.3988    101.087  
   841.707    166.582    483.919    2.34116    33.7005    127.656  
   872.447    169.113    495.406   -18.3899    22.5678    99.6135  
   840.866    163.923    482.224    4.35717    35.3635    125.139  
   867.144    173.164    493.353    15.3695    46.0106    110.476  
   866.228    171.102     492.56    16.9488    47.1595    109.167  
   844.616     173.05    481.794   -25.5953    16.8016    121.697  
   876.445    174.938    494.075   -20.7785    20.4079     100.24  
   843.794    173.608    479.915    1.75853    32.9346    126.732  
   869.062    177.592    490.989    15.8185    45.9765    109.585  
   451.768    212.689    342.104    21.9994    33.3645    337.269  
   407.113    227.575    328.622    27.0748    32.6051    358.812  
   459.884    207.307    344.686    13.7936    19.2893    333.015  
   407.586    227.697    328.555    27.4476    32.4042    358.856  
   460.569    207.276    344.554    14.1336    19.1213    333.047  
   419.978    221.698     332.44    6.14767    8.42834    350.011  
   420.521    221.591    332.367     6.4516    8.37264    350.053  
   451.165    212.399     341.96    21.6493    33.6483    337.151  
   407.215    227.119     328.24    27.1664    32.5737     358.76  
   460.013    207.076    344.064    14.0673    19.0308    332.928  
   407.083    227.385    328.401    27.1412    32.6229    358.815  
   459.857     207.23    344.332    13.9923    19.1375    333.005  
   420.164    221.274     331.95    6.37956    8.31061    350.031  
   419.992    221.512     332.17    6.29392    8.36061    350.056  
    451.66    211.927    341.969    21.5865    33.4637    336.987  
   407.826    226.471    328.574    27.1566     32.549    358.631  
     460.6    206.559    344.313    14.1511    19.1153    332.821  
   407.553    226.802    328.388    27.1721    32.5321    358.698  
   460.358    206.829    344.173    14.1174    19.0533    332.878  
   420.815     220.63    332.187    6.53605    8.45944    349.905  
   420.527    220.959    332.049    6.46149    8.36859    349.969  
   452.066    211.563    342.605    21.5749    33.6669    337.164  
   408.197    226.569     329.19    27.6062    33.0207    359.193  
   460.994    206.474    344.963       14.6    19.8529    333.341  
       408    226.416    328.876     27.294    32.7417    358.827  
   460.762    206.452    344.625    14.2765    19.3918    333.008  
   421.199     220.51    332.574    7.03415    9.00232    350.197  
   420.998    220.511    332.393    6.71607    8.69177    350.018  
   452.404    212.511    342.635    22.5935     33.973    338.093  
   408.217    227.268    328.857      28.04    32.8619    359.394  
   461.229    206.842    344.641    15.1668    19.7622    333.553  
   421.265    220.866    332.419    7.29827    8.86628     350.32  
    844.62    173.049    481.796   -25.6021    16.7984    121.691  
   874.385    170.965    496.808   -20.1173    20.3939    101.079  
    841.71     166.58     483.92    2.33359    33.6978    127.652  
   876.452    174.941    494.079   -20.7848    20.4031    100.232  
   843.798    173.605    479.917    1.75058    32.9319    126.729  
   867.151    173.161    493.355    15.3566    46.0019    110.471  
   869.068    177.588    490.991     15.805    45.9679     109.58  
   840.255    164.875    483.285    -21.782    20.3751    119.868  
   871.459    168.216    494.261   -17.4414    23.8554    98.6059  
   840.389    162.582    481.344     5.0487    36.1872    123.773  
   872.455    169.118    495.409   -18.3969    22.5627     99.606  
    840.87    163.922    482.226    4.34923    35.3609    125.135  
    865.65    169.979      492.1    17.7465    47.9082    108.157  
   866.235      171.1    492.562    16.9356    47.1511    109.162  
   839.363    164.082    480.979   -20.5207    21.9922    118.582  
   871.114    168.539    493.546    -16.572     24.933    98.8391  
   840.246    162.653    481.258    5.67306    36.8796    123.891  
   871.269    168.364    493.747   -16.9975     24.363     98.588  
   840.314    162.596    481.202    5.37832    36.5233    123.734  
   865.632     169.94     492.31     18.538    48.8951    108.233  
   865.626     169.95    492.054    18.1481    48.4054     108.07  
   839.402    165.832    480.182   -19.4244    22.6878    120.186  
   871.899    171.748    493.578   -14.0314    25.7791     101.11  
   840.801     166.57    483.266    8.31244    38.6825    128.088  
   871.495    169.714    493.486     -15.68    25.3852    99.9142  
   840.565    164.041    481.872    6.41505    37.5426    125.437  
   867.686    173.115    494.238    21.3749    51.4988    111.271  
   866.364    171.048     493.09    19.4885    49.8834    109.483  
    839.84    173.607    477.784   -18.5542    22.2938     120.77  
   873.322    175.403     492.06   -14.8467    25.3624    100.016  
   842.774    173.621    479.881    9.76926    39.9608     127.69  
   869.766    177.526    491.499    22.0185    51.5634    110.368  
   445.395    227.245    343.782     41.592    56.6587     339.38  
   451.384    210.897    342.383    13.0317    21.6826    337.801  
   445.329    228.189     343.22     42.275    56.5393    339.756  
   451.538    211.482    342.034     13.614    21.5934    338.117  
   417.273    226.166    332.525    28.7404    32.9873    353.991  
   417.261     226.81    332.194    29.1608    32.8301    354.181  
   444.948    226.991    342.862    41.2278    56.1771    338.489  
   451.012    210.979    341.646    12.6111    21.0229    337.228  
   445.161     226.99    343.298    41.3074    56.3809    338.795  
   451.174    210.877    341.988    12.7242    21.2722    337.429  
   416.872     226.06    331.923    28.2931    32.5088    353.435  
   417.061    226.008    332.223     28.431    32.7064    353.631  
   444.283    227.574    342.264    41.4218    56.3587    338.661  
   450.415    211.543    341.341    12.6284    21.0141    337.355  
    444.66    227.299    342.549    41.3471    56.2239    338.584  
   450.761    211.273    341.478    12.6304    20.9943      337.3  
   416.237    226.702    331.557    28.2822    32.5195     353.57  
   416.588     226.39    331.721    28.2984    32.4828    353.504  
   443.979    227.943    342.643     41.491    56.4195    338.856  
   450.273    211.834    341.846    12.4453    21.1863    337.452  
   444.059    227.805      342.4    41.4671     56.457    338.785  
   450.255    211.733    341.555    12.5885    21.1091    337.433  
   416.045    227.139    331.945    28.1889    32.5731    353.627  
   416.065    226.957    331.718    28.2539    32.5758     353.63  
   444.466    228.258    342.623    41.9313    56.0788    338.935  
   450.864    211.882    341.711    12.8482     20.969    337.517  
   416.529    227.248    331.891    28.5645    32.3787    353.675  
   596.815    276.522    421.332    25.9874    39.6908    206.059  
   601.199    272.344    433.557    33.7425    49.4066    216.549  
    598.19    279.065     412.82     28.682    39.5925    207.332  
   598.413    277.688     415.67    29.0062    39.7229    207.382  
   598.267    280.452    409.461      28.92    39.8432    207.907  
   598.225    279.711    411.139     29.023    39.5283    207.691  
   599.259    279.895    398.258    27.6475    41.0679    205.397  
   598.467    280.113     405.87    29.6926    40.3666    206.682  
   598.435    270.284    391.593    37.6534    50.5466     192.09  
    531.19    282.436    385.239    9.77438    14.9768    239.677  
   529.395    278.632     386.06    6.59673    12.7258    238.635  
   531.372    284.627    386.164    7.66782    14.6229    240.723  
   531.275    283.597      386.2    8.27577    14.7659    240.065  
   531.044    284.926    385.642    6.92464    13.6954    240.865  
   531.218    284.778    386.109    7.24688    14.1537    240.947  
    528.72    282.612    385.238     4.6861    10.3206    238.765  
   530.455    284.069     385.42    5.87198    12.4737    240.025  
   527.908    279.033    389.429    2.30238    12.7895    239.451  
   529.318    283.241    385.482    5.18566    10.9638    238.068  
   528.427    279.543    389.812    2.73206    13.4648    238.756  
     531.6    285.638    385.993    7.44175    14.4198    240.256  
   531.034    284.754    385.733     6.3802    13.1955    239.384  
   531.918    285.343    386.487    8.17341    15.3389    240.116  
   531.766     285.49    386.446    7.75793      14.87    240.339  
   531.732    283.096    385.549    10.3375    15.7203    239.018  
   531.811     284.29     386.52    8.78699    15.4902    239.433  
   529.855    279.175    386.371    7.12165    13.3753    237.965  
   599.206    279.926    398.261    27.6089    41.0113    205.417  
   598.412    270.293    391.568    37.5997    50.4879    192.079  
   598.216    280.483    409.444     28.876    39.7995    207.917  
   598.413    280.143    405.856    29.6484    40.3244    206.688  
   598.136    279.098    412.806    28.6378    39.5494    207.341  
   598.172    279.743    411.124    28.9791    39.4855    207.701  
    596.76    276.551    421.289    25.9477    39.6355    206.055  
   598.362    277.719    415.653     28.961    39.6801    207.392  
   601.124    272.364    433.558    33.6842    49.3481    216.563  
   764.393    201.147    458.193   -95.9451   -61.4789     126.32  
   765.833     202.31    458.915   -97.5791   -61.4741    126.021  
   825.936    182.679    477.936   -81.4265   -74.7346      94.96  
   827.333    183.972    478.637    -82.971   -74.9334    94.7737  
   766.791    199.634    458.966   -97.0496   -60.1335    125.728  
   765.823    200.254    458.442   -96.4742   -60.7636    126.133  
    827.53    181.845    478.518   -82.3337   -73.8942    94.5435  
   826.864    182.141    478.151   -81.8429   -74.2991    94.8278  
   767.908    199.253    461.031   -97.9632   -60.8588    125.406  
    767.32    199.428    459.919   -97.5332   -60.3678    125.476  
   828.755    181.998    479.975   -83.2731   -74.7983    94.5335  
   828.091    181.911    479.182   -82.8228   -74.1977    94.4462  
   772.229    200.655    462.504   -100.386   -63.7601    126.444  
   769.626    199.713    461.908   -98.9212   -62.2563    125.852  
    832.86    183.709    481.575   -85.4988   -77.5999    95.5723  
   830.436    182.636    480.803   -84.1722   -76.1834    95.0247  
   772.076    202.016    461.055   -100.969   -63.0823    126.242  
   832.788    184.761    480.759   -86.0187   -76.8765    95.2899  
   466.785    242.221    354.731    95.5502    106.735    324.122  
   466.412    243.091    354.201    96.0573    106.409    324.336  
   424.878    248.609    339.938    153.722    130.772    356.585  
   424.617    249.459    339.676    153.972    130.525    356.622  
    465.84    241.491    354.125    95.0748    106.298    323.271  
   466.291    241.666    354.484    95.2182    106.546    323.613  
   423.911    247.958    339.417    153.112    130.406    355.869  
   424.375    248.111    339.702    153.355    130.611    356.182  
   464.892    242.082    353.048    95.1067    106.418    323.472  
   465.387    241.801    353.558    95.1183    106.267    323.354  
   422.965    248.577    338.683    152.816    130.449     355.99  
   423.446    248.271     339.03     152.98    130.361    355.889  
    464.12    242.715    353.321    95.3088    106.593    323.706  
   464.479    242.402    353.116    95.1592    106.592     323.63  
   422.429    249.377    338.861    152.814     130.53    356.135  
    422.65    248.971    338.721    152.763     130.55    356.112  
   464.669    243.192    353.543    95.8273    106.224    323.835  
   423.036    249.779    339.122    153.344    130.304    356.181  
   464.291    241.597    353.155    115.321    120.032    325.915  
   464.892    242.079     353.41    115.854    119.695    326.027  
   420.574     247.73    337.804    168.101    139.124    358.197  
   421.212    248.132    338.089    168.646    138.921    358.225  
   465.064    240.874    352.917     115.17    119.857    325.685  
   464.647    241.227    352.969    115.189    120.025    325.845  
   421.104    246.886     337.65    168.141     139.04    358.054  
    420.79    247.299    337.677    168.067     139.14    358.179  
   466.072    240.286    353.971    115.251    119.792    325.513  
    465.58    240.589    353.415    115.235    119.731     325.57  
    422.07    246.266    338.351    168.508    139.013    357.947  
   421.593    246.578    337.983     168.34    138.961    357.954  
   467.142    241.088    354.514      115.8    120.245    326.309  
    466.58    240.493    354.305    115.436    120.056    325.844  
   423.098    246.937     338.87    169.162    139.388    358.659  
   422.561    246.427     338.63    168.777    139.224    358.268  
    466.76     241.95    354.047    116.226    119.898     326.44  
   422.847    247.788     338.65    169.366    139.145    358.658  
   772.467     200.54    462.562   -100.472   -63.9679    126.299  
   772.311    201.898     461.12    -101.05   -63.2908    126.097  
   833.066    183.598    481.627   -85.5106   -77.6986    95.4486  
   832.993    184.648    480.815   -86.0287   -76.9753    95.1657  
   768.151    199.135    461.094   -98.0516   -61.0742    125.264  
   769.868    199.598    461.968    -99.009   -62.4694     125.71  
   828.964    181.885    480.028   -83.2864   -74.8999    94.4103  
   830.644    182.524    480.856   -84.1851    -76.284    94.9016  
   767.032    199.513    459.034   -97.1377   -60.3478    125.583  
   767.562    199.309    459.984   -97.6214   -60.5823    125.333  
   827.739    181.729    478.574   -82.3472   -73.9951    94.4187  
     828.3    181.796    479.236   -82.8361   -74.2989    94.3221  
    764.64    201.022    458.267   -96.0344   -61.6861    126.175  
   766.065    200.131    458.513   -96.5628   -60.9755    125.988  
   826.148    182.559    477.993   -81.4418    -74.833    94.8348  
   827.074    182.023    478.208   -81.8572    -74.399    94.7025  
   766.081    202.183    458.987   -97.6645   -61.6832    125.878  
   827.545    183.853    478.694   -82.9844   -75.0328    94.6492  
   761.795    205.809    455.591   -63.1142   -12.7521    136.618  
   791.468    196.544    466.168   -69.0272   -23.9197     119.88  
   803.884    186.984    468.659   -38.7736    5.32731    129.713  
    792.06     198.54    466.635   -71.4608    -24.284    119.162  
    803.86    190.969    468.091   -40.9156    5.06857    128.743  
   836.798    185.747    482.114   -41.0853    1.37121    110.445  
   837.801    188.612    481.625   -42.7503   0.954077    109.527  
   764.258    201.513    456.805   -60.9534   -10.1421    137.249  
   793.361    193.993    468.187   -70.6451   -21.9377    118.969  
   805.078    183.566    471.107    -40.917    7.02554     127.77  
   792.867    195.028    467.133   -69.9571   -22.5832      119.6  
   804.972    184.906    469.913   -40.2259    6.64924    128.813  
   837.407    182.907    483.184   -43.1572    1.97163     108.88  
    837.33    183.997    482.596   -42.3735    1.87327    109.724  
   764.932    199.727    459.593   -61.9417   -9.68044    136.118  
   794.094    193.267    470.303   -71.5677   -22.7664    118.516  
   805.594    182.769    472.691   -41.6294    6.31766    127.321  
     793.7    193.615    469.116    -71.113   -22.3705    118.633  
    805.32    183.158    471.762   -41.2558    6.53005    127.467  
   837.971    182.412    484.615   -44.0538    1.00198    108.552  
   837.665    182.645    483.754   -43.6033    1.45843    108.596  
   766.333    199.716    463.146   -63.3161    -11.737    136.901  
   798.456    195.029    473.364   -74.3447   -27.1849    120.604  
   809.032    185.459    477.312   -44.5081    1.37127    130.774  
   795.535    193.786    471.874   -72.6183   -24.5148    119.295  
   806.506    183.568    474.753   -42.5734    4.67535    128.514  
   841.725    184.692    487.487    -46.814   -3.01515    110.855  
   839.228    183.139    486.009   -45.0638  -0.542878    109.452  
   771.047    204.531    462.016   -67.9349   -15.3359    138.677  
   799.455    197.633    470.723   -75.9819   -26.8675    120.244  
   811.122     190.12    473.429   -46.8796    1.06632    130.379  
   843.265     188.01    484.771   -47.9962   -2.82955    110.257  
   469.137    239.276    354.291    44.8845    68.1887    316.372  
   444.221    243.036    345.848    68.2814    82.5752    334.647  
   459.511    225.765    348.068    32.9382    51.0397    327.807  
   444.691    243.487     345.95     68.725    82.1741    334.772  
   460.028    226.108     348.05    33.4193    50.6411    327.886  
   425.675    236.142    337.402     48.477    57.8972    348.749  
    426.14    236.423    337.417    48.9039    57.6089    348.826  
   468.907    238.745    353.915    44.2654    68.7766    316.088  
   444.756     242.59    345.504    68.0874    82.5398    334.404  
   459.906    225.521    347.684    32.8243     50.911    327.554  
   444.433    242.853    345.608    68.1702    82.6508    334.555  
   459.644    225.716     347.81    32.9031    51.0502    327.701  
    426.01      235.7    337.068    48.4242    57.8603     348.61  
   425.781    235.964    337.189    48.4516    57.9387    348.709  
   469.688    238.315    354.281    43.9271    68.3422    315.799  
    445.57    242.016    346.354    67.8816    82.3055    334.202  
   460.534    224.972    348.328    32.5403    50.6673    327.363  
   445.196    242.318    345.915    68.0072    82.3547    334.307  
    460.27    225.261    348.004    32.7026    50.7409     327.48  
   426.702    235.075     337.64     48.329    57.7361    348.446  
   426.389    235.399    337.337    48.3931     57.752    348.531  
     470.2    238.015    355.317     43.654    68.3853    316.037  
   446.088     242.47    347.164    68.2016    82.6282    335.174  
   460.979    225.153    349.463    32.8333    51.2147    328.386  
    445.83    242.073    346.775    67.9402    82.4571    334.542  
   460.723    224.923    348.847    32.5659    50.8727    327.685  
    427.17    235.362    338.379    48.7267    58.1529    349.213  
   426.925    235.078     338.01    48.4328    57.9144    348.712  
   470.182    239.494    355.186    44.7361    68.4697    317.445  
   445.819    243.459      346.6    68.8176    82.4056    335.509  
   460.927    226.153    348.808    33.6424    51.1021    328.853  
   427.055    236.212    337.922    49.2584    57.9705    349.474  
   771.087    204.501    462.024   -67.9711   -15.3571    138.641  
   798.538    195.019    473.388   -74.3537    -27.203    120.548  
   809.048    185.458    477.314    -44.525    1.36064    130.758  
   799.534    197.617    470.749   -75.9876   -26.8861    120.186  
   811.136    190.114    473.433   -46.8933    1.05637    130.362  
    841.74    184.696    487.491   -46.8285   -3.03064    110.835  
   843.278     188.01    484.777   -48.0089   -2.84493    110.238  
   766.379    199.695    463.155   -63.3601   -11.7623     136.87  
   794.175    193.256    470.331   -71.5787   -22.7876    118.462  
    805.61     182.77    472.696   -41.6472    6.30516    127.308  
   795.617    193.776      471.9   -72.6289   -24.5355    119.241  
   806.522    183.569    474.757    -42.591    4.66296      128.5  
   837.987    182.416    484.621   -44.0695   0.984818    108.535  
   839.244    183.143    486.014   -45.0792  -0.559714    109.435  
   764.977    199.705    459.605    -61.986   -9.70555    136.088  
   793.443    193.981    468.216   -70.6558   -21.9582    118.915  
   805.094    183.566    471.113   -40.9349    7.01345    127.757  
   793.781    193.603    469.144   -71.1238   -22.3912     118.58  
   805.336    183.158    471.768   -41.2736    6.51781    127.454  
   837.422    182.911    483.191   -43.1729    1.95479    108.863  
    837.68    182.649     483.76    -43.619     1.4415    108.579  
   764.302     201.49    456.819   -60.9982   -10.1666    137.218  
    791.55    196.531    466.198     -69.04   -23.9383    119.824  
     803.9    186.983    468.666    -38.793    5.31612    129.699  
   792.948    195.015    467.163   -69.9683   -22.6031    119.545  
   804.987    184.906    469.919    -40.244    6.63726    128.799  
   836.813     185.75     482.12   -41.1025    1.35473    110.426  
   837.345    184.001    482.602   -42.3896    1.85652    109.706  
   761.842    205.786    455.606   -63.1578   -12.7749    136.589  
   792.144    198.526    466.666   -71.4723   -24.3042    119.109  
   803.878    190.965    468.099   -40.9332    5.05691     128.73  
   837.817    188.614    481.632   -42.7665   0.937051     109.51  
   481.657    203.349    351.169    9.10954    8.60141    319.773  
   485.527    215.626    354.859    6.33497    2.11981    308.971  
   462.082    207.854    345.209      6.979    6.49954    330.552  
   485.947    214.143     355.12    6.13449    1.97618    308.242  
   462.415    207.644    345.112    7.32086    6.43881    330.502  
   468.291    217.359    349.153 -0.0216277   -6.07017    319.388  
    468.47    216.776    349.278  -0.126428   -6.21909    319.235  
   480.943    203.806    351.457    8.39986     8.0695    319.944  
   485.404    215.591    355.304    5.77767     1.4565    308.807  
   461.728    207.959    344.948    6.49592    5.75346    330.278  
   485.508    215.394    355.384    5.98819     1.7673    308.932  
   461.887    207.834     345.14    6.66695    6.05474    330.418  
   468.005    217.617    349.257  -0.575427   -6.69708    319.379  
   468.156    217.456    349.313  -0.342394   -6.41488    319.448  
   480.625     204.12    351.219    8.06168    7.57395    319.832  
   484.798    215.943    355.205    5.15961   0.909595    308.897  
   461.132    208.433    344.801    6.20836    5.49454     330.37  
    485.17    215.784    355.261    5.46123    1.18568    308.888  
   461.484    208.209    344.856    6.35483    5.61238     330.33  
   467.292    218.114    349.061    -1.0681   -7.15921    319.498  
   467.705    217.885    349.147  -0.824982    -6.9209    319.448  
   480.183      204.3    351.681    7.70144    7.55019    319.953  
   484.353     215.86      356.7    4.55982    1.35222    308.846  
   461.019    208.656    345.654    5.82739    5.86619    330.386  
   484.516    215.916     355.79    4.87716    0.92512    308.976  
   460.987    208.552    345.173    6.06908    5.60057    330.431  
   466.832    218.321    350.059   -1.60687   -6.89765    319.414  
   467.001    218.199    349.507   -1.29901   -7.13751    319.526  
   481.261    203.877    352.334    7.49048    8.11957    319.907  
   485.317    215.413    356.595    4.35036    1.65158    308.837  
   461.818    208.406     345.52    6.05716    5.87847    330.434  
   467.598    217.833     350.06   -1.54664   -6.65864    319.526  
   690.777    231.527    432.794   -60.7954   -24.4958      163.7  
   689.795    232.418    434.906   -64.2364   -24.5875    163.294  
    722.12    219.158     444.19   -76.5553   -40.6236     148.72  
   722.382    220.247    445.451   -79.0302   -40.5852    148.333  
   694.226    229.654    437.115   -61.3067   -20.0538    163.773  
   693.424    230.515    435.022   -61.0209   -21.5999    164.081  
   724.957    217.358    446.452   -77.3726   -37.7753    148.366  
   724.094    218.155    445.241   -76.9396   -38.8497    148.737  
   694.733    228.485    439.885   -61.8882   -20.3838    163.059  
   694.457    229.052    438.431   -61.6111   -20.3846     163.39  
   725.761    216.556    449.007   -78.1211   -38.2903    147.814  
   725.331    216.939    447.653   -77.7683   -38.0012    148.025  
   698.919    229.331    444.202    -64.102   -25.5199     165.35  
   695.869    228.607    442.083   -62.6505   -22.2825    163.717  
    729.92     217.59     451.65   -80.3971   -42.2574    149.428  
   727.158    216.814    450.448   -78.9689   -39.9186    148.354  
   699.786    231.228    441.306   -67.0694    -25.111    165.343  
   730.181    219.334    449.495   -82.1572   -41.6848    149.383  
   513.347    258.356    377.043    49.0681    72.6273    279.434  
   470.595    244.407    357.273    50.4484    70.6485    316.599  
   512.945    259.686    375.904    50.3954    72.4348    280.193  
   470.282    245.447    356.559    51.3019    70.4987    317.143  
   494.771    253.065    368.169    70.3723    90.0619    300.355  
   494.338    254.006    367.403    71.2558    89.7986    300.832  
   512.318    258.366    375.319    49.1868     71.846    277.869  
   470.065    244.134    356.075    50.3146    70.2382    315.393  
   512.724    258.188    376.185    48.9843     72.188    278.251  
   470.293    244.088     356.66    50.2606      70.41    315.766  
   493.822    252.693    367.135    70.2023     89.494    299.214  
   494.232    252.706    367.695    70.1805    89.7757    299.584  
   511.744    258.923    373.547     49.773    72.4632     278.28  
   469.351    244.659    355.049    50.7122    70.6256     315.65  
   512.095    258.665    374.494     49.506    72.0272    278.137  
   469.753    244.413    355.569    50.5366     70.354    315.556  
   493.016    253.253    365.677     70.505    89.8448    299.527  
   493.453    252.992    366.406    70.3831    89.5571    299.394  
   510.111    258.858    373.721    50.6089    73.3599    278.621  
   468.579    244.844    355.397    51.0851    70.8485     315.95  
   511.007    259.049    373.477    50.1073    73.0532    278.471  
   468.941    244.846    355.119    50.8868    70.8431    315.827  
   491.844    253.544    365.929     71.013    90.3496    299.773  
   492.458    253.468    365.692    70.6999    90.2044    299.692  
   510.531    259.238    374.388    51.3053    72.6077    278.849  
   469.022    245.342    355.512    51.5933    70.3034    316.111  
   492.333    253.962    366.291    71.6098    89.7657    299.996  
   500.809    256.126    369.723    55.6553    78.0221    288.251  
   501.227    256.501    370.231    56.3227    77.3467     288.51  
   487.978    252.748    364.334    81.2997    97.0436    304.993  
   488.489    253.165     364.69    81.9061    96.5225    305.188  
   502.222    256.063    369.529    54.9565     77.309    288.004  
   501.586    256.204    369.495    55.2364    77.7873    288.171  
   489.103    252.353    364.096    80.8645    96.5852    304.754  
   488.565    252.601    364.115    81.0183    96.9154    304.916  
   502.901    255.493    371.157      54.49    76.8211    287.629  
   502.609    255.804    370.364    54.7563    76.9473    287.868  
   489.959    251.783    365.509    80.6611    96.3097    304.466  
    489.56    252.084    364.793     80.792    96.3363    304.618  
   503.881    255.702    372.534    54.4889    77.4738    288.949  
   503.298    255.425    371.856    54.3765    77.1218    288.023  
   490.982    252.267    366.401    80.9398    96.8816    305.526  
   490.413    251.846    366.008    80.6969    96.6054    304.827  
   503.427    256.731    371.609    55.5946    77.2535    289.596  
   490.556    253.182     365.68    81.7246    96.5823    305.909  
   698.918    229.329    444.189   -64.1707   -25.5669    165.331  
   699.778    231.224    441.297   -67.1271   -25.1558    165.319  
   729.985     217.53    451.651   -80.4993   -42.3777    149.373  
   730.241    219.271    449.501   -82.2513    -41.804    149.327  
   694.733    228.479    439.884    -61.957    -20.439    163.042  
   695.871    228.603    442.078   -62.7193   -22.3361      163.7  
   725.829    216.494    449.018   -78.2245   -38.4188    147.762  
   727.227    216.752    450.455    -79.072    -40.045    148.302  
   694.225    229.647    437.115   -61.3752    -20.108    163.756  
   694.457    229.046     438.43   -61.6798   -20.4385    163.373  
   725.023    217.293    446.465   -77.4757   -37.9029    148.313  
   725.398    216.875    447.665   -77.8714   -38.1287    147.973  
   690.779    231.521    432.801    -60.866   -24.5418    163.685  
   693.423    230.508    435.024   -61.0896   -21.6527    164.064  
   722.191    219.091    444.211   -76.6605   -40.7438    148.668  
    724.16    218.089    445.258    -77.043   -38.9751    148.684  
   689.803     232.41    434.913   -64.3019   -24.6367    163.281  
   722.457    220.179     445.47   -79.1293    -40.707    148.283  
   487.834    202.329    354.198    9.43113    14.9281    319.944  
   488.685    201.769    353.533    10.2077    15.4258     319.78  
    490.65     212.96    356.852    9.12437    11.9053    310.656  
   491.227    212.087    355.619    9.27455     11.677    309.676  
   487.558    202.339    353.521    9.39043    14.1634    319.507  
   487.656    202.232    353.813    9.47175    14.4604    319.673  
   490.566    212.946     356.66     8.8167    11.1783    310.136  
   490.632    212.774    356.845    8.98638     11.469    310.251  
   487.321    202.492    353.511    9.20664    14.0058    319.535  
   487.512    202.423    353.507    9.30346    14.0566    319.525  
   490.232     213.09     356.75    8.30464    10.7152    310.153  
   490.487     213.02    356.738    8.55657    10.9322    310.167  
   487.387    202.454    354.584    8.98071    14.6999      319.8  
   487.307    202.475    353.947    9.12077    14.2044    319.676  
   489.886    212.978    358.159    7.91311    11.2075     310.39  
   490.091    213.002    357.369    8.07494    10.8324    310.295  
   488.676    202.109    354.648      9.115    15.1074    319.842  
   491.497    212.195     359.17    7.84145    12.1582    310.435  
   471.522     233.24    355.524    35.2996     55.286    318.053  
   471.467    234.403    354.806    36.2865    55.2465    318.788  
     471.1    233.223    354.053    35.1848    54.7419    316.878  
   471.259    233.111    354.692    35.1182    54.9201    317.207  
   470.531    233.694    353.276    35.6047    55.1274    317.089  
   470.871    233.469     353.68    35.4133    54.8767    317.011  
    469.99    233.788    353.647    35.8454    55.3408    317.431  
   470.211    233.859    353.357    35.7561    55.3236    317.261  
   470.487    234.237    353.603    36.3907    54.7976    317.525  
   762.488     201.13    466.303   -45.4601   -2.53397    147.416  
   663.766    244.608    437.026   -44.7097   -15.4641     181.52  
   765.183    206.525    462.591   -50.8534   -4.47694    148.813  
    666.41    246.621    433.935   -50.5787   -16.1648    181.925  
    710.43    224.208    450.861   -46.0491   -10.6762     164.97  
   712.613    227.377    447.833   -51.6697   -11.9884    166.231  
   759.995    199.137     458.82   -43.4605    3.09862    143.261  
   661.181    244.588    430.108    -43.582   -9.63989    178.501  
   760.395    199.692    461.893   -44.2802    1.63034    144.474  
   661.556     244.37    433.321   -44.0292   -11.1015    179.025  
   707.657    223.138    443.673   -44.4904     -4.922    161.534  
   708.074    223.281    446.839   -45.1597   -6.44536    162.419  
   759.269    200.353    456.828   -42.8138    3.57786     143.86  
   660.478     246.08    427.478   -43.1353   -9.52703    179.282  
   759.624    199.743    457.706    -43.109    3.24823    143.496  
   660.818    245.288    428.782   -43.3247    -9.6721    178.875  
    706.93     224.47     441.23    -43.937   -4.61256    162.237  
   707.281    223.779    442.377   -44.1901   -4.87916    161.843  
   758.156    203.775    451.085   -40.8713  0.0569956    145.045  
   658.103    247.727    419.793   -42.9713   -15.6762    177.945  
   759.365    201.811    454.391   -42.4016    2.97139    144.662  
   660.221    246.826    424.205   -43.1732   -11.0226    179.271  
   704.897    226.818    434.326   -42.9005   -9.46812    162.068  
   706.817    225.547    438.291   -43.7401   -5.72537    162.571  
   755.412    207.506     450.62    -45.528    -1.7119    143.261  
   653.458    247.929     423.21   -48.7425   -17.0883    177.648  
   701.774    228.607    435.556   -48.1829    -11.172    160.628  
   758.154    203.774     451.08   -40.8339  0.0777446    145.061  
    658.03    247.755    419.752   -42.8729   -15.6132    177.981  
   755.404     207.51    450.613   -45.4951   -1.69376    143.273  
    653.37    247.941    423.175   -48.6505   -17.0214    177.675  
   704.873    226.829    434.307   -42.8361    -9.4243    162.094  
   701.739    228.616    435.533   -48.1276   -11.1333    160.644  
   759.264    200.353    456.826   -42.7792    3.59848    143.874  
   660.405    246.108    427.456   -43.0387   -9.44743    179.318  
    759.36    201.812    454.388   -42.3669    2.99235    144.677  
    660.15    246.856    424.175   -43.0771   -10.9435    179.307  
   706.902    224.483    441.222   -43.8761   -4.56469    162.262  
    706.79    225.561    438.279    -43.679   -5.67744    162.596  
   759.991    199.137    458.818   -43.4259    3.11974    143.274  
   661.108    244.615    430.084   -43.4844   -9.55895    178.537  
   759.619    199.743    457.705   -43.0746    3.26927     143.51  
   660.744    245.316    428.758   -43.2273   -9.59246    178.911  
   707.629     223.15    443.664   -44.4289   -4.87331    161.558  
   707.254    223.792    442.369   -44.1288   -4.83085    161.868  
    762.48    201.131     466.31   -45.4255   -2.51366    147.436  
   663.693    244.625    437.029   -44.6093   -15.3942    181.558  
   760.389    199.691    461.893    -44.246     1.6519    144.488  
   661.478    244.394    433.303    -43.931   -11.0206     179.06  
   710.397    224.216    450.869   -45.9864   -10.6319    164.999  
   708.044    223.292    446.835   -45.0986   -6.39622    162.444  
   765.179    206.537    462.595   -50.8267    -4.4608    148.835  
   666.351    246.651    433.929   -50.5015   -16.1018    181.979  
   712.591    227.395    447.841   -51.6214   -11.9511    166.271  
   479.504    236.071    357.677    32.7535    54.5856    310.028  
   514.022    263.747    375.941    46.9802    67.5798    271.853  
   480.031    236.563    357.603    33.3335    53.9256    310.117  
   514.374    263.923    376.784    47.8066    66.6897    272.154  
   497.617    251.461    367.513    41.2396    61.9309    290.427  
   498.041    251.863    367.803    41.9335    61.1402    290.637  
   480.105    236.075     357.32    32.4621    54.3648    309.578  
   515.876    264.112     375.96    45.9484    66.4754    271.594  
   479.759    236.213     357.38    32.6604    54.5895     309.77  
   515.082    264.147    375.772    46.3968    67.1867    271.712  
   498.829    251.657    367.302    40.5744    61.3161     290.05  
   498.269    251.741    367.259    40.9019     61.757    290.216  
   480.636    235.671    358.141    31.9117    53.8684    309.363  
   516.313    263.588    377.798    45.2569    65.7271    271.184  
   480.438    235.887    357.761    32.2081    54.0555    309.502  
   516.158    263.872     376.97    45.6252    65.9775    271.469  
   499.328    251.211    368.606    39.9461    60.6884    289.741  
   499.141    251.452     368.01    40.2838    60.9084    289.953  
    480.94    235.531    359.951    31.8718    54.3823    310.632  
   517.227    263.053    379.975    44.7384    66.4554    272.614  
    480.75    235.531    358.868    31.7936    54.0212    309.705  
    516.64    263.261    378.778    44.9189    66.0008    271.472  
   499.932    250.946    370.588    39.6631    61.2378    291.097  
   499.542    250.996    369.447    39.7228    60.8771    290.069  
   480.975    236.914    359.162    33.0808    54.5008    311.698  
   516.818    264.405    378.861    46.3283    66.4031    273.828  
     499.7    252.259    369.709     41.046    61.3208    292.253  
   809.751    184.998    475.601   -19.4962    18.2387    145.522  
   811.039    164.927    477.386    3.56051     34.621    142.161  
   824.213    170.617    482.291   -18.3178    20.8707    132.112  
   809.624    183.636    473.925   -1.23259    29.7391    149.741  
   827.319    178.636     478.11   -22.6545     17.925    132.794  
   823.433    166.559    479.773    1.48071    34.1868    135.946  
   823.661    178.948    474.815   -1.17355    31.2707    138.133  
   807.058    171.983    473.432   -11.6199    26.6146    138.066  
   811.129    162.198    470.781    3.57481    35.1707    137.298  
   823.225    167.203    476.181   -16.2075    24.6663    127.207  
   811.044     164.05    472.145    3.19572    34.7621    139.089  
   823.602    168.323    478.345   -16.9957    23.6512    128.653  
   822.913    163.072    475.072    2.99879    35.8998    131.192  
   823.078    164.671    476.268    2.50386    35.2803    132.748  
   806.741    171.227    470.287   -10.6682    27.7067    136.597  
    811.02    162.556    470.058      3.879     35.329    137.449  
   822.816    167.909    475.171   -15.5633    25.2979    127.496  
   810.992    162.465    470.274    3.68007    35.3177    137.176  
   823.017    167.532    475.592   -15.8812    25.0074    127.263  
   822.785    163.302    474.744    3.50073    36.3407    131.315  
   822.815    163.211    474.821    3.24404    36.1394    131.124  
   806.681    173.467    468.706   -10.1952    28.0716    138.215  
   812.016    166.115    472.167    4.76391    35.2983    142.469  
   823.399    172.393    473.343   -12.7621    25.1429    130.969  
   810.791    164.767    469.902    3.91197    35.5644    139.037  
   823.049     169.53    474.396   -15.0603    25.5517    128.905  
   823.403    167.159    476.747    5.31042    37.1455    135.961  
   822.878    165.061    475.015    3.87601    36.7884    132.922  
   804.361    185.337    461.391   -10.1261    25.0563    138.264  
     806.8    182.774    462.584    5.32803    35.1951    143.928  
   821.959    179.329     470.06   -14.6786    23.8532    129.542  
   822.226    178.966    471.331    6.54016     38.177    136.953  
   482.512    211.511    353.022     15.143    28.6854    319.847  
   488.373    204.085    354.896    11.7509    21.2627    318.401  
   466.754     213.61    348.328      18.07    31.7568    329.096  
   489.417     203.92    354.193    12.0374    21.1253    318.425  
   467.415    213.797     348.08    18.5552    31.3112    329.164  
   475.354    206.781    350.493    11.9887    20.9766    324.839  
   476.245    206.711    350.193    12.2957    20.7967    324.876  
   481.671    211.372     353.19    14.8517    29.1669    319.552  
   488.326     204.12    354.137    11.8197    20.6187    318.017  
   466.842    213.441    347.884    18.1572    31.5149    328.828  
   488.299    204.125    354.384    11.8623    20.8289    318.163  
     466.7    213.599    348.046    18.2051    31.6593    328.952  
   475.393    206.701    349.789    12.1683    20.5122    324.603  
   475.299     206.78    350.062    12.1545    20.6764    324.721  
   482.048    211.112    353.238    14.5904    28.8079    319.352  
   488.484    203.952    354.314    11.6613    20.4762    317.959  
   467.312    213.003    348.267    17.9123    31.3151    328.707  
   488.474    204.051    354.203    11.7526    20.5152    317.985  
   467.135    213.235    348.074    18.0487    31.3867    328.769  
   475.767    206.366        350    12.1356    20.4882    324.523  
   475.642    206.547    349.883    12.1606    20.4765    324.564  
   482.223    210.809    354.006    14.3452    28.9097    319.559  
   488.657    203.657    355.638    11.5282    21.2446    318.403  
   467.646    212.793    349.624    18.1332    32.0659      329.5  
   488.534    203.869    354.756    11.6427    20.7383    318.186  
   467.433    212.903    348.785    17.9264    31.5442     328.96  
   476.061    206.161    351.012    12.3089    21.2751    325.048  
   475.878    206.264    350.394    12.1819    20.7613     324.73  
   483.091    211.559    354.767    15.8344    29.9702    321.476  
   489.886    203.955      355.6    12.6896    22.1131    319.397  
   467.972    213.783    349.081    19.1656    32.1714    330.344  
   476.711    206.481    350.668    13.1993    21.5967    325.614  
   804.356    185.341    461.388    -10.118    25.0584    138.269  
   812.014    166.117    472.167    4.76529    35.2979    142.471  
   823.396    172.391    473.342    -12.755     25.146    130.974  
   806.797    182.776    462.583    5.32951    35.1949     143.93  
   821.955    179.331    470.058   -14.6709    23.8566    129.547  
   823.401     167.16    476.747     5.3155    37.1474    135.964  
   822.224    178.969     471.33    6.54597    38.1794    136.956  
   806.677    173.469    468.705   -10.1882    28.0736    138.219  
   811.017    162.558    470.057    3.88034    35.3288    137.451  
   822.813    167.908     475.17   -15.5567    25.3007      127.5  
   810.789    164.769    469.901    3.91337    35.5643    139.039  
   823.046    169.529    474.394   -15.0536    25.5546    128.909  
   822.782    163.302    474.743    3.50548    36.3424    131.317  
   822.876    165.062    475.015    3.88089    36.7901    132.924  
   806.738    171.228    470.286   -10.6613    27.7088    136.601  
   811.127    162.199    470.781    3.57596    35.1708    137.299  
   823.222    167.201    476.179   -16.2011    24.6694     127.21  
   810.989    162.466    470.273     3.6813    35.3177    137.178  
   823.013     167.53     475.59   -15.8748    25.0103    127.266  
    822.91    163.072    475.071    3.00335    35.9017    131.194  
   822.813    163.211     474.82    3.24869    36.1413    131.125  
   807.055    171.984    473.432    -11.613    26.6173     138.07  
   811.036    164.928    477.386    3.56204    34.6218    142.162  
   824.209    170.617    482.291   -18.3113    20.8743    132.117  
   811.042    164.052    472.145    3.19684    34.7624     139.09  
   823.598    168.321    478.344   -16.9893    23.6545    128.657  
    823.43    166.559    479.772    1.48527    34.1892    135.948  
   823.076    164.671    476.268    2.50843    35.2824    132.749  
   809.746    185.004    475.602   -19.4894    18.2416    145.528  
   809.621    183.639    473.926   -1.23141    29.7392    149.744  
   827.315    178.639    478.109   -22.6488    17.9278      132.8  
   823.658    178.951    474.814   -1.16898    31.2728    138.135  
   683.978    242.069    429.007    67.2957    75.7258    180.987  
   681.944    242.685    430.319    73.5341    77.0849    179.369  
   685.632    240.247    436.126    67.7758    70.6862    182.154  
   685.721    241.123    432.991    67.7855    71.8097    182.186  
   686.209    238.881    438.903    68.0235    70.7624    181.547  
    685.89    239.556     437.49    67.8727    70.8233    181.807  
   688.745    239.643    447.972    68.9743    77.2425    185.157  
   686.523    238.915    442.628    68.4826    72.2502     182.44  
   693.841    242.145     444.39     75.321    79.6231     186.62  
   688.752    239.649    447.963    69.0535    77.3095    185.163  
   693.842    242.151    444.377    75.3904    79.6769     186.62  
   686.207    238.888    438.904    68.0964    70.8257    181.553  
   686.524    238.922    442.628    68.5565    72.3172    182.447  
    685.63    240.253    436.126    67.8482    70.7493     182.16  
   685.888    239.562    437.491    67.9455    70.8873    181.814  
    683.97    242.075    429.017    67.3667    75.7896    180.996  
   685.717    241.129    432.995    67.8567    71.8754    182.193  
   681.944    242.693    430.333    73.5955    77.1395    179.385  
   504.296     254.71    371.796   -13.3208   -18.4937    269.549  
   504.689    253.501     372.67   -14.0272   -17.5332    270.018  
   506.377    254.931    370.756   -12.0907   -17.5529    270.052  
   505.497    254.823    371.161   -12.6325    -18.171    269.896  
   507.212    254.421     371.66   -11.2997   -16.6678    269.796  
   506.842    254.711    371.265   -11.7132   -17.0158    269.984  
   507.528    253.432    371.064   -10.5961   -16.5989    269.251  
   507.406    254.023    371.552   -10.9333   -16.6005     269.64  
   506.985    251.881    371.768    -12.057   -16.8499    269.209  
   612.398    262.798    418.718   -37.7455   -18.5155    199.454  
   614.108    262.555    416.163    -41.606   -17.1633     199.31  
   641.849    254.913    433.762   -21.8067 -0.0738609    190.675  
     645.4     255.25    434.363   -30.5495   -4.44566    194.382  
    609.29     264.44    413.873   -36.7275   -13.0376    198.252  
   609.691    263.783    416.296   -36.9294   -14.4437    198.246  
   641.169    255.738    424.645   -22.2879    4.09413    188.229  
   641.357    255.149    428.107   -22.8382    3.11887    188.519  
   608.666     265.76    411.331   -36.5876   -13.1837    199.037  
   608.961    265.086    412.568   -36.6044   -13.2375    198.659  
   640.714    257.284    421.809   -22.0383    4.07953    188.812  
    640.92     256.48    423.241   -22.2349    4.14573    188.535  
    605.09    265.806    404.777   -37.8606   -20.2269    196.693  
   608.229    266.005    408.256   -36.7529   -15.0633    198.505  
   640.451    258.005    410.721   -21.3586  -0.719319    186.258  
   640.598    257.797    418.095   -22.4259    2.94151    188.532  
   600.667     263.06    409.849   -42.7724   -19.8387    197.334  
   634.274    255.969    412.099   -30.0765   -6.84581    182.678  
   536.219    278.131    386.298    54.0367    70.6238    250.594  
   536.061    277.585    388.212    55.3436    69.7371    251.028  
   519.985    270.234    378.935     37.251    53.6908    261.468  
   520.041    269.872    379.886    38.3574    52.3547    261.978  
   539.024    278.956    387.289     52.346    68.2538    251.019  
   538.028    278.847    386.591    52.9525    69.4418    250.878  
    522.08     271.19    379.454    35.9106    52.1704    261.521  
   521.309    271.007    379.028    36.5582     53.046    261.429  
   539.324    278.261    389.872    51.7735    67.5327    250.485  
   539.208    278.622    388.684    52.0809    67.7655     250.86  
   522.246    270.732    381.196    35.0926    51.2752    261.148  
   522.212    270.995    380.445    35.5285    51.6301    261.435  
   541.034    277.345    392.302    50.9524    68.8026    251.717  
   539.905    277.725      391.1    51.3379    68.0497     250.61  
   522.836    269.214    384.088    33.7679    51.6746     261.88  
   522.382    270.188    382.234    34.5524     51.355    261.202  
   540.393    277.966    391.035    52.7616    68.5065    252.654  
    522.56    270.192    383.613    35.7752    52.2018    264.212  
   540.957     276.55    391.933    54.0881    72.4205    252.853  
   540.288    277.165    390.661    55.8186    72.0644    253.692  
   520.791     267.07    382.693    36.1197    54.9479    265.731  
   520.478    268.107    382.039    37.9958    55.3155    267.802  
   539.199    277.283    389.696    54.7829    71.1506    251.592  
   539.814    276.809    390.863    54.3914    71.6875     251.76  
   520.139    268.329    379.977    37.2304     54.481     264.85  
   520.316    267.852     380.98    36.7525     54.598    264.967  
   538.831    277.977    387.081    55.3247    71.8362    252.129  
   539.049    277.644     388.48    55.0776    71.3538    251.962  
   519.894    268.795    378.237    38.0133    55.3289    265.225  
    520.07    268.593    379.212    37.6491    54.8049    265.131  
   536.067    277.291    386.234     56.935    74.1032    251.763  
    537.83    277.908     386.45    55.8962    72.9827    252.024  
     517.9    268.005     377.88    39.2487    56.6832    265.255  
   519.139    268.667    377.884    38.6046    56.1419    265.186  
   536.004    276.879    388.026    58.1481    73.2163    252.183  
   518.061    267.793    378.762    40.2852    55.5001    265.706  
   605.244     265.91    404.712    -37.369   -19.7954    196.612  
   600.746    263.132    409.809    -42.373   -19.4922    197.236  
   640.452     258.07    410.677   -21.1141  -0.527174    186.298  
   634.228    255.988     411.99   -29.8845   -6.71944    182.645  
   608.761    265.878    411.391   -36.1139   -12.7317    199.013  
   608.346    266.124    408.284   -36.2785   -14.6002     198.48  
   640.682     257.35    421.809   -21.8119    4.25669     188.85  
   640.572    257.862    418.083   -22.2009    3.12351    188.565  
   609.387    264.553    413.928   -36.2516   -12.5846    198.231  
   609.057    265.202    412.625   -36.1292   -12.7847    198.637  
   641.137    255.803    424.644   -22.0599    4.27082    188.267  
   640.888    256.546     423.24   -22.0085    4.32398    188.573  
   612.459    262.887    418.866   -37.2389   -18.0784    199.435  
   609.771    263.889    416.378   -36.4571   -13.9843    198.223  
   641.787    254.962    433.797   -21.5682   0.108233    190.703  
   641.319     255.21    428.114   -22.6134    3.30177    188.557  
    614.22    262.612    416.318   -41.1944   -16.7965    199.325  
   645.391    255.298    434.474   -30.3409   -4.30259    194.477  
   480.115    202.238     351.54     11.174    17.2036    323.791  
   480.724    202.785    350.988    12.1041    17.3722    324.212  
   466.364    207.912    347.408    12.4853     18.477    330.418  
   466.731    208.202    347.098    13.1675    18.5388    330.703  
   479.786    202.565    350.681    10.9533    16.3357    323.289  
   479.906     202.47    351.022     11.022    16.6193    323.472  
   466.012    208.037    346.653    12.1428    17.7183    329.883  
   466.152    207.918    347.003     12.235    17.9923     330.07  
   479.379    202.904    350.529    10.8461    16.2412    323.358  
   479.647    202.748    350.602     10.902    16.2675    323.317  
   465.508    208.474     346.43    12.0947    17.6696    329.978  
   465.816    208.265    346.532    12.1255    17.6747    329.934  
   479.331     203.02    351.313    10.5516    16.7479    323.584  
   479.276    202.961    350.879    10.7818    16.4051    323.472  
   465.414    208.635    347.098    11.8453    18.0098    330.121  
   465.373    208.599    346.702    12.0385    17.7978     330.07  
   480.304    202.671    351.318     10.804    16.6599     323.59  
   466.165     208.59    346.886    12.1783    17.8203    330.146  
   488.392     206.23    355.998    10.7649    19.6107    317.097  
   489.643    206.097    356.251    11.8468    20.5824     318.14  
   488.298     206.49    354.768    10.9305    18.9322    316.785  
   488.331    206.402    355.184    10.9079    19.1853    317.011  
   488.147    206.662     354.58    11.0917    19.0852    316.845  
   488.289    206.596    354.641    11.0243    18.9779    316.817  
   488.162    206.566    355.394    11.0288    19.7563    317.184  
   488.095    206.656    354.808     11.142    19.2871     316.98  
   489.135    206.559    354.429    11.2748    19.5098     317.23  
   590.488    264.945    408.398   -40.2379   -25.1793    210.163  
   589.903     264.18    407.698   -42.9443   -24.6801    210.968  
   587.621    266.319    405.956   -39.7158   -22.0958    209.898  
   588.405    265.717    407.319   -39.8447   -23.3083    209.839  
   587.116    267.364    403.245    -39.746   -22.4055    210.589  
   587.348    266.836    404.645    -39.764    -22.277    210.301  
   583.063    267.306    399.991   -41.0355   -27.3116    209.276  
   586.011    267.567    401.484   -40.0705   -24.2576    210.218  
   581.755     265.91    402.898   -43.8902   -26.4781     209.33  
   564.078    273.368     400.31    64.7827    80.4771    241.152  
   563.758    273.627    398.886    66.6547    80.1321      241.9  
   561.565    273.842     397.92    65.0426    78.3705     240.01  
   562.369    273.504    399.203     64.855    79.2634    240.253  
   561.221    274.665    394.925    65.3563    78.8872    240.595  
   561.415    274.269    396.465     65.233    78.5167    240.362  
   558.254    274.379    393.575    66.7847    81.7628    240.006  
   560.241     274.73     394.05    65.8272    80.2026    240.467  
   558.327    273.946    395.433    68.3668    80.8652     240.39  
   558.669    275.152    393.728    65.1133    79.8815    238.755  
    558.67    274.632    395.693    66.7641    78.9818    239.145  
   561.691    275.528    395.226    63.6162    76.8707    239.421  
   560.713    275.567    394.278    64.1102    78.2292    239.265  
   561.995    274.688    398.239    63.2875     76.334    238.827  
   561.864    275.124    396.781    63.4844    76.5015    239.189  
   564.519    274.125    400.764    62.9516    78.4958     239.96  
   562.783    274.314    399.582    63.0735    77.2338    239.055  
   564.224    274.326    399.334    64.9012    78.1788    240.741  
   583.308    267.782    400.015   -39.9885   -26.2516    209.053  
   581.901    266.325    403.004   -42.9348    -25.448    209.107  
   587.365    267.878     403.43   -38.6713    -21.236     210.44  
   586.278    268.069    401.601   -39.0054   -23.1094    210.045  
   587.855     266.82    406.139   -38.6402   -20.9242    209.747  
   587.588    267.344    404.829   -38.6877   -21.1159    210.151  
   590.724    265.402    408.682   -39.1446   -24.0762    210.014  
   588.624    266.203    407.548   -38.7632   -22.1472    209.679  
   590.174    264.586    407.983   -41.9351   -23.5863    210.833  
   779.142    187.978    474.178   -20.2389    16.7119    150.116  
     785.8    197.815    469.118    -29.475    10.0662     151.92  
   794.732    186.608    475.047   -32.5831    8.55919    140.088  
   797.645    193.574    470.941   -37.3935    6.32816     141.18  
   780.527    185.381    463.917   -19.5177    20.6501    143.736  
   780.664    186.239    466.948    -20.229    19.9523    144.869  
   792.889    183.927    468.148    -30.496    13.4019    135.535  
   793.278    184.782    470.803   -31.2885    12.1615    136.875  
   780.081    186.499    462.267   -18.8733    21.0801    143.935  
   780.282    185.887     463.04   -19.2279     21.082    143.694  
   792.276    184.861    466.642   -29.8642    13.9485    135.967  
   792.575    184.385    467.286   -30.1551     13.647    135.678  
   781.998     190.92     455.83    -15.933    19.6668    146.085  
    780.11     188.15    460.398   -18.8811    21.1828    145.195  
   791.939    188.686    462.729   -27.5971    11.9436    138.197  
    792.43    186.395    464.975   -29.4059    13.7777    137.065  
   774.444    197.459    453.657   -21.9527     14.865    144.634  
   789.591    194.126    460.978    -30.922      10.51    136.768  
   485.813    221.673     356.94    18.4543    36.0638    311.417  
   486.577    221.755    356.855    19.1376    35.3366    311.543  
   473.327    225.147    353.135    26.0479    43.7423    320.006  
   473.921    225.472    352.987    26.6026    43.2213     320.07  
   486.175    221.687    356.708    18.3772    35.6997    310.953  
   485.949    221.767    356.795    18.5663     35.939    311.104  
   473.693    225.081    352.758    25.9315    43.5023    319.645  
   473.447    225.225     352.86    26.0566    43.6903      319.8  
   486.499     221.35     357.25    17.8645    35.2566    310.815  
   486.408    221.542    357.004    18.1357    35.4355    310.879  
   474.174    224.661    353.346    25.5358    43.1578    319.479  
   473.995    224.883    353.067    25.7512    43.2864    319.577  
   486.745    220.593    359.574    17.7015    36.0326    311.716  
   486.536    221.216    357.942    17.7275    35.4113    311.067  
   474.521    224.498    354.965     25.631    43.8025    320.527  
   474.298    224.541    353.981    25.4866    43.3529    319.772  
   487.317    222.432    358.692    19.3117    36.4313    313.581  
   474.733    225.702    354.277    26.7601    43.9222    321.455  
   781.995    190.919    455.829   -15.9116    19.6771    146.094  
   774.438    197.461    453.647   -21.9327    14.8719    144.637  
   791.929    188.688    462.724   -27.5768    11.9539    138.209  
   789.577    194.131     460.97   -30.9038    10.5192    136.777  
   780.076    186.498    462.265   -18.8528    21.0887    143.941  
   780.105     188.15    460.395   -18.8608    21.1918    145.202  
   792.265    184.864    466.638   -29.8454    13.9588    135.977  
   792.419    186.398    464.971    -29.387    13.7883    137.076  
   780.522     185.38    463.916   -19.4974    20.6591    143.741  
   780.278    185.887    463.038   -19.2077     21.091      143.7  
   792.878    183.928    468.145   -30.4773    13.4127    135.545  
   792.564    184.387    467.282   -30.1364    13.6576    135.688  
   779.135    187.978     474.18   -20.2165     16.724    150.123  
   780.659    186.238    466.947   -20.2088    19.9621    144.876  
   794.719    186.611    475.048    -32.564    8.57004    140.101  
   793.265    184.784      470.8   -31.2699    12.1726    136.886  
   785.791    197.821    469.123   -29.4567     10.074    151.936  
   797.632    193.582     470.94   -37.3785    6.33638    141.195  
   787.698    179.692    473.987  -0.283643    30.5995     147.56  
   786.335    196.637    477.741    -7.7747    22.9224    161.256  
   788.061    177.922     465.65   -1.05463    30.7346    144.024  
    788.09    179.326     467.97   -1.70494    30.2093    145.997  
    787.97    178.771    463.755  -0.733829    30.8921    144.437  
   787.937    178.427    464.611   -1.05787    30.9154    144.083  
   789.566    182.566    462.346   0.872727     31.324     149.22  
    787.68    180.885    462.552  -0.960404    30.9128    145.469  
   784.197    195.035    447.501   -2.22089    26.4893    143.405  
   490.582    215.077    357.775    14.4531    25.4169      311.5  
   491.332    215.153    356.256    14.8445    24.6484    311.546  
   490.688    215.194    357.165    14.3588    24.7641     311.06  
   490.583    215.191    357.252    14.5262     24.993    311.194  
   490.788    215.019    357.527       13.9    24.3414    310.962  
   490.806    215.136    357.315    14.1505    24.5206    311.014  
   490.763    214.491    359.377     13.498    24.9077    311.274  
   490.757    214.924    358.086    13.7807    24.5442     311.23  
    492.24    214.961     360.09    14.9166    26.2511    313.274  
   789.567    182.565    462.347   0.880108    31.3283    149.224  
   784.196    195.035    447.496   -2.21353    26.4925    143.406  
    787.97    178.771    463.755  -0.726703    30.8952    144.439  
    787.68    180.884    462.552  -0.953318    30.9158    145.471  
   788.061    177.922     465.65   -1.04782    30.7379    144.026  
   787.937    178.426    464.611   -1.05093    30.9185    144.085  
   787.697    179.691    473.986  -0.276007    30.6045    147.561  
    788.09    179.325     467.97   -1.69805    30.2129    145.999  
   786.334     196.64    477.746    -7.7671    22.9272    161.262  
   938.887    349.695    4222.64    22.4031    58.4204    436.196  
   935.891    348.498    4223.78    23.2981    60.1429    437.353  
   934.617    348.942    4221.93    24.7713    61.4382    437.976  
   935.019    350.852    4220.18    26.3249    61.4514    436.904  
   933.405    352.112    4220.11    27.3534    62.2631    437.149  
   933.307    350.162    4221.89    25.8551    62.4545    438.163  
   934.691    349.695    4224.08    24.4587    61.2216    437.503  
   937.728    350.874    4223.08    23.5715    59.4052    436.436  
   919.175    346.486    4214.56    12.6427    46.2835    443.002  
   919.447     345.42    4216.18    12.8894     46.294    443.991  
   921.308    345.032    4219.11    13.6508    47.0036     443.72  
   923.227    345.736    4218.68    14.4187    47.6355    443.153  
   919.389    347.568    4218.96    13.2497    46.0931    444.399  
   917.591    346.889    4219.11    12.5229    45.4009    444.695  
   915.624    347.306    4215.72    11.8966    44.7837    444.971  
   915.071    348.328    4214.12    11.7256    44.9596    444.158  
   917.197    346.574    4214.68    21.1883    57.8396    445.964  
   917.772    345.666    4215.99    20.8606    58.3247    446.985  
   919.754    345.096    4218.18    20.7017    58.3006    446.547  
   921.219    345.239    4217.61    20.9843    57.8971    445.553  
   920.321    345.177    4217.47    21.5027    58.2898    445.889  
   918.876    345.068    4217.99    21.2156    58.7123    446.847  
   916.859    345.653     4215.7    21.3597    58.7274    447.291  
   916.195    346.564    4214.41    21.6719    58.1979    446.307  
   940.443    350.393     4223.7    14.7359    51.7225    433.806  
   936.999    348.421    4224.65    12.8825    49.7667    434.392  
   936.153    348.488    4222.24    11.1076    48.0054    434.489  
    937.43    350.655     4220.2    9.84463     47.326    433.407  
   936.978    351.148     4220.2    9.46871    46.9773     433.34  
   935.802     348.95    4222.25    10.7244    47.5814    434.395  
   936.688    348.871    4224.83    12.4755     49.331    434.279  
   940.206    350.867    4223.95    14.3343    51.3672     433.75  
   935.694     351.61    4223.84     12.054    48.3539    435.293  
    932.24    349.959    4224.42    10.5263     46.357    435.683  
   930.923    350.141    4220.96    9.06764    44.8597    435.931  
   931.284    352.128    4218.86    8.09909    44.7785    434.915  
   936.486    344.245    4219.94    15.9368    51.6566    437.447  
   933.996    343.122    4221.17    14.7517    50.7415    438.573  
   933.027    343.268    4219.48    13.3683    49.4701    438.677  
   934.057    344.628    4217.63     12.675     48.924    437.292  
    939.15    343.327    4219.38    19.1753    55.1112    436.858  
   937.149     342.04    4220.96    17.8626    54.4415    438.214  
   937.093    341.936    4220.55    16.3812    53.1235    438.052  
   938.983    343.132    4218.79    15.6727    52.2255    436.521  
   936.981     340.11    4217.79    17.9993    53.6816    438.818  
   935.193    339.273    4219.28    17.1744     53.389    440.325  
    934.83    339.303    4218.71    16.2595     52.591    440.306  
   936.186     340.19    4217.02    15.9968     52.068    438.696  
    936.01    341.164    4217.46    19.9906    55.8366    439.108  
    934.81    340.146    4219.07    19.1036    55.6826    440.619  
   935.412    339.893    4219.48    18.1757    54.9174    440.347  
   937.305    340.616    4217.96    17.9335    54.2431    438.742  
   936.724    338.946       4217    18.3031    54.1498    439.394  
   935.281    338.162    4218.56    17.7129    54.1176    440.995  
   935.365    338.093    4218.52     17.196    53.6825    440.911  
   936.886    338.803    4216.94    17.1932    53.2745    439.256  
   935.691    338.422    4216.89    17.8399    53.7198    440.049  
   934.059    337.846     4218.3    17.5413    53.9118     441.64  
   933.415     338.04    4217.76    17.5365     53.879    441.792  
   934.444    338.827    4216.17    17.8225    53.6729    440.203  
   936.717    339.006    4216.85     16.825    52.8896    439.161  
   935.289    338.244    4218.48    16.8918     53.323    440.811  
   935.431    338.256    4218.74    17.5058    53.8509    440.853  
   937.012    339.028    4217.21    18.1488    53.9473     439.27  
   933.152    339.215    4215.95    17.6561    53.5044    440.659  
   932.282    338.411    4217.52    17.4189     53.742    442.209  
   933.136    338.167    4218.27    17.5039    53.8496    442.024  
   934.803    338.709    4216.95    17.8489     53.695    440.488  
   935.755    339.911    4217.51    18.3191    54.4654    439.654  
   933.957    339.311    4218.92    18.3771    54.9964    441.228  
   933.142    339.606     4218.3     19.037    55.5134    441.514  
   934.088    340.543    4216.71    19.7454    55.5264    440.006  
   937.928    340.818    4218.04    17.4296    53.7502    438.255  
   936.057    340.008    4219.63    17.7629    54.4685    439.871  
   935.669     340.21    4219.45    18.8144    55.3562    440.107  
   937.078    341.254    4217.83    19.7831    55.6099    438.601  
    929.11    340.309    4216.84    18.4024    53.9494    442.737  
   927.515    339.919    4217.81    18.0232    54.0968    444.007  
   926.026    340.348    4216.39    17.9449    53.9646    444.318  
   926.262    341.207    4214.93    18.1719    53.7012    443.002  
   934.674    340.288    4217.71    17.0745    52.6089    439.765  
   932.813    339.582       4219    16.3415    52.3345    441.161  
   931.904    339.773    4217.91    15.5254    51.6054    441.278  
   932.816    340.703    4216.24    15.2987    51.1739    439.767  
   932.433    340.761    4216.35    19.7446    55.5228    440.676  
   931.688    339.845    4217.91    19.1323    55.5989    442.155  
   932.689    339.507    4218.74    18.6245    55.2195    441.847  
    934.46     340.03    4217.42    18.6674    54.7494    440.316  
    924.81    341.751    4214.76    17.9954    53.6178    443.496  
   924.693    340.884     4216.2    17.7876    53.8876    444.758  
   926.279    340.432    4217.76    17.8872    54.0399    444.435  
   927.864    340.808    4216.87     18.283    53.9079    443.237  
   929.329    341.825    4215.68    14.6928    50.0804    440.795  
   928.787    340.851    4217.33    14.9264    50.4315     442.18  
   930.081    340.568    4218.91    15.7329    51.1584    441.989  
   931.998    341.232    4217.83    16.4639    51.4961    440.774  
   935.525    340.786    4216.96    15.3504    51.4115    438.613  
   934.293    339.822    4218.69    15.6789    51.9303    440.186  
   934.871    339.738    4219.51    16.6691    52.8044    440.156  
     936.8    340.585    4218.08    17.5349     53.184    438.706  
   932.734    345.497    4217.97    23.2111     58.895    439.302  
   932.194    344.169     4219.6    22.1118    58.8959    440.618  
   933.442    343.726    4220.89    20.9925    57.9914    440.117  
   935.747    344.439    4219.62    20.5918    56.9707    438.698  
   932.665     345.82    4217.59    11.8974    47.9384    437.296  
   931.833     344.39    4219.47     12.613     48.382     438.61  
   932.959    344.214    4221.52    13.9984      49.67    438.464  
   935.582    345.373    4220.42    15.2072    50.7214    437.465  
   938.477    344.146    4219.78    19.2279    55.6218    437.397  
   936.115     343.22    4221.25    19.8084    56.7178    438.875  
   935.235    343.571    4220.43    21.1453    57.8536    439.304  
   936.292    344.968    4218.76    22.4156    58.1165    437.956  
   932.024    342.356    4218.14    20.2619    56.6458     441.07  
   930.119    341.927    4219.25    20.2912    57.2851     442.47  
   928.668    342.399    4217.88    20.9424    57.7523    442.919  
    928.93    343.441    4216.37    21.6571    57.5772    441.581  
   918.799    342.865    4216.34    18.7834       53.7    447.102  
    917.52    342.615    4216.74     18.271     53.738    447.859  
   915.564     343.15    4214.48    18.0654    53.4936    448.176  
   915.119    343.971    4213.19    18.1672    53.1894    447.244  
   929.964    348.945    4220.83    23.9162    60.4684    440.662  
   927.639    348.472    4221.67    24.2315    61.6544    441.814  
   925.823    349.019    4219.26    25.0988    62.3186    442.439  
   925.304    350.373    4217.67    25.9944    61.7748    441.324  
   943.489    349.901    4223.12    19.9122    56.3732    433.059  
   940.739    347.575    4224.51    17.7745    54.8281    433.806  
   940.693    347.438    4223.81    15.8043    52.9221    433.596  
   943.167    349.647    4222.05    14.3293    51.4453    432.516  
   938.745    343.953    4218.86    14.6878    51.2921    436.141  
   936.976    342.622    4220.68    15.4874    52.1695    437.624  
   937.256     342.67    4221.44    17.0431    53.5768    437.727  
   939.511    344.013    4219.93    18.4264    54.4193    436.453  
   943.102    349.987    4222.05    13.7472    50.9539    432.332  
    940.72     347.71    4223.85    15.2432    52.3737    433.388  
   940.838    347.826    4224.75    17.2143    54.2939    433.566  
   943.738    350.192    4223.42    19.3804    55.9654    432.874  
   925.151    349.681    4216.76    9.73205    44.7438    438.607  
   925.189    348.208    4218.66    10.3141    44.6948    439.658  
   926.838    347.923    4221.99    11.4553    45.8124    439.382  
   929.574    349.034    4221.44    12.5502    47.1133    438.861  
   928.978    347.134    4220.35    13.2921    47.7957    439.821  
   926.514    346.179       4221    12.3103    46.7825    440.485  
    924.86    346.483    4218.03    11.2245    45.7501    440.747  
   924.907    347.809    4216.22    10.7205    45.6759    439.643  
   927.561    342.629    4215.77    20.4999    56.5408    442.343  
   927.352     341.68    4217.26    19.9616    56.7679    443.674  
   928.833    341.214    4218.62    19.5504    56.5076    443.273  
   930.585    341.593    4217.57    19.6687    56.0404     441.91  
   915.054    343.968    4213.17    18.0731    53.2367    447.291  
   915.517    343.148    4214.46    17.9729    53.5438    448.217  
   917.477    342.613    4216.73     18.176    53.7869    447.902  
   918.754     342.86    4216.34    18.6878    53.7476    447.154  
   921.769     349.61    4216.63     25.274    61.3289    442.936  
   922.468    348.408    4218.11    24.6035    61.9759    444.008  
   924.399     347.83    4220.56    23.9913    61.5558    443.417  
   926.408    348.127    4219.83    23.8856     60.607    442.311  
   938.735    346.418    4219.96    22.4708    58.1583    436.354  
   937.293    344.752    4221.64    20.9207    57.6291    437.587  
   937.948    344.448    4222.22      19.33    56.2164     437.18  
   940.497    345.712    4220.67    18.4618    54.9019    435.785  
   940.987    345.809    4220.65    17.5261    54.1149    435.348  
   938.499    344.425    4222.27    18.4701    55.4161    436.731  
   938.019    344.682    4221.96    20.1287    56.9082    437.086  
    939.72    346.388    4220.31    21.7398    57.5972    435.884  
   931.208    352.936    4219.05    7.65869    44.5289    434.626  
   930.905    350.879    4221.17     8.6448    44.5513    435.594  
    932.22    350.698    4224.79    10.0874    46.0525    435.336  
   935.764    352.428     4224.3    11.6474    48.1711    435.035  
   928.186    341.914    4217.53     16.392    50.9697     442.34  
    926.43    341.349    4218.39    15.7413    50.7067    443.398  
   924.884    341.717    4216.53    15.0906    50.1093    443.641  
   925.112     342.66    4214.97    14.9479    49.8347    442.391  
   940.663    350.804    4221.85    24.7675    60.0684    434.285  
   939.233     348.49    4223.54    22.7649    59.3743    435.182  
   939.972    348.162    4224.53    20.9486    57.6812    434.678  
   943.104    349.985    4223.17    19.6438    55.7829     433.61  
   943.595    349.922    4223.11    18.8796    55.1195    433.331  
   940.516    348.023    4224.54    20.2251     56.981    434.406  
   939.886    348.322    4223.79    22.0828    58.7256    434.872  
   941.543    350.661    4222.13    24.1346    59.5796    433.994  
   923.054    342.219    4214.38    16.0784    50.9801    443.791  
   923.012    341.347    4215.86    16.0696    51.2216    444.982  
   924.673    340.929    4217.73     16.481    51.6259    444.709  
   926.279    341.385    4216.98    17.0318     51.738    443.689  
    915.63    344.417    4213.28      15.47    49.1044    446.061  
   916.002    343.539    4214.68    15.5203    49.2428    446.986  
   917.924    343.069    4217.23    15.9843    49.6813    446.718  
   919.368    343.522    4216.89    16.6082     49.928    446.113  
   925.185    353.144    4218.42    27.9153    63.3656      440.4  
   926.001    351.607    4220.11    26.9415    64.1696    441.421  
   927.821    351.063    4222.96     26.021    63.4229    440.744  
   930.407    351.681    4222.24    25.5147    61.9002    439.728  
   921.673    348.675    4219.23    23.9605    61.1345    444.467  
   919.951    348.555    4219.79    23.9108    61.9262    445.449  
   917.891    349.133    4217.11    24.2844    62.1361    445.988  
   916.936    350.164    4215.72    24.7334     61.355    445.012  
   918.463     344.95    4217.37    16.1944    49.0338    446.083  
   916.992    344.462    4217.65    15.5523    48.7046    446.595  
   915.051    344.933    4214.92    15.0576    48.2335    446.862  
    914.63    345.835    4213.49    14.9832     48.156     445.99  
    918.19    343.367    4215.25     18.808    53.4637    446.834  
   919.632    345.704    4216.41    21.5537    58.2364    445.623  
   931.825    342.968    4217.15    20.5589     56.856    440.584  
   928.864    340.819    4215.89    18.4638    53.7991     442.28  
   919.393    343.621     4216.7    20.1359     56.008    446.643  
   924.137    341.638    4216.64    18.5921    53.8106    444.961  
   926.621    343.798    4217.89    20.9229    57.4847    443.377  
   930.409    341.039    4217.33    19.3203    55.2872    442.021  
   918.749    344.128    4215.64    20.1734    55.8599    446.378  
   923.705     342.14    4215.62     18.633    53.6165    444.596  
   926.174    344.369    4216.87    21.0973    57.5695    442.995  
    930.19     341.59    4216.38    19.4946    55.3081    441.554  
   925.316    342.483    4217.15    19.7675    55.6929    444.277  
   924.879    343.009    4216.14    19.8729     55.635    443.906  
   918.229    342.626     4216.6    18.5138    53.7346    447.434  
   919.665    345.022     4217.8    21.3461    58.4794    446.321  
   931.074    342.019    4218.76     20.248    56.9269    441.751  
    928.34    339.998    4217.38    18.2053    54.0329    443.352  
   918.037    343.443    4217.16    19.7347    56.2329    447.507  
    922.69    341.318    4217.33    18.1464    53.9036    445.974  
   924.923    343.518    4218.73    20.8015    58.0206     444.56  
   928.682    340.641    4218.36    19.1333    55.6639    443.365  
   918.783    343.425    4216.99    19.9221    56.1181    447.029  
   923.463    341.362    4217.04    18.3591    53.8701    445.436  
   925.806    343.544    4218.38    20.8425    57.7221    443.937  
   929.561    340.722     4217.9    19.2089    55.4623    442.673  
    923.75    342.192     4217.9    19.4809    56.0029    445.386  
   924.575    342.224    4217.59    19.6093    55.8394      444.8  
   916.485    342.832     4215.6    18.1478    53.6025    447.969  
   917.809    345.307    4216.84    21.2467    58.7775    447.023  
   929.272     342.08    4218.53    20.5728      57.57    442.669  
    926.66     340.06    4217.07    17.9581    54.0276    444.147  
   916.059    344.005    4214.92    19.7023    56.1167    447.882  
   920.954    341.796     4215.5     18.001    53.7115    446.285  
   923.174     344.04     4216.9    21.2039    58.2624    445.008  
   927.228    341.092    4217.01    19.4064    55.8191    443.738  
    916.99    343.672    4216.03    19.6878    56.1961    447.649  
   921.738    341.495    4216.39    18.0505    53.7996    446.102  
   923.957    343.711    4217.79      20.96    58.1968    444.752  
    927.84    340.789    4217.66     19.235    55.7639    443.533  
   922.016    342.695    4216.11    19.6078    56.0263    445.761  
   922.796    342.379    4216.99    19.5111    56.0377    445.546  
   915.232     343.57    4213.78    18.0996    53.3402    447.757  
   916.429    346.117    4214.99    21.5414    58.4566    446.858  
   928.695    342.906     4217.1     21.339    57.6722    442.324  
   926.038    340.778    4215.64    18.0485    53.8315    443.716  
   915.508    344.858    4213.64    19.9069    55.7046    446.922  
   920.846     342.63    4214.12    18.1632    53.4262    445.161  
   922.973    345.022    4215.49    21.7225    57.9107    443.844  
   927.478     342.02    4215.53    19.8654    55.5997    442.406  
    915.68    344.442    4214.22     19.809    55.9074    447.454  
   920.791    342.221    4214.77    18.0689    53.5672    445.775  
   922.972     344.53    4216.15    21.4955    58.0863    444.494  
   927.249    341.551    4216.25      19.65    55.7126    443.135  
   921.862    343.584    4214.72    19.9434    55.7075    444.612  
   921.835    343.145    4215.37    19.7855    55.8663    445.246  
    916.03    344.054    4213.69     18.396    53.1762    446.896  
   917.139    346.587    4214.92    21.6455    58.1675    445.845  
   929.937    343.661    4216.31    21.4242    57.3745    440.852  
   927.186    341.389    4214.96     18.313    53.6648    442.417  
   916.432    344.905    4214.13    20.0095    55.6807     446.52  
   921.771    342.765    4214.38    18.3484    53.4034    444.691  
    923.96    345.153    4215.71    21.5872    57.7987     443.24  
   928.433    342.213    4215.51    19.8275    55.4838    441.756  
   922.813    343.708    4214.96    19.9689    55.6394    444.077  
   909.969    344.093    4215.44    18.6746    53.2122    450.699  
   912.283    346.815    4216.77    21.9606    59.1965    449.225  
    909.25     344.57    4214.24    18.7112    52.9433    450.551  
   911.452    347.241    4215.68    21.9094    59.0242    449.049  
     911.4    345.721    4216.24    20.2057    56.1399    450.093  
   910.634    346.166    4215.12    20.1985    55.9139    449.932  
   908.956    343.893    4215.46    18.0879    53.1469    451.011  
   911.155    346.827    4217.01    21.5789    59.5317    449.848  
   909.549    343.894    4215.53    18.3555    53.1943    450.812  
   911.811     346.75    4216.98     21.761    59.3442    449.503  
   910.322    345.624    4216.37    19.7162    56.2689    450.564  
   910.949    345.588    4216.39    19.9435    56.2033     450.29  
   906.927    344.443    4212.68    17.8441    52.8768    451.243  
   909.046    347.401    4214.26    21.5184    59.3926    450.194  
   907.917    344.139    4214.07    17.9516     52.988    451.081  
   910.076    347.082    4215.65    21.5139     59.512    449.983  
   908.262    346.186    4213.64    19.5592    56.0613    450.846  
   909.267    345.874    4215.01    19.6133    56.1764    450.663  
     906.2    345.188    4211.47    17.8604    52.6059    450.656  
   908.052     348.19    4213.08     21.607    58.7123    449.493  
   906.452    344.825    4211.97    17.8355    52.7427     450.99  
   908.453    347.807    4213.55     21.583    59.0417    449.895  
   907.421    346.943    4212.45    19.6095    55.5954    450.201  
   907.737    346.576    4212.94    19.5857    55.8243    450.568  
   907.038    345.235    4212.24    18.1435    52.5862    450.475  
   908.899    348.124    4213.84    21.6531    58.7217    449.179  
   908.266    346.929    4213.21    19.7785    55.5861    449.959  
   915.963    344.048    4213.68    18.2991    53.2234    446.948  
   918.145    346.618    4215.14    21.1651    57.7994    445.488  
   928.525    342.815    4215.76    20.3901     56.399    441.675  
    925.75    341.921    4214.86    18.1476     53.587    442.938  
   916.131    344.937    4213.82    19.5343    55.5887    446.748  
   919.716    343.012    4213.97    17.9528     53.376    445.547  
   922.546    344.492    4215.22    20.9419    57.1372    444.212  
   926.224    342.048    4215.23    19.2684    55.0409    442.947  
   917.057    344.994    4214.29    19.6336    55.5611    446.339  
   920.642    343.139    4214.29    18.1451    53.3557      445.1  
   923.511    344.608    4215.44    20.8742    57.0463    443.636  
   927.173    342.225    4215.27    19.2929    54.9557    442.335  
    921.12    343.695    4214.59    19.5166    55.3153    444.922  
   922.064    343.812    4214.85    19.5763    55.2588     444.41  
   915.176    343.566    4213.76    18.0068     53.389      447.8  
   917.384    346.128    4215.27    21.0487    58.0775    446.534  
   927.353    342.148    4216.49    20.2562    56.6588    443.075  
   924.645    341.321    4215.45    17.8804     53.751    444.183  
   916.647    344.081    4215.11    19.3211     55.984    447.725  
   919.901    342.176    4215.34    17.8036    53.6657    446.629  
   922.729    343.566    4216.62    20.5093    57.4902    445.385  
   926.048    341.146    4216.69    18.8939    55.2825    444.246  
   916.284    344.518    4214.41     19.432    55.7835    447.289  
     919.7    342.603    4214.61    17.8644    53.5192     446.14  
   922.534    344.033    4215.88    20.7499    57.3132    444.862  
    926.03    341.596    4215.94    19.0877     55.163    443.657  
   921.301     342.82    4215.96    19.2223    55.6345    446.051  
   921.105    343.265    4215.23    19.3751    55.4739    445.544  
    916.44     342.83    4215.58    18.0541    53.6528     448.01  
   918.699    345.326    4217.08     20.741    58.3658    446.722  
   927.978    341.369    4217.91    19.7171    56.6729    443.455  
   925.383    340.587    4216.96    17.8123    53.9592    444.577  
   918.609    343.524    4217.31    19.3427    56.0932    447.351  
   921.686    341.688    4217.26    17.9609    53.8687    446.317  
   924.475    343.049     4218.4    20.2245    57.3438    444.966  
   927.568    340.688    4218.13    18.7424    55.2308    443.888  
   917.568     343.75     4216.2    19.3014     56.059    447.493  
   920.715    341.873    4216.29    17.8596    53.7582    446.443  
   923.512    343.241    4217.49    20.3274    57.4602    445.148  
   926.699    340.843    4217.38    18.7861    55.2712    444.049  
   923.059    342.315    4217.79     19.155    55.6592    445.686  
   922.096    342.505    4216.86    19.1573    55.6643    445.841  
   918.185    342.624     4216.6    18.4183    53.7827    447.481  
    920.55    345.063    4217.96    20.8286    58.0796    446.005  
   929.726    341.286    4218.15    19.5874    56.2507     442.57  
   927.104    340.501    4217.37    18.0775    53.9849    443.812  
   919.979    343.716    4216.83    19.7382     55.871    446.472  
   923.115    341.999    4216.64    18.4186    53.7867     445.36  
   926.097    343.312    4217.59    20.4237     56.905    443.794  
   929.232    341.065    4217.16    19.0032    54.9354    442.602  
    919.36    343.512    4217.13    19.5268    55.9804    446.866  
   922.453    341.727    4217.01     18.179    53.8412    445.804  
   925.327    343.069    4218.06    20.3063    57.1025    444.349  
   928.424    340.759     4217.7     18.858    55.0775    443.223  
   924.584    342.598    4217.08    19.4821    55.3953    444.614  
   923.867    342.343     4217.5    19.3044    55.5229    445.118  
   918.138    343.361    4215.24    18.7109    53.5109    446.889  
    920.57    345.769    4216.56    21.0522    57.8473    445.271  
   930.346    342.156    4216.62    19.8819    56.1233    441.447  
   927.553    341.324     4215.9    18.3358    53.7445    442.806  
   919.351    344.227    4215.77     19.782    55.7272    446.199  
   922.643    342.503     4215.6    18.4549    53.5838    445.013  
   925.649    343.853    4216.59    20.5642    56.9256    443.418  
   928.967    341.602    4216.21    19.1364    54.8951    442.155  
   924.128    343.117    4216.07    19.5707    55.3065    444.254  
   920.213    346.836    4215.13    13.2222    46.3857    442.612  
   930.311    342.171    4215.65     15.181    50.2386     440.19  
   933.845    346.477    4217.49     12.735    48.3477    436.601  
   926.382    350.288    4217.22    10.5844    45.0262    438.073  
   924.415    344.274    4215.21    13.6504    48.2153    441.833  
   921.873    347.996    4215.57    11.1915    45.4987    440.926  
   930.865    343.637    4216.55    13.3055    48.9872    439.123  
   929.197    347.887    4217.29    10.7424    46.3762    437.863  
   925.433    344.623    4215.47    14.1854    48.3499    441.327  
   922.998     348.46     4216.1     11.894    45.6807    440.471  
   931.937    344.126    4216.49    13.9614    49.2641    438.476  
   930.408    348.527    4217.46     11.592    46.7273    437.241  
   926.639    345.857    4216.15     12.247    47.3442    439.993  
   927.743    346.331    4216.37    12.9239    47.5766    439.434  
   919.216    345.937    4215.31    12.6832    46.2877    443.567  
   928.956    341.316    4216.48     14.749    50.2421    441.549  
   932.142    345.034    4218.52     12.162    48.1385     438.04  
   925.082    348.888    4217.65    9.91309     44.715    439.235  
   924.273     343.24    4216.85    13.8945     48.399    443.011  
   922.039    346.742    4217.32    11.5903    45.4801    441.945  
   930.181    342.459    4218.31    13.7689    49.3817    440.481  
   928.782    346.424    4219.19    11.3986    46.5762    439.041  
   924.246    343.741    4215.99    13.7026    48.2998    442.489  
   921.864    347.334    4216.39    11.2949    45.4869     441.52  
   930.419    343.004    4217.41    13.4601     49.167    439.875  
   928.894    347.093    4218.21    10.9711    46.4631    438.548  
   926.365    344.638    4217.91    12.6813    47.5416     441.18  
   926.405    345.211    4216.99    12.3802    47.4328    440.666  
   920.285    345.154    4217.61    13.2813    46.5288    443.777  
   929.299    340.621    4218.07    15.3221    50.7427    442.054  
    932.24    344.187     4220.4    13.3119     48.924    438.459  
    925.89    347.965    4220.24    10.9086      45.08     439.41  
   925.854    342.886    4219.08    14.6792     49.128    442.774  
   923.802    346.402    4220.44    12.5279    46.3761     441.67  
   931.384    342.227     4220.1    14.8577    50.3769    440.314  
   930.156    346.188    4221.87    12.6674    47.7933    438.829  
   924.949    342.983    4217.92    14.2888    48.6801    442.842  
   922.814    346.487    4218.82    12.0766    45.7831    441.715  
   930.638    342.243    4219.14    14.3128    49.8034    440.346  
   929.329    346.199    4220.44    12.0484    47.0501    438.845  
   927.845     344.34    4220.33    13.6943    48.4964    440.956  
   926.978    344.397    4219.05    13.1963    47.9129    441.001  
   922.284    345.224       4219    14.0326    47.3879    443.389  
   931.028    340.769    4218.44    16.1175    51.3819    441.375  
   934.177     344.62    4221.08    14.6239    50.2793    437.971  
   928.136    348.284    4221.86    11.9976    46.5543    439.083  
   927.786    343.568    4218.31    15.4301    49.6202     441.88  
   926.092    347.283    4219.95    13.4347    47.3076    441.117  
   933.628    343.116       4219    15.8097     51.049    439.191  
   932.854    347.334    4221.03    13.8242    48.9871    438.069  
   926.821     343.08    4218.78    15.0621    49.4374    442.302  
   924.924    346.668    4220.31    12.9787    46.9212     441.35  
   932.454    342.522    4219.64    15.3545    50.7814    439.753  
    931.42    346.576    4221.58    13.2524    48.4798    438.437  
   930.117    345.219    4219.51    14.6208    49.2971    440.106  
   928.942    344.616    4220.02     14.166    48.9723    440.513  
   922.699    346.374    4217.16    14.3639    47.1176    442.739  
   931.916    341.784     4216.7    16.2812     51.015    440.189  
   935.713    346.162    4218.87    14.8443    49.9188    436.717  
   929.252    349.864    4219.53    12.4182    46.3541    438.273  
   927.484    344.175    4216.99    15.3083    49.1166    441.381  
   925.658    348.007    4218.26    13.3436      46.68    440.624  
   933.652    343.775    4217.68    15.5401    50.4167    438.529  
    932.77    348.152     4219.3    13.5723     48.199    437.397  
    929.92    345.914    4218.02     14.435    48.6634    439.528  
   918.722    348.212    4217.33    13.2953    45.6277    444.076  
   928.658    347.881    4218.64    13.1253    47.0904    439.258  
   925.925    352.097    4222.47    10.6617    44.8899    439.178  
     914.9    350.251    4219.59    12.2163    43.5612    445.028  
   924.547    347.383    4219.72    13.2782     46.966    441.884  
   925.392    352.964    4220.33     10.739    44.2146    438.685  
   914.072     350.93    4217.78    12.4057    43.1556    444.792  
   924.063    348.081    4218.05    13.2115    46.3721    441.431  
   920.835     351.25    4221.13    11.4087    44.2463     441.76  
   920.158    352.034    4219.17    11.5301    43.7019    441.391  
   918.521    347.073    4219.14    12.8723    45.8156    444.486  
   927.704    346.478    4220.79     12.806    47.3749     440.12  
   923.144    350.937    4222.64    9.60104    43.2942     439.32  
   913.149    349.526    4219.41    11.4815    42.6494    444.928  
   922.393    346.559    4220.15    12.4212    46.1125    442.383  
   924.456    351.318    4222.73    10.0952    44.2011    439.205  
   914.059     349.73    4219.65    11.8092     43.195    444.922  
   923.463    346.803    4220.05    12.8464    46.6165    442.087  
   918.561    350.301    4221.15     10.522    43.0035    441.796  
   919.675    350.596     4221.3    10.9301    43.7257    441.728  
   916.533    347.038    4217.38    12.2257    44.9538    444.743  
   925.565    346.236    4219.45    11.7847    46.1201    440.526  
   921.413    351.269    4218.48    8.67377    42.2927    439.641  
    911.14    349.962    4215.32    10.9926    42.1086    445.198  
   920.586    346.908    4216.98    11.5496    45.2778    442.651  
   922.174    351.019    4220.48    9.17384    42.6001    439.372  
   912.085    349.703    4217.34    11.2621    42.2276    444.987  
    921.39    346.655    4218.51    12.0018    45.5506    442.427  
   916.693    350.677    4217.02    9.80662    42.2302    442.096  
   917.543    350.426    4219.03    10.1953    42.4434    441.852  
   915.259    347.799    4214.83    11.7254    44.8765    444.634  
   924.788    347.105    4217.08     10.872    45.7066    440.285  
   920.892    352.754    4216.51    8.23675    42.8209    438.803  
   910.259    350.963    4213.67    10.9272    42.6644    444.629  
   920.349    348.098    4215.27     11.208    45.3188    441.678  
   921.102    351.957    4217.38    8.34682    42.5627     439.34  
   910.633    350.447    4214.34    10.8758    42.4039    444.995  
   920.375    347.472    4216.06    11.2846    45.2973    442.245  
   916.004    351.949    4215.22    9.54478    42.7701    441.386  
    916.29    351.275    4215.98    9.57933    42.5119    441.841  
   916.061    348.655    4214.91    12.2935    45.0179    443.873  
   926.077    348.323    4216.62    11.4747    45.9167    439.116  
   922.062    353.377    4217.31    9.14076    43.0417    438.354  
   911.169    351.323    4214.73    11.5467    42.6761    444.433  
   921.437    348.528    4215.85    11.8734    45.4702    441.263  
   917.047    352.453    4216.15    10.2994     42.882     441.06  
   938.924    350.811    4221.11    22.9563    59.1872    435.539  
   929.435    349.719    4219.51    24.1503    60.8543    440.223  
   934.375    349.316    4221.73    23.2967    59.5518    438.386  
   938.555    354.673    4225.23    25.9588     60.928    435.406  
   927.029    353.619    4222.51    26.8491    63.2458    440.885  
   934.114    350.261    4220.31    23.6855    60.1305     437.84  
    938.36    356.025     4223.3    26.2239    61.6806    434.762  
   926.199    354.402    4221.02    26.8382    63.5713    440.477  
   932.759    354.158    4223.87    26.3257    62.1597    437.979  
   932.235    355.236    4222.17    26.4581    62.7085    437.454  
    937.27    348.899    4223.32    22.8321    59.2026    436.761  
   928.789     348.57    4221.34    24.0615    60.9889    441.198  
   931.713    348.482    4222.72    23.9039    61.0017    439.541  
   935.158    353.159    4225.88    27.1099    63.3151    436.161  
   924.615    353.147    4223.08    27.2873     64.793    441.802  
    932.98    348.731    4222.33    23.5851    60.1992    438.936  
   936.679     353.68     4225.7    26.5723    62.0335    435.755  
   925.804    353.253    4222.93    27.0931    63.9206    441.305  
   929.852    353.146    4224.49    27.1273    64.1144    438.807  
   931.209    353.468    4224.32    26.7572      63.04    438.358  
   935.113      348.6    4222.75    23.9787     60.925    437.558  
   926.631    348.664    4220.43    24.6056    62.1266    442.058  
   930.153    348.964    4220.56    25.0789    61.9759    440.169  
   933.818    353.639    4223.07    28.4589    64.5925    436.874  
    922.71    353.703    4219.84    27.9904    65.3799    442.463  
   930.813    348.622    4221.57    24.4332    61.6285    439.768  
   934.367    353.283    4224.36    27.7165    64.1283     436.39  
   923.581    353.355    4221.44    27.5718    65.2624    442.062  
    928.22    353.643    4221.42    28.1626    65.0464    439.494  
   928.934    353.302    4222.89    27.5772     64.759     439.05  
   934.712    349.791    4221.04    25.6151    61.4552    437.571  
   925.487    349.666     4218.4    25.6176     62.045    441.987  
   930.065    350.592    4218.88     26.299    61.6894     439.07  
   933.461    355.883     4221.1    29.9887    63.9544    436.056  
   921.485    355.097    4218.16     28.704     64.206    441.508  
    930.02    349.709    4219.68    25.7595    61.8364    439.738  
   933.615    354.629    4222.01    29.2863     64.284    436.627  
   922.083     354.37    4218.87    28.4248    64.7837    442.112  
   927.411    355.467    4219.59    29.2907    64.1232    438.601  
   927.797    354.471     4220.4    28.7979    64.5846    439.192  
   936.331    351.571    4219.94    25.5376    60.9569     435.89  
   926.433    350.648       4218    25.4938    61.5816    440.557  
   931.286    351.098    4218.95    25.6473    61.3577    438.181  
   934.757    356.819    4221.24    28.9649    63.4954    435.031  
   922.513    355.371    4218.86    28.0646    64.0859    440.765  
   928.574      356.1    4220.04    28.4547    63.8482    437.722  
   905.978     345.34    4211.47    17.9458    52.5412    450.773  
    909.45    348.339    4213.45    21.2636    58.4776     449.37  
   906.813    345.383    4212.25    18.2298    52.5208    450.599  
   910.307    348.283     4214.2    21.3135    58.4837    449.052  
   907.949    346.984    4212.59     19.754    55.5159    450.166  
   908.797    346.974    4213.34    19.9228    55.5053    449.923  
   906.718    344.598    4212.68    17.9334    52.8133    451.347  
   910.411    347.548    4214.64    21.1677    59.1332    450.093  
   906.237    344.978    4211.97     17.923    52.6785    451.099  
   909.834    347.956    4213.93    21.2352    58.7951    449.783  
   908.783    346.227    4213.78    19.7032    55.9774    450.816  
   908.261    346.617    4213.07    19.7299    55.7426    450.535  
    908.75    344.047    4215.47    18.1782    53.0836    451.118  
   912.519    346.979    4217.35    21.2236    59.2697    449.747  
   907.711    344.294    4214.08    18.0415    52.9244    451.187  
   911.438     347.23    4216.01    21.1611    59.2486    449.882  
   910.843    345.666    4216.49    19.8594    56.1827    450.533  
   909.787    345.915    4215.14    19.7569    56.0909    450.633  
   909.753    344.241    4215.46    18.7697    53.1509    450.824  
   913.666    346.982    4217.09    21.6102    58.9461    449.106  
   909.338    344.046    4215.56    18.4476    53.1319    450.928  
   913.183    346.906    4217.31    21.4073    59.0893    449.392  
   911.928    345.766    4216.37    20.3508    56.0535     450.06  
   911.473     345.63    4216.52    20.0875    56.1171    450.258  
   909.029    344.719    4214.27    18.8053    52.8794     450.68  
   912.845    347.412    4216.01    21.5667    58.7755    448.923  
   911.165    346.213    4215.24     20.344    55.8282    449.897  
   938.455    352.323    4219.93    10.6611    47.6782    432.528  
    944.36    351.407    4221.02     14.889    51.9027    431.438  
   947.165    354.404    4224.89     13.932    51.2115    429.558  
   940.352    355.287    4222.23    7.55333    46.4762    430.571  
   940.523    350.644    4221.25    11.5285    48.9575    432.763  
    948.68    356.559     4223.4    15.1091     52.259    428.632  
   942.049    357.067    4221.79     8.9907    47.3038    429.718  
   941.905    351.952    4220.58    12.7063    49.7929    431.904  
   944.269    354.756    4223.63    10.8509     48.859    430.128  
   945.893    356.707    4222.63    12.1667     49.809    429.223  
   936.254    349.889    4221.23    9.99871    47.2615    433.989  
   941.724    348.627    4223.02    14.4356    51.6265    432.946  
   944.413    351.157    4226.31    15.8941    53.1708    430.006  
   939.136    352.277    4224.29    9.15688    47.0971    431.199  
   938.727    348.392    4223.19     12.912    49.9842    433.825  
   945.537    352.432    4225.67    14.9196    52.1951    429.863  
   939.611    353.519    4223.23     8.2962    46.7877     431.03  
   939.463    349.325    4222.26    12.1413    49.4434    433.399  
   942.267    351.655    4225.41    12.6362    50.1741    430.703  
   943.075    352.903    4224.54     11.717    49.5196     430.53  
   936.085    348.764    4223.37    11.6162    48.3077    434.185  
   940.608    347.609    4224.11    16.2178    53.2939     433.32  
   944.435    351.296    4227.11    17.8411    55.1852    430.218  
   939.852    352.212    4227.32    10.8982      48.95    431.065  
   939.227    348.414    4224.94    14.7829    51.8414    433.857  
   944.288    351.052    4226.45    16.8593    54.1527      429.9  
   939.363    352.084    4225.57    10.0562    47.8809    430.933  
    938.81    348.248    4223.88    13.8501    50.8179    433.686  
   942.626    351.703    4227.32    14.4904    52.1308    430.746  
   942.312     351.51    4226.12    13.5733    51.0681     430.52  
   938.226    349.618    4224.55    13.3884    50.4236    434.032  
   942.055    348.767     4224.2    18.3001    55.1739    433.298  
   947.468    354.683    4226.15    20.4666    57.3473    430.217  
   943.872    355.097    4227.04    13.2009    51.8924    431.211  
    942.48    350.611    4223.83    16.8086    53.7301    433.246  
   945.664    352.632    4226.74    19.0854    56.2636    430.291  
   941.525    353.308    4227.37    11.9596    50.4487    431.139  
   940.622    349.264    4224.53    15.7881     52.845    433.599  
   946.197    354.835     4226.7    16.9652    54.7277      430.8  
   944.092    352.919    4227.17    15.6477    53.4385    430.811  
   940.692    352.094    4221.78    13.8963    50.2689    432.811  
   944.826    351.511    4221.71    18.6497    54.9009    431.755  
   948.914    356.711    4224.05    19.7058     56.238    429.038  
   944.677    356.906    4224.25    12.9315    50.7717    430.211  
    943.28    351.891    4221.86    16.2262    52.6335    432.208  
   947.342    356.724     4224.2    16.4506    53.5955     429.69  
   937.349    339.441     4216.3     17.183     53.037    438.477  
   936.372    341.261    4216.55    15.8948    51.6857    437.915  
   933.968    339.497    4215.64    17.7908      53.46    439.977  
   936.078    339.859     4216.9    16.1161    52.1817    438.887  
   934.861    339.001    4216.34    17.1725    53.1009    439.896  
     932.4    341.441    4216.35    14.9487    50.6626    439.729  
   931.202    340.309    4215.75    16.2749     51.935    440.801  
   936.809    340.315    4216.41    16.5655    52.3943    438.196  
   935.587    339.357    4215.91    17.4147    53.1408    439.213  
   933.329    341.849    4216.14    15.4651    50.8746    439.079  
   932.087    340.617    4215.57    16.5851    52.0002    440.161  
   933.525      340.1    4216.29    16.1834    51.9794    439.845  
   934.344    340.479    4215.97    16.5582    52.1076    439.179  
   935.931     338.56    4217.69     16.819    53.0878    440.022  
   934.817    340.246    4217.84    15.4522    51.6446    439.452  
   932.624    338.786    4216.73    17.5261    53.6225    441.484  
   934.744    338.997    4218.57    16.3115    52.6539    440.496  
   933.724    338.219    4217.94    17.0834    53.4321    441.499  
   931.534    340.468    4218.04    15.2279    51.0931    441.203  
   930.486    339.434    4217.36    16.2714    52.2362     442.27  
    935.33    339.366    4217.75    16.1629    52.3952    439.734  
    934.21    338.564    4217.15     17.103    53.2582     440.74  
   931.869    340.915    4217.19    15.0267    50.8583    440.523  
   930.747    339.847    4216.55    16.2377    52.0774    441.589  
   932.523    339.224    4217.94    16.2705    52.3592     441.38  
   932.934     339.62    4217.12    16.1845    52.1552    440.661  
   935.197    338.153    4218.57    17.1745    53.5787    440.822  
   934.418    339.678    4219.04    16.1581    52.3366    440.144  
   932.564    338.202    4217.87    17.4356    53.7915    442.112  
   935.087    338.957    4219.09    17.1126    53.3516    440.503  
   934.236    338.099    4218.46    17.4233    53.7388    441.423  
   932.508    340.277    4219.28    16.1223    51.8945    441.085  
   931.534    339.165    4218.46    16.7175    52.6565    442.087  
   934.753    338.878    4218.78    16.6919    52.9835    440.481  
   933.826    338.068    4218.16    17.2287    53.5783    441.454  
   931.872    340.277    4218.61    15.6637     51.451    441.115  
   930.871    339.213    4217.87     16.477    52.4206    442.162  
   933.253    339.061    4218.77    16.8778    52.9044    441.283  
   932.738     339.05    4218.31    16.5555    52.6085    441.314  
   936.156    338.565    4218.01    17.8493    53.9282    440.095  
   935.773    340.053    4218.86    17.1348    53.0457    439.457  
   933.953    338.342    4217.65    17.6728    53.7821    441.261  
   936.827    339.768     4217.6    17.8636    53.5898    438.984  
   935.857    338.748    4217.03    17.9077    53.6991     439.86  
   934.447    341.027    4218.03    16.9176    52.2542     439.76  
   933.294    339.757    4217.26    17.2595    52.7439      440.7  
   935.893     339.27    4218.39    17.5158    53.5103    439.774  
   935.007    338.337    4217.78    17.6743    53.7388    440.661  
   933.442    340.532    4218.72    16.5454    52.1285    440.431  
     932.4    339.349    4217.92    16.9966    52.7311    441.393  
    935.01    339.756    4217.43    17.5171    53.0585    439.834  
   934.094    339.305    4218.15    17.2142    53.0167    440.572  
   937.525    339.448    4216.47    17.9989     53.625    438.535  
   937.153    341.119     4217.1    17.2504    52.6717    437.967  
   934.943    339.175    4216.12      17.91    53.5614    439.888  
   937.266    340.249    4216.75    17.6463    53.1777    438.249  
   936.176    339.192    4216.24    17.8676    53.4705    439.195  
   934.567    341.574    4216.96    16.6876    51.7536    439.102  
   933.334    340.264    4216.31    17.1966    52.4431    440.112  
   935.233    340.255    4216.52    17.3851    52.7041    439.176  
   922.817    349.779    4217.08    24.9167    61.2188    442.274  
   919.315    347.905    4215.56    23.4145     59.579    444.549  
   914.128    352.556    4215.84    25.9894    62.8985    445.424  
   920.311    347.996    4216.01    23.2279    59.5046    443.982  
   915.043    352.581    4216.63    25.6752    62.8875    444.888  
   911.862    350.881    4214.85     23.432    60.5749    447.509  
   912.748     350.85    4215.61    23.3133    60.5738    447.088  
   922.043    348.995     4217.3    25.0002    61.6468    443.563  
   919.952    346.863    4216.95    22.9219    60.1392    445.604  
   915.387     351.53    4217.23    25.6513    63.9566    446.299  
   919.546    347.383    4216.19    23.2111     59.854     445.15  
   914.704    352.042     4216.4     25.879    63.4106     445.95  
   912.944    349.983    4216.12    23.2192     61.409    448.312  
   912.326     350.44    4215.36    23.3636    60.9786    447.979  
    923.35    348.049    4219.32    24.2406    61.8896    443.653  
   921.904    346.281    4219.24    22.5412    59.9224    445.089  
   917.486    350.969    4220.29    25.3438    63.7714    445.773  
   920.855     346.51    4218.08    22.6829    60.1181    445.297  
   916.386    351.202    4218.77    25.4428    63.9946     445.99  
    915.04    349.409    4218.96    23.1051    61.3955    447.879  
   913.953    349.656    4217.55    23.1176    61.4882    448.055  
   925.425    347.855    4220.28    23.9284    61.0202    442.818  
    923.63    346.482    4218.59     22.637     59.259    444.025  
   919.183    351.053    4219.81    25.3231    62.8347    444.907  
    922.81    346.269    4218.99    22.5769    59.5511    444.512  
   918.393    350.927    4220.16    25.3446    63.2344    445.305  
   916.447    349.433    4218.59    23.3066     60.791    447.112  
   915.818    349.344    4218.88    23.2059    61.0518    447.461  
   925.755     348.82    4218.62    24.0259    60.8332    441.951  
   922.981    347.085    4217.48    22.7392    59.3422    443.708  
   918.251    351.595     4218.6    25.2494    62.8934    444.627  
   915.584    349.911    4217.47    23.2497    60.7278    446.886  
     938.4    341.427    4217.25    17.9566    54.1121    437.579  
   935.939    338.877    4216.12    17.9328    53.6241    439.422  
   935.947    340.465    4216.69    18.6687     54.659    439.055  
   937.151    339.834    4217.37    17.0822    53.3018    438.699  
   936.799    340.405    4217.78    17.8465    54.1205    438.927  
   936.287    338.699    4216.89    17.4245    53.4283    439.574  
   935.599    338.962    4217.09    18.0449    54.0487    439.903  
   937.704    340.358    4216.71     17.521    53.5485    438.022  
   937.129     340.99    4216.98    18.2849    54.3998     438.29  
   936.725    339.146    4216.22     17.652     53.464    438.918  
   935.821    339.459    4216.31    18.2569    54.0844    439.292  
   936.322     339.45    4217.24    17.6043    53.7702    439.311  
   936.705    339.961    4216.52    17.9256    53.9128    438.669  
   936.925    340.311    4218.88     17.543    54.0687    439.087  
   934.846    338.045    4217.64    17.6838    53.8213    440.856  
   934.826    339.507    4218.26    18.3127    54.7033    440.447  
   935.519    339.046    4218.98    17.2797    53.8763    440.329  
    934.97    339.696    4219.28    18.0427    54.7369    440.519  
   934.752    338.032    4218.41      17.31    53.7415    441.197  
     933.9     338.38     4218.5    17.9095    54.3961    441.491  
   936.266    339.356    4218.21    17.1351    53.5602    439.543  
   935.837    339.947    4218.57    17.9002    54.3944    439.737  
   935.469    338.289    4217.68    17.3439     53.577    440.408  
    934.72    338.576    4217.83    17.9568    54.2126    440.706  
   934.666    338.765    4218.75    17.6322    54.2263    440.916  
   935.445    339.018    4218.03    17.5855    53.9785    440.133  
   935.697    340.005    4219.48    18.2575    54.9237    439.961  
   933.586    337.854       4218    17.5124    53.8928    441.712  
     933.4    339.366    4218.57    18.6729    55.2721    441.356  
   935.407    339.157    4219.04     18.106    54.5784    440.465  
   934.362    339.938    4218.87    18.8978     55.437    440.778  
   934.498    338.133    4218.26    17.6233    53.9951    441.295  
   933.185    338.625    4217.93    18.2137    54.6181    441.704  
   935.299    339.002    4218.96    17.6653    54.2285    440.378  
   934.509    339.719    4219.03    18.4377    55.1008    440.627  
   934.468     337.99    4218.29    17.4407    53.8645    441.239  
   933.393    338.412    4218.18    18.0316    54.5134    441.589  
   934.251    338.937    4218.49    18.1927    54.6832    441.089  
   934.303    338.757    4218.57    17.8834    54.4595     440.99  
   936.274    340.661    4218.67    19.3425    55.5182    439.415  
   933.844    338.397    4216.97    17.6726    53.7779    441.044  
   933.517    340.035    4217.51    19.4211    55.5384    440.821  
   936.895     340.06    4217.47     18.905    54.7447    438.925  
   935.537    340.934    4217.28    19.7354    55.5752    439.274  
   935.795    338.911    4216.69    18.0942    53.9425    439.704  
   934.171    339.471    4216.35    18.6917    54.5108    440.149  
    936.07    339.535    4218.29    18.5384     54.694    439.742  
    934.85    340.379    4218.09    19.3534    55.5326    440.086  
   935.071    338.465     4217.5    17.8672    53.9836     440.54  
   933.587    339.011    4217.15    18.4632    54.5745    440.979  
   935.477    339.811    4216.91    18.8265    54.7079    439.543  
   934.779    339.318    4217.72    18.5315     54.716    440.365  
   937.875    341.694    4217.17    19.4232     55.159    437.761  
   935.202    339.133    4215.77    17.9217    53.6015    439.503  
   934.942    340.861    4216.31    19.5502     55.254    439.239  
   937.542    340.492    4216.76    18.6522    54.3565    438.142  
   936.364     341.32    4216.75    19.4587    55.2175    438.473  
   936.433    339.277    4216.13    18.0641    53.7511    438.987  
   934.967    339.778    4215.95    18.6552    54.3449    439.422  
   936.196    340.184    4216.37    18.6823    54.4382    438.792  
   937.321    339.334    4216.35    18.1883    53.8771    438.656  
   935.034    339.059    4216.48    18.0845     53.939    439.963  
   936.171    338.605    4216.92    17.9774    53.8221    439.713  
   935.742    339.396       4216    18.0901    53.7859    439.251  
   936.584    339.028     4216.2    17.9678    53.6332    439.032  
   935.606    338.725    4216.61    17.6275    53.5781    439.703  
   936.176    339.117    4216.04    17.7439    53.5128     439.02  
    935.93    338.488    4217.81    18.0268    54.1567    440.234  
   933.882    338.264    4218.06    17.6637    54.0372    441.542  
    934.63    337.931     4218.4    17.5377    53.9072    441.308  
   934.376    338.614    4217.28    17.8785    53.9986    440.797  
   935.351     338.19    4217.69    17.7633    53.8796    440.535  
   934.267    337.997    4218.17    17.3649    53.7862    441.309  
    934.87    338.299    4217.41    17.4867    53.6843     440.54  
   935.161    338.033     4218.5    17.4282    53.8969    440.945  
   934.351    338.105    4218.41    17.4383    53.8676    441.405  
   934.332    337.997    4218.09    17.2792    53.6763    441.346  
   933.963    338.093     4218.2    17.5244    53.9499    441.468  
   934.325    337.872    4218.21    17.3825    53.7878    441.322  
   934.373    337.968    4218.27    17.4097    53.8284    441.289  
   934.165    337.891    4218.18    17.3615    53.8031    441.293  
   936.065    338.376    4217.76    17.1613    53.4624    440.112  
    935.95    338.728    4216.95    17.6082    53.5876    439.804  
   935.593    338.745     4216.5    17.4198    53.3699    439.722  
   935.111    338.332    4217.72    17.5044     53.723    440.621  
   934.888    338.317    4217.31    17.3294    53.5169    440.572  
   935.814    338.666    4216.75    17.7257    53.6595    439.689  
   935.036    338.246    4217.54    17.5626      53.75    440.518  
   937.418    339.249    4216.31    17.5048    53.3895    438.583  
   936.285    339.188    4216.23    17.7977    53.5881    439.167  
   936.243    339.119       4216    17.6244    53.3836    439.037  
     936.3    339.079     4216.1    17.8045    53.5575    439.013  
   933.314    341.032    4216.06    19.6128    55.3113    439.942  
   936.857    341.553    4216.91    19.6764    55.4529    438.287  
    932.68    339.817    4216.07    18.6039    54.3999    440.695  
   934.329    340.962    4216.94    19.8378    55.6738    439.799  
   936.194    339.996    4217.18    19.0979    54.9685    439.251  
    933.52    340.091    4215.77     18.616    54.2764    439.992  
   935.193    341.303    4216.51    19.6108    55.3747    439.021  
   936.907    340.384    4216.57    18.8859    54.6392    438.476  
   934.487    339.912    4216.64     18.857    54.7505    439.939  
    935.26    340.248    4216.19    18.7561    54.5295    439.201  
   931.962    340.275    4217.13    19.4623    55.5734    441.476  
    935.31    340.598    4218.29     19.588    55.7877    439.926  
   931.871    338.967    4217.63    18.1929    54.5593    442.213  
    933.34    339.987    4218.52      19.08    55.6216    441.293  
   934.881    339.098    4218.76    18.3667    54.8854    440.802  
    932.18    339.365    4216.85    18.4035    54.4855    441.508  
   933.734     340.43    4217.74    19.4914    55.6682    440.608  
   935.452    339.485    4217.99     18.762    54.9527    440.077  
   933.424    339.038    4218.21    18.2883    54.7902    441.474  
   933.866     339.43    4217.44    18.5904    54.7856    440.758  
   932.048    339.588    4218.29    18.8434    55.4284    441.988  
    934.95     339.92    4219.22     18.606     55.318    440.459  
   932.783    338.675     4218.4    17.9993    54.4388    441.972  
   934.129    339.699    4219.12    18.3509      55.04    441.005  
   935.215    338.931    4218.93    17.6519    54.2912    440.625  
   932.185    338.734    4217.98    18.0662     54.505    442.085  
   933.584    339.749    4218.78    18.6813    55.3487    441.131  
   934.888    338.918     4218.8    17.9794    54.5956    440.698  
   934.039    338.815    4218.68    17.8355    54.4352    441.268  
    933.58    338.835    4218.41    18.0318      54.62    441.359  
    933.56    339.663    4218.13    18.6175    54.9622     441.08  
   936.306     340.15    4218.77    18.0082    54.5422     439.56  
   934.488    339.206    4217.09     18.206    54.1417    440.437  
   935.962    340.333     4217.7    18.2422    54.4705    439.437  
   936.905    339.646    4217.38    17.5331    53.7507    438.998  
    933.62     338.84    4217.79    18.0869    54.2852    441.206  
   935.011     339.91    4218.46    18.2585    54.7246    440.229  
   936.004    339.199    4218.19    17.5531    53.9944    439.834  
   935.728     339.44    4217.24    17.8794    54.0203    439.686  
   934.847    339.033       4218    17.8301    54.2115    440.489  
   934.532    340.571    4216.57    18.9494     54.878    439.752  
   937.652    341.212    4217.14    18.3974    54.5568    438.096  
   934.598    339.706    4216.26    18.3725    54.1291    439.856  
    936.18    340.908    4216.87    18.6211    54.6987    438.831  
   937.342     340.17    4216.67    17.9166    53.9574    438.342  
   936.005    339.953    4216.47     18.152    54.1198    439.068  
   934.821    340.811     4216.7    16.8628    52.1508    439.108  
   937.424      340.6     4216.9    17.7359    53.2217    438.067  
   935.038    339.158    4217.18    17.5431    53.2174    440.003  
    935.81    340.279    4217.79    17.5236    53.0883    439.348  
   936.776    339.506    4217.36    18.1677    53.9509    439.095  
   935.239    339.642    4216.31    17.4878    52.9495    439.366  
    936.09    340.786    4216.84    17.2885    52.6271    438.647  
   937.304    339.949     4216.6    17.9795    53.5911    438.352  
   935.866    339.357    4217.28    17.8333    53.5043    439.558  
   936.219    339.824    4216.46    17.7196    53.1929    438.872  
   933.711    339.822    4218.41    16.7335    52.5205    440.473  
    936.02    339.596    4218.58    17.6195    53.5797    439.603  
   933.313    338.525    4218.52    17.0276    53.1794    441.501  
   933.977    339.511    4219.17     16.744    52.8057    440.791  
   935.177    338.692    4218.88    17.4645    53.7897    440.648  
   934.145    338.742     4217.9    17.2943    53.2242    440.762  
   934.845     339.79    4218.54    17.1624    52.9941    440.089  
   935.906    339.018    4218.16    17.8418    53.9031    439.907  
   934.201    338.636    4218.71    17.2299    53.4129    441.079  
   934.985    338.905    4218.04    17.5476    53.4877    440.341  
   932.208    339.583    4218.41    15.9197    51.9357    441.197  
   934.847    339.187    4218.94    16.6968    52.9703    440.294  
   932.551     338.72    4217.74    16.6241    52.8057    441.633  
    933.31    339.625    4218.32    15.8807    52.0421    440.845  
   935.057    338.673    4218.61    16.7537    53.1796    440.596  
   932.783    338.532    4218.09    16.8052    52.9752    441.556  
   933.486     339.47    4218.69    16.2955    52.3961    440.796  
   934.954    338.585     4218.7    17.0858    53.4737    440.607  
   933.736    338.728    4218.17    16.6892    52.9341    441.124  
   933.813    338.588     4218.4    16.9376    53.1588    441.088  
   932.264      340.2    4217.07    15.3566     51.371    440.577  
   935.424    339.682    4217.88    16.0716    52.3027    439.546  
   933.516    339.562    4216.12    16.6629    52.4909    440.082  
   934.424    340.534    4216.63    15.6379    51.5665    439.289  
   936.501    339.471    4216.98    16.6241    52.7179    438.967  
   932.943    339.105    4216.93    16.6126    52.6397    440.907  
   933.776    340.029    4217.48    15.7031    51.7819    440.117  
   935.707    339.003    4217.82    16.6445    52.9273    439.817  
   934.925    339.553    4216.54    16.6529    52.5511    439.538  
   934.248    339.088    4217.36    16.6341    52.7287    440.374  
   933.708    341.086    4215.99    15.7648    51.3596    439.105  
   936.939    340.662    4216.53    16.4965    52.3241    438.001  
   934.331    339.901     4215.8    16.9436    52.5499    439.406  
   935.257     340.96    4216.27    16.1216    51.7846    438.613  
   937.135    339.934    4216.41    17.0262    52.9042    438.283  
   935.657    339.954     4216.1    16.9894    52.6645    438.859  
    939.89    343.988    4218.36     18.647    54.4149    435.947  
   937.568    342.198    4218.38       19.7    55.5758    437.991  
   938.064    341.765     4218.6    18.5674    54.4191    437.795  
   938.368    342.726    4217.61    19.2801    55.0482    437.129  
   938.666    342.344    4217.65    18.1643    53.8321    436.961  
    937.04    340.898    4217.87    18.9024    54.7577     438.53  
   937.698    341.386     4217.1     18.591    54.3043    437.728  
   938.032    342.562    4220.24    18.5668    54.8329    437.597  
   935.994    341.048    4219.98    18.6023    55.1755    439.429  
   936.173    340.694    4220.14    17.4881     53.928    439.222  
   936.673    341.533    4219.22    19.1955    55.4162    438.772  
   937.025    341.121    4219.43    18.0683    54.2242    438.556  
   935.456    339.914    4219.43    17.9948    54.4755    440.019  
   936.159     340.32    4218.69    18.4846    54.6545    439.323  
   936.944    341.867    4220.66    17.0997    53.7696    438.074  
   936.281    340.878    4220.02    17.4042      54.14     439.21  
   935.973    340.647    4219.65    16.2744     52.856    439.126  
    935.97    340.854    4219.93    17.9748    54.6627    439.279  
   935.903     340.56    4219.82    16.8602    53.3756    439.134  
   935.531    339.812    4219.29    17.0246    53.6389     439.88  
   935.329    339.759     4219.3    17.4839     54.054    439.922  
   937.932     342.42    4219.71     15.955     52.627    437.336  
   938.178    341.828    4218.38    16.9351     53.352     437.64  
   937.605    341.693    4217.92    15.7736    52.1325    437.555  
    937.15    341.244    4219.25    17.1113    53.7025    438.457  
   936.693    341.079    4218.81    15.9597    52.4575    438.388  
   937.193     340.69    4217.65    16.7145    53.0065    438.285  
   936.286    340.161    4218.51    16.8174      53.29    439.116  
   939.785    343.883    4218.06     16.431    52.7752    435.767  
   938.743    342.501     4217.6    17.5412    53.7877    436.942  
   938.384    342.314    4217.31    16.4087    52.5392    436.832  
   937.794    341.264    4216.99    17.2242    53.3189    437.598  
   936.716    344.996    4218.53    15.5387    50.8829    436.677  
   935.606    342.184    4218.78    16.5481    52.1168    438.623  
   938.126    343.838    4219.74    17.5305     53.374    437.127  
   935.805    342.816    4217.59    16.2454     51.506    437.909  
   938.614    344.546    4218.51    17.0679    52.6318    436.284  
   937.015    342.094    4218.79    17.4783    53.2045    438.205  
    937.41    342.704     4217.7    17.1275    52.5982    437.431  
    935.15    343.523    4220.66    15.3731    51.2773    438.026  
    933.43    341.272    4220.05    15.5853    51.5209    439.894  
   935.848    342.634    4221.16    16.2779    52.5717    438.374  
   934.455    341.591    4219.49    16.0937    51.8815    439.272  
   936.882    343.095    4220.54    16.9421    53.0411    437.789  
    934.95      341.1    4220.19    16.4533    52.6447    439.549  
   935.903    341.473    4219.56    16.9988    52.9821    438.907  
    933.35     343.08    4220.24    14.0601    50.0252    438.557  
   932.504    341.441    4218.68    14.4804    50.5189    440.001  
   935.321    342.658    4220.11    14.8429    51.2668    438.349  
   932.811    341.252     4219.3    15.0261    50.9631    439.903  
   935.414    342.527    4220.54    15.5495    51.8717    438.299  
   934.367    341.165    4219.24    15.2915    51.5991     439.56  
   934.495    341.024    4219.64    15.8591    52.0834    439.512  
   933.432    343.875    4218.56    12.9344     49.171    438.064  
   933.483    342.573    4216.92    14.0241     50.031    438.546  
   936.789    343.938    4218.29    14.1399    50.5414    436.884  
   932.891    341.953     4217.8      14.18    50.2523     439.34  
   935.946    343.204    4219.22    14.4116    50.8674    437.682  
   935.665    342.259    4217.48     14.809    50.9964    438.047  
   934.916    341.639    4218.37    14.9814    51.2684    438.861  
   935.177    345.269    4217.41    13.4712    49.3416    436.578  
   934.489    343.081    4216.68    14.6602    50.3369    437.858  
   937.766    344.633     4217.8    14.9207    51.0282    436.145  
   936.573    342.825    4217.06    15.4498    51.3542     437.34  
   927.919    342.462    4216.38    16.2792    50.5443     441.85  
   931.696    341.126    4217.68    16.7238    51.7523    441.034  
   928.314    344.342    4218.79    14.9021    49.3557    441.221  
   933.033    345.904    4220.29    14.5402    49.7294    438.539  
   931.632    341.661    4216.59    16.5627    51.3082    440.458  
   928.022    344.984    4217.39    14.7659    48.8054    440.701  
   932.988    346.663    4218.72     14.258    48.9815    437.872  
   932.207    343.343    4218.87    15.6899     50.707    439.916  
   932.152     343.98    4217.56    15.4714    50.1208    439.298  
   927.323    341.497    4218.03    16.0767    50.8879    442.848  
   929.869    340.493    4218.76    16.0313    51.4831    442.267  
   926.234    343.593    4219.55    14.0906    48.7336    442.089  
    930.52    344.853    4221.24    13.4483    48.7406     439.43  
   930.775    340.686    4218.29    16.3951    51.6675    441.645  
    927.26    343.811    4219.26    14.5027    49.1128     441.63  
   931.706    345.207    4220.88    14.0093    49.3195    438.978  
   930.052    342.515    4219.89    14.8023    50.0938     440.99  
   931.091    342.782    4219.46    15.2625    50.4665    440.447  
   925.544    341.455    4217.42    15.4093     50.353    443.485  
   928.625    340.771    4217.29    15.2972    50.8185    442.448  
   924.651    343.937    4217.18     13.229    47.9274    442.338  
   929.201    345.082     4218.9    12.2085    47.5755    439.618  
   929.115    340.545    4217.98    15.6541    51.1059     442.33  
   925.326    343.681    4218.31    13.6654    48.2361    442.156  
   929.718    344.863    4219.99    12.8377    48.0459    439.448  
   928.771    342.773    4218.01    13.8172    49.1852    441.171  
   929.275     342.55    4218.89    14.3093    49.5627     441.03  
   924.894    342.181    4215.72    14.9647    49.9642    443.076  
   929.192    341.706    4215.66    15.1141    50.4661    441.061  
   924.786    345.052     4215.5     12.917    47.7599    441.164  
   929.738     346.44    4217.06    11.6032    47.2732    438.378  
   928.808    341.216    4216.46    15.1505    50.6293    441.812  
   924.622    344.474     4216.3    12.9972    47.8362    441.824  
   929.369    345.705    4217.95    11.8133    47.4083    439.084  
   929.316    343.897    4216.28     13.433    48.8573    439.853  
   928.943    343.298    4217.12    13.5508    49.0065    440.582  
    926.09     342.94    4215.12    15.3772    49.9271    441.862  
   930.137    342.037    4215.61    15.5633    50.6037    440.462  
   925.847    345.441    4215.77    13.5076    47.9262     440.64  
   930.896    347.028    4217.14    12.3873    47.6051    437.751  
   930.364    344.344    4216.29    14.0486    49.0921    439.244  
   940.963    351.598    4221.59    14.2596    50.6227    432.856  
   944.598     351.18    4221.51    19.1513    55.3296    431.938  
   947.315    354.505    4225.97     20.787    57.5541    430.335  
   943.986    354.824    4226.88    13.4601    52.0798    431.257  
   942.472    350.219    4223.55    17.2817    54.0979    433.372  
   948.771    356.505    4223.92    20.0082    56.4561    429.154  
   944.809     356.62    4224.14    13.1682    50.9574    430.252  
   943.298    351.467    4221.66    16.6646    53.0109    432.328  
   946.172    354.612    4226.53    17.2392    54.8989    430.878  
   947.328     356.48    4224.08    16.7064    53.7718    429.764  
   938.506    349.161    4224.34    13.7986    50.8196    434.122  
   941.893    348.506    4223.93    18.8534    55.6456    433.517  
   944.362     351.15    4226.97    18.1761    55.4662    430.377  
   940.004    351.959    4227.21    11.1598    49.1862    431.149  
   939.328    348.056    4224.73    15.2724    52.3129     434.04  
   945.557    352.476    4226.58    19.4177    56.5084    430.433  
   941.662    353.048    4227.23    12.2237    50.6607    431.208  
   940.678    348.897    4224.28     16.276    53.2654    433.759  
   942.655    351.505     4227.2     14.771    52.3605    430.862  
   944.099    352.713    4227.02    15.9288    53.6396    430.911  
   936.413    348.307    4223.28    12.0085    48.7466    434.292  
   940.544    347.348    4223.98    16.7748    53.8475    433.549  
   944.377    351.003    4226.29    16.2271    53.4574    430.148  
   939.309     352.02    4224.28    9.40413    47.3256    431.273  
   938.881    348.017    4223.16    13.3898     50.457    433.982  
   944.233    350.903    4226.37    17.1913    54.4428    430.053  
   939.523    351.828    4225.51     10.309     48.117    431.014  
   938.936    347.883    4223.77    14.3306    51.3007     433.86  
   942.321    351.451    4225.39    12.9092    50.4029    430.805  
   942.352    351.309    4226.05    13.8484    51.3021    430.631  
   936.651    349.412    4221.23    10.3802    47.6461    434.066  
   941.741    348.322       4223    15.0094    52.1429    433.136  
    947.18    354.205    4224.88    14.2792    51.4669    429.681  
    940.58     355.01    4222.23    7.79773    46.6596    430.629  
    940.77    350.218    4221.25    12.0132    49.3638    432.894  
   945.525    352.259    4225.65    15.2599    52.4638    429.991  
   939.809    353.253    4223.23    8.54231    46.9927    431.093  
    939.66    348.926    4222.25    12.6247    49.8803    433.538  
   944.371    354.519    4223.62    11.1309    49.0533    430.214  
   943.151    352.684    4224.53    11.9936    49.7296    430.622  
   938.886    351.817    4219.88    11.0168    48.0344    432.588  
    944.36    351.043    4220.97    15.4344     52.392    431.628  
    948.66    356.337    4223.37    15.4378    52.5178    428.757  
   942.268    356.778    4221.76    9.22319    47.4942    429.771  
   942.112    351.506    4220.53    13.1625    50.2019    432.033  
   945.974    356.453     4222.6    12.4335    50.0086    429.308  
   932.698    339.494    4216.97    18.1211    53.8251    441.328  
   933.949    341.237    4217.89    19.3428    55.6112     440.38  
   932.695    339.982    4216.11    18.2007    53.7062    440.784  
   933.937     341.83    4216.98    19.6662    55.8161     439.84  
   933.151    340.123     4217.3    18.6751    54.6194    441.001  
   933.144     340.65    4216.42    18.8711      54.65    440.463  
   931.061    339.009    4218.17     17.787    54.0008    442.762  
   932.084    340.723    4219.15    19.3918    56.2089    441.862  
    931.88    339.149    4217.62    17.9468    53.9203     442.04  
   933.004    340.866    4218.57    19.3355    55.8763    441.114  
   931.419    339.635    4218.51    18.5154    54.9831    442.462  
    932.28    339.772    4217.95    18.5757    54.7897    441.725  
   929.972    339.323    4217.19    17.7521    53.9244    442.998  
   930.932    341.119    4218.13    20.0522    56.7083    442.235  
   930.385    339.084    4217.65    17.7432    53.9601     442.87  
   931.373    340.833     4218.6    19.6826     56.494    442.028  
   930.303    339.988    4217.54    18.8069    55.1762    442.759  
   930.728    339.728    4217.99    18.6289    55.0935    442.597  
   930.604    340.153    4215.65     18.014    53.6926    441.544  
   931.522     342.12    4216.58    20.7679    56.6217    440.819  
    930.19     339.72    4216.41     17.875    53.8089    442.323  
   931.125    341.593    4217.35    20.4451    56.6781    441.595  
   930.913     340.88       4216    19.2785    55.0194     441.32  
   930.508    340.413    4216.76    19.0548    55.1045    442.097  
   931.459    340.399    4215.47    18.1306    53.6367    440.896  
   932.461    342.388    4216.35    20.5492    56.3807     440.07  
   931.803    341.128     4215.8    19.2414    54.8758     440.63  
   929.345    340.541    4215.46    17.8153    53.5518    441.956  
   929.928      341.8    4216.08    20.1647    56.0539    441.579  
   930.229    340.773    4215.34    17.9547    53.5109     441.33  
   930.855    342.025    4215.93    20.0458    55.8793    440.879  
   929.577    341.014    4215.71    18.9105    54.6758    441.833  
   930.479     341.24    4215.57    18.9291    54.5694    441.174  
   928.831    339.699    4216.98     17.587    53.8018    443.368  
   929.465    340.868     4217.6    19.5936    56.2116    442.981  
   928.987    340.107    4216.21    17.6903    53.6759    442.715  
   929.595    341.318    4216.83    19.9037     56.141    442.343  
   929.081    340.137    4217.22    18.5173    54.8721    443.241  
   929.227    340.561    4216.45    18.7195    54.7777    442.594  
    930.05    339.354    4218.11    17.6715    53.9237    443.113  
   930.722    340.462    4218.71    19.1398    55.8956    442.625  
   929.315    339.447    4217.52    17.6037    53.8585    443.228  
   929.966    340.583    4218.12    19.3296    56.0814    442.787  
    930.31    339.763    4218.33    18.3441    54.7836    442.942  
    929.57     339.87    4217.75       18.4    54.8374    443.078  
   931.693     339.82    4216.99    18.0355     53.774    441.738  
   932.487    340.908    4217.54    19.2246    55.4255    441.182  
   930.879    339.479     4217.6    17.8478    53.8589    442.416  
   931.606    340.574    4218.18    19.1571    55.6377    441.892  
   932.006    340.218    4217.18    18.5762    54.4869    441.534  
   931.162    339.882    4217.81    18.4447      54.63    442.227  
   931.616    340.316    4216.09    18.0955    53.6298    441.217  
   932.395    341.459    4216.63    19.4691    55.5295    440.671  
   931.926    340.737    4216.29    18.7273    54.4612    441.019  
   939.685    344.736    4218.21    15.5124    51.8648     435.37  
    937.05    342.331    4217.87     14.935    51.3208    437.385  
   935.991     344.94     4218.3    13.2509    49.5898    436.689  
   937.945     342.96    4217.35    15.6206    51.7418    436.653  
   937.068    345.659    4217.92    14.0862    50.0837    435.951  
   934.177    343.088    4217.28    14.0262    50.0882    438.223  
   935.177    343.646    4216.99    14.7005    50.4369     437.53  
   937.745    343.174    4219.81    15.0098     51.687    436.944  
   935.554    341.189    4219.65    15.5079    52.0257    438.917  
   934.687    343.555    4220.16    14.0106    50.2508    438.094  
   936.198    341.674    4218.78    15.1512    51.6388    438.208  
   935.227    344.156    4219.25    13.5448    49.8877    437.467  
   933.093    341.922    4219.06    14.5451    50.6314    439.671  
    933.53     342.44    4218.17    14.2115    50.3343    439.013  
   936.939    342.521    4220.96    16.2494    52.8411    437.606  
   935.987    341.175    4220.45    16.7897    53.1734    438.956  
   935.404    343.486    4221.58    15.4838    51.6092    438.067  
   935.601    341.069    4219.97    16.1333    52.5678    438.889  
   934.878      343.4    4220.77    14.7427    50.8618    438.008  
   933.928    341.793    4220.38    15.7285    51.7092      439.6  
   933.353    341.751    4219.65    15.1295    51.1144    439.586  
   938.259    343.201    4220.76    17.7771    54.0618    437.144  
    938.07    342.264    4218.98    17.9133    53.7845    437.593  
   937.881    344.735    4220.26    16.7828    52.5698    436.924  
   936.935    341.596    4219.78    17.3898    53.5371    438.314  
   936.532    343.953    4221.01    16.1646     52.164    437.526  
   936.128    342.782    4219.09    16.7662    52.3663    438.357  
   934.954    342.149    4219.82    16.2759    52.1019    438.998  
   940.178     344.75    4218.74    17.8901    53.6492    435.542  
    938.58    342.897    4217.89    17.4979    53.1367    436.768  
   938.281    345.502    4218.88    16.3345    51.7756    436.092  
   936.393    343.432    4217.88    16.4283    51.7198    437.614  
   921.106    353.953    4216.87    7.56287    42.3102    438.197  
   912.783    350.209    4214.07    11.2459    43.4291    444.018  
     922.3    354.625    4217.71    8.52289    42.5469    437.739  
   913.735    350.581    4215.01    11.8682    43.4709    443.768  
   916.729    352.153    4215.46    9.46788    42.9051    441.116  
    917.79    352.665    4216.37    10.2338    43.0304    440.771  
   921.687      352.4    4218.91    8.02714    41.6834    439.005  
   913.509    349.171    4215.73    11.3688    43.0015    444.691  
   921.354    353.114    4217.75    7.68258    42.0042    438.728  
   913.074    349.675    4214.77    11.2228     43.228    444.435  
   917.376    350.862    4217.28    9.75436    42.3887     441.85  
   916.994     351.47    4216.24     9.5138    42.6576    441.585  
   923.406    352.086    4223.28    8.97426    42.7218    438.676  
   915.472    348.746    4219.56    11.9371    43.6033    444.419  
   922.442    352.157    4221.01    8.54084    41.9983    438.728  
   914.421    348.909    4217.61    11.6757    43.1542    444.476  
   919.226    350.492    4221.38    10.4985    43.1898    441.549  
   918.215    350.611    4219.27    10.1575    42.6146    441.604  
   926.331    353.333    4223.19    10.0912    44.4885    438.622  
   917.307    349.486    4219.58    12.6931    44.4823     444.36  
   924.774    352.505    4223.42    9.48968    43.7196    438.605  
   916.414    348.953    4219.71    12.2836    44.1287    444.335  
   921.554    351.458    4221.33    11.4006    44.4564    441.482  
   920.361    350.794    4221.51    10.9154    43.9236    441.467  
   925.793    354.234    4220.93    10.1973    43.7915    438.113  
    916.56    350.168    4217.83    12.8225     44.037    444.072  
   920.904    352.246    4219.36    11.5085    43.8946    441.095  
   938.754    344.964    4218.71    19.8332    56.1894    436.732  
   938.564    346.904    4221.17    20.8129     57.026    436.724  
   935.247    343.181    4218.93    19.7898    56.2059    439.228  
   930.819    345.393    4219.32    21.9648    58.4491    440.909  
   938.728    347.894    4219.88    21.3885    57.6868    436.067  
   935.278     343.89    4217.91    20.2378    56.5943    438.655  
   930.467     346.09    4218.19    22.2359    58.7411    440.451  
   934.593    346.101    4220.21    21.4533    57.8638    438.834  
   934.481    346.939    4219.01    21.8718    58.3372    438.283  
   937.218    343.538    4220.59    19.4701    56.1071    438.147  
    935.89    345.827    4222.47    21.5649    58.4494    438.036  
   933.117    342.517    4220.23    20.0862    57.0586    440.675  
   928.721    344.942    4220.31    22.1347    59.3487    442.192  
   937.125     346.19    4221.91    21.1576    57.6658     437.38  
   934.146    342.717    4219.65    19.8994    56.5808    439.947  
   929.765    345.034    4219.89    22.0296    58.8431    441.522  
   932.219    345.355    4221.36    21.9013    59.0054    440.137  
   933.355    345.575    4220.87    21.6511    58.3692     439.47  
   935.517    343.284    4220.76    20.4342    57.3393    439.033  
   934.837    346.244    4221.18     22.976    59.6758    438.565  
   931.944    342.922    4219.12    21.0766    57.8497    441.114  
   927.107    345.469    4218.47     22.894    59.9191    442.728  
   935.214    345.919    4221.73    22.2205    59.1522     438.22  
    932.39    342.623    4219.62    20.5379    57.5077    440.855  
   927.803    345.123    4219.35    22.4627    59.7232    442.417  
   930.866    345.821    4219.77    22.9806     59.889    440.673  
   931.412     345.49     4220.5    22.3898    59.5385    440.345  
   935.646    344.193    4219.61    21.8384    58.0127    438.722  
   935.574    347.912    4219.46    24.3924    59.8039    437.369  
   932.587    344.132    4217.52     22.061     57.883    439.761  
   927.006    346.662    4216.93    23.6984    59.5717    441.508  
   935.099    346.988    4220.32    23.7454    59.7607    438.078  
   932.156    343.481    4218.31     21.618     57.883     440.52  
   926.967    346.046    4217.66    23.3494    59.7489    442.207  
   931.152    347.241    4218.14    24.0786     59.759    439.457  
   930.912    346.477    4218.93    23.5878    59.8353    440.165  
   937.362    345.486    4218.24     21.859    57.6134    437.022  
   936.754     348.54    4219.07    23.7086    59.2919    436.393  
   933.624    344.499    4217.24    21.6681    57.5431    438.933  
   928.067    346.906    4217.05    23.3351    59.3652     440.76  
   932.271    347.674    4218.02    23.5581    59.4161    438.601  
   938.391    347.134    4221.72    15.3008    51.6313    435.745  
   941.196    346.576    4221.19    19.5462    55.7485    434.999  
    938.76      348.1    4219.99    14.8746    50.7142    434.894  
   942.117    347.535     4219.9    18.8962    54.8839    433.988  
   940.251    346.887    4221.56    17.4468    53.7409    435.337  
   940.909    347.848    4220.03    16.9062    52.8383    434.398  
   935.458    345.629    4222.83    13.8072     50.216    436.622  
   938.858    344.799     4222.7    17.8372    54.6579    436.068  
   936.773     346.18     4222.4    14.5632    51.0004    436.203  
   939.862    345.513    4222.03    18.7225    55.2551    435.606  
   937.577    345.242    4222.88    15.8339    52.4701    436.321  
   938.753    345.877    4222.33    16.6601    53.1701    435.875  
   934.544    345.743    4220.79    12.2368    48.7127    436.724  
   938.811     344.68    4222.16    16.1011    53.0437     435.88  
   934.841    345.557    4221.68    13.0295    49.3589     436.57  
   938.662    344.602    4222.29    16.9507    53.8316    435.872  
   937.095    345.236     4221.6      14.17    50.8929    436.277  
   937.167    345.105    4222.11    14.9964    51.6189    436.196  
    935.67    347.471    4218.84    11.2749    48.1124    435.477  
   940.974    346.352    4220.39    15.0157    51.8565    434.562  
   934.987    346.495    4219.82    11.6652    48.3897    436.198  
   939.747    345.352    4221.33    15.4932    52.4057    435.285  
   938.761    346.936    4219.72     13.141    49.9856    434.981  
   937.794    345.948    4220.69    13.5772    50.4055     435.71  
    936.95    348.351    4218.58    12.2551     48.667    434.715  
   941.964    347.414     4219.5    15.9419    52.5967    433.744  
   939.913    347.909    4219.12    14.1019     50.641    434.184  
   938.387    342.342    4218.46    16.1882    52.6417    437.209  
   939.086    343.036    4217.74    16.8586     53.115    436.486  
   937.051     341.13    4217.64    16.0734    52.3713    438.048  
   937.768    341.709    4217.05    16.6374    52.7131    437.346  
   936.555    341.278    4220.17    16.7537    53.4497    438.758  
   937.379    341.703    4219.36    16.4064    53.0025    438.025  
   935.481    340.164    4219.33    16.4624    53.0156    439.624  
   936.179    340.561    4218.51    16.2095    52.6605    438.879  
    936.49    341.393    4220.41     18.055    54.5965     438.93  
   936.351    341.222    4220.21    17.3804    54.0158    438.796  
    935.63    340.207    4219.73    17.5261    53.9481    439.715  
   935.389     340.08    4219.47    16.9724     53.468    439.636  
   938.293    342.582    4218.84    19.2301    55.1285    437.534  
   937.281    341.881    4219.67    18.6861    54.9106     438.29  
   937.398    341.205    4218.21    18.4928    54.3331    438.264  
   936.428    340.606    4219.02    18.0459    54.1856    439.033  
   939.032    343.176    4217.93    18.7788    54.5276    436.661  
    937.98    341.744    4217.33    18.1527     53.818    437.463  
   938.058    342.424    4218.85    18.2876    54.6585    437.809  
   938.436    343.146    4217.93    18.8536    55.1171    437.143  
   935.975    341.851    4218.38    18.8694    55.2003    439.023  
   936.153    342.512    4217.46    19.3116    55.5345    438.421  
   935.953    341.553    4220.38    18.7429    55.5625    439.356  
   936.933    341.864    4219.67    18.4647    55.0594      438.6  
   933.985    341.158    4219.77    19.1188    55.9454    440.538  
   934.938    341.384    4219.13    18.9533    55.5299    439.785  
    935.33     341.84     4219.9    19.9341    56.5732    439.689  
    935.48    341.589    4220.07    19.3016    56.0993    439.481  
   933.089    341.497    4219.01    20.0403    56.6938    440.894  
   933.389     341.23    4219.34    19.5411    56.3541    440.685  
   936.563    343.064    4218.26    21.0536    56.8284    438.268  
   935.839    342.378     4219.1    20.5443     56.733    439.054  
   933.987    342.615    4217.41    20.9573    56.7738    439.475  
   933.434    342.005    4218.21    20.5414    56.7554    440.257  
    937.49    343.544    4217.66    20.5975    56.3475    437.382  
   934.924    342.995       4217    20.6206    56.4222    438.658  
   920.881    349.254    4218.06    23.9904    61.2178    444.182  
   926.183    348.804    4220.09    23.9408    60.8202    442.363  
   920.855     346.67    4218.21    22.6393    59.5689    445.282  
   925.532    349.497    4218.85    24.0787    61.0684    441.995  
   920.117    347.223     4217.1    22.6794    59.5756    445.009  
   926.295    346.059    4218.85    22.2516     59.039    442.938  
   925.756    346.686    4217.73    22.4102    59.1965    442.564  
   920.865    348.519     4219.6    23.9291    61.4785     444.91  
   924.138    348.487     4220.8    24.0919    61.8208    443.435  
   919.282    346.556    4218.75    22.4604    60.1571    446.256  
   925.178    348.525    4220.54    24.0073    61.2576    442.855  
   920.129    346.513    4218.55    22.5403    59.8277    445.721  
   924.441     345.76    4219.63    22.2633    59.7899    444.071  
   925.393    345.791    4219.32    22.2437     59.368    443.469  
    918.86    348.787    4218.45    24.0442    62.1501     445.66  
    922.21    349.044    4218.27    24.7327    62.2735    444.021  
   917.247    347.149    4216.29    22.7064    60.2596    446.743  
   923.092    348.695    4219.51    24.3556    62.1783    443.665  
   918.205    346.798    4217.52    22.5368    60.2925    446.448  
   922.621    346.309     4217.5    22.7795    60.1338    444.582  
   923.444    345.966    4218.55    22.4723    60.0487    444.283  
   917.339    349.644    4216.32    24.5657    61.7365    445.578  
   921.487    350.263    4216.78    25.4201    61.6217    442.972  
   916.446    348.116    4214.96    23.0767    59.6167     445.76  
   921.772    349.634    4217.44     25.141    61.9422     443.59  
    916.76    347.637    4215.55    22.9309    59.9306    446.319  
   922.184    347.396    4216.06    23.3736     59.641    443.475  
   922.315    346.846    4216.72    23.1228    59.8848    444.108  
   917.911    350.212    4216.35    24.4846    61.3122    444.466  
   922.544    350.444    4217.25    25.0328    61.5015    442.306  
   917.403    348.146    4215.52    22.9494      59.58    445.261  
   923.198    347.547    4216.38    23.1174    59.5204    442.842  
   934.782    348.367    4218.84     10.664    47.4696    435.404  
   940.816    346.964    4220.43    14.1701    51.1301     434.25  
   936.104    349.266    4218.67    11.6722     48.014    434.655  
    941.91    348.057     4219.6    15.1443    51.8778     433.42  
   938.234    347.685    4219.74    12.4052    49.3146    434.789  
   939.458    348.683    4219.22    13.4034    49.9677    433.993  
   933.804    346.578    4220.81    11.6381    47.9857    436.598  
   938.761    345.179    4222.25    15.3165    52.2813    435.527  
   934.176     347.36    4219.82    11.0571    47.7085    436.105  
   939.639    345.905    4221.39    14.6748    51.6659    434.962  
   936.696    345.898    4221.64    13.4712    50.1608    436.039  
    937.33    346.652    4220.71    12.8566    49.7081    435.503  
   934.818    346.444    4223.12     13.195    49.4909    436.465  
   938.962    345.261    4223.07    17.0852    53.9452    435.668  
   934.155    346.382    4221.84    12.4285    48.6174     436.42  
   938.689    345.079    4222.51    16.1877    53.0774    435.487  
   937.303    345.874    4223.21    15.1442    51.7632    436.042  
   936.834     345.75    4222.29    14.3072    50.8832     435.93  
   937.855    347.983    4222.12    14.7015    51.0175    435.685  
   941.504     347.09    4221.64    18.8412    55.1874    434.673  
    936.18    347.003    4222.76    13.9506    50.3333    436.086  
   940.059    345.986    4222.45    17.9871    54.6218    435.236  
   940.131    347.561    4221.97    16.7848    53.1656    435.144  
   938.549    346.517    4222.71    15.9774     52.532    435.632  
   938.157    348.983    4220.28    14.3102    50.0833     434.85  
   942.376    348.111     4220.2    18.2019    54.2705    433.662  
   940.731    348.571    4220.32    16.2669    52.2279    434.214  
   939.855     347.14    4219.21    21.7909    57.5033    435.344  
   942.036    351.896    4221.02    23.8855    59.2996    433.152  
   939.082    344.754    4219.69    20.6351    56.4676    436.627  
   939.667    348.672    4220.91    23.6666    59.1719    435.278  
   942.389    350.382    4222.58    22.2467    58.1294    433.642  
   939.998     345.44    4218.77    20.0406    55.7826    435.668  
    940.91     349.59    4220.12    22.8689    58.4525    434.207  
   943.638    351.572    4221.33    21.4254    57.2114    432.511  
   940.731    347.635    4221.16    21.4244    57.3095     435.13  
   941.809    348.578    4220.08    20.7104    56.5048    434.087  
   937.879     345.47    4220.83    21.7497    57.9284     437.07  
   939.786    349.469    4222.74    23.8081     59.741    434.861  
   937.316    343.289    4221.31    19.2072    55.8488    437.926  
   938.263    346.673    4222.61    21.8954    58.5806    436.333  
   940.264    348.062    4224.13    20.1703    56.9797    434.468  
   938.072    343.904    4220.55    19.9717    56.2056    437.355  
   938.824    347.526    4221.79    22.8278    58.9048     435.92  
   941.133    349.015    4223.43    21.2336    57.5873     434.16  
   938.796     345.75    4222.76    19.6772    56.4231     436.19  
   939.607     346.53    4222.02    20.5879    56.9073    435.751  
   937.453    344.474    4221.82    20.0866    56.9697    437.301  
   939.442    348.181    4223.88    21.8144    58.6135    434.791  
   937.581     343.08    4221.33    17.6702    54.4781    437.648  
   938.951    346.347     4223.4    20.1941    57.0274    435.875  
   940.601    347.838    4224.25    18.2705    55.1617    434.118  
   937.275    343.061    4221.22    18.4089    55.1766    437.718  
   938.445    346.376    4222.87    21.0034    57.8681    435.994  
   940.265    347.797    4224.02    19.1926    56.0977    434.147  
   939.089    345.535    4222.81    17.9541    54.8261    435.879  
   938.774    345.506    4222.65    18.7869    55.6424    435.928  
   939.105    344.912    4221.53    18.8455     55.494    436.508  
   941.353    348.838    4223.96      20.27    56.6668    434.168  
   939.773    344.303    4219.65    16.8925    53.3937    436.172  
   941.796    347.904    4221.96    19.0924    55.3891    434.658  
   943.418    349.863    4222.67    16.8712    53.4672     433.04  
   938.566    343.552    4220.55    17.2182    53.8801    436.949  
   940.218     346.92    4222.78     19.609    56.1447     435.29  
    941.82    348.624    4223.55    17.5288    54.2616    433.633  
   941.573    347.158    4221.18    16.8603    53.4314    434.602  
   940.181    346.163    4222.07    17.3557    54.0759    435.287  
   941.004    346.695    4219.53    19.2049    55.6186    435.048  
   943.702    351.364    4221.63    20.4768    56.7508    432.807  
   940.447    345.168    4218.74    17.6513    54.0215    435.428  
   942.349    349.104    4220.61      19.86    56.2174    433.889  
   944.329    351.248    4221.35    17.8477    54.4349    432.186  
   942.372    348.286    4220.07    17.7216    54.2185    433.805  
   928.617     340.89    4217.08    17.4931    52.4796    442.634  
   928.362    341.414    4216.04    17.4728     52.199    442.162  
   932.196    340.069    4217.21     17.526    52.8322    441.267  
   932.169    340.573    4216.26    17.4893    52.5584    440.709  
    926.94    340.415    4217.99     16.978    52.4254    443.804  
   927.799    340.528     4217.6    17.2361    52.4813    443.199  
   930.472    339.515    4218.35    17.0106    52.7887    442.611  
    931.33     339.68    4217.84    17.2731    52.8378    441.934  
    925.43    340.816    4216.38     16.621    52.0686    444.079  
   926.074     340.54    4217.15     16.783    52.2189    443.918  
   929.323    339.812    4217.16    16.6316    52.4246    442.815  
   929.766     339.58    4217.72    16.8024     52.584    442.696  
   925.655    341.704    4214.87    16.6715    51.8047    442.794  
   925.438    341.258     4215.6    16.6143    51.9321    443.494  
   929.925    340.677    4215.59    16.6794    52.1353    441.388  
   929.525    340.225    4216.36    16.6241    52.2735    442.155  
   926.605     341.93    4214.96     16.956    51.8321    442.238  
   930.819     340.96    4215.46    16.9619    52.1776    440.767  
   935.714    352.694    4221.54    11.8284    47.3645    434.515  
   931.919    349.112    4221.87     12.675    48.0008    437.764  
   936.167    356.066    4226.47    9.64491    47.2508    433.652  
    931.75    349.996    4219.91    12.4804    47.1714    437.103  
   936.197    357.411    4223.66    9.67866    46.2886    432.889  
   930.473    353.913    4224.26    10.2213    45.8478    436.535  
   930.184    354.999    4221.83    10.2683    45.0358    435.918  
   933.794    350.551    4224.31    11.2695    47.4458    435.468  
    929.02    347.864    4222.51     11.457    46.5649    438.332  
   932.195    353.967    4226.48    7.92377    44.4613    433.535  
    930.37    348.287    4222.33    12.0614    47.3715    438.021  
   933.916    354.736     4226.7    8.70781    45.9436    433.564  
   927.166    352.324    4224.38    8.86224    43.7397    436.561  
    928.66    352.884    4224.51    9.48949    44.8976    436.512  
   931.439    349.921    4222.55    9.82578    45.4104     435.66  
   927.512    348.103    4219.32     10.195    45.3263    438.585  
   930.939    354.177    4222.14    6.56449    42.9545    433.851  
   928.135    347.874    4220.82    10.8485    45.7759    438.341  
   931.444    353.944    4224.14    7.29158    43.5001    433.532  
   925.643    352.576    4220.11     7.7321    42.5076    436.875  
   926.291    352.346    4222.12    8.33832    42.9206    436.585  
   931.005    351.016    4219.86    8.46756    44.8135    435.553  
   927.698    349.707    4217.37    9.48747     45.251    437.503  
   930.917    356.533    4219.84     5.5418    43.3593    433.086  
   927.509    348.831     4218.3    9.73197    45.2824    438.151  
   930.882    355.198    4220.88     5.9482    43.1553    433.632  
   925.346    354.459    4217.99    7.02871    42.9879    436.065  
   925.446    353.414    4218.93    7.27229    42.7511    436.608  
   932.703    353.072    4219.08    9.20318    45.2786    434.229  
   928.981    350.404     4217.7    10.4002    45.6053    436.906  
   932.429     357.74    4220.27    6.87594    43.8941    432.399  
   926.668    355.365    4218.65    8.12465    43.3423    435.515  
   938.303    351.085    4223.83    13.5236    50.1383    434.542  
   938.582    352.228    4221.63    13.1678     49.087    433.674  
   940.244    355.451    4226.72    11.7348     49.783    432.485  
   940.693    357.021    4223.92     11.624    48.7323    431.586  
   934.839    349.267    4224.61    11.8186     48.162    435.036  
   936.376    349.936    4224.39    12.6547    49.2329    434.792  
   936.217     352.93    4226.88    9.68312    46.9048    432.352  
   937.923    353.876       4227    10.6228    48.3981    432.404  
   933.758    349.387    4221.69    10.1945    46.5231    435.202  
   934.145    349.189       4223     11.027    47.1746    434.973  
    935.24    353.038    4223.23      8.123    45.2116    432.559  
   935.601    352.839    4224.85    8.93989    45.8847    432.275  
   934.595     351.46    4219.62    9.07588    46.1275    434.149  
   934.055    350.285    4220.64     9.5302    46.3123    434.799  
   935.865    355.707    4221.03    6.81159    45.0748    431.838  
   935.461    354.161    4222.06    7.38507    45.1419    432.352  
   936.041    352.517    4219.56    10.2178    46.7358    433.395  
   937.493     357.22    4221.01    8.21696    45.7661    431.066  
   933.832    345.899    4217.73    22.7279    58.5299    438.433  
   935.642    345.937    4218.91    22.9084    58.5747    437.878  
   934.414    343.263    4217.71    21.5223    57.2954    439.191  
   936.754    346.494    4218.44    22.3269    58.0763    436.942  
   935.385    343.659     4217.3    21.1242    56.9112    438.345  
   936.718     343.93    4218.64    21.1933    56.9744    437.859  
   937.668    344.477       4218    20.6945    56.4505    436.956  
   932.357    344.784    4218.78    22.7194    58.9113    440.053  
   934.684    344.452    4220.58    21.5951    58.3252    439.162  
   933.524    342.086    4219.33    20.5259    57.2082    440.602  
   935.043    345.112    4219.76    22.3089    58.4745    438.617  
   933.865    342.622    4218.53    21.0732    57.2748    439.975  
    935.42    342.607    4220.28    19.9794    56.6329    439.219  
   935.954    343.182    4219.49    20.6363    56.8373    438.618  
   932.677    343.847    4220.18    21.5036    58.5173    440.319  
   935.655    344.086    4221.55    20.2436     57.174    438.708  
   934.438    341.728    4220.15    19.4996     56.365    440.217  
   935.015    344.157    4220.98    20.8755    57.8115     438.87  
    933.83    341.807    4219.68    19.9718    56.8303    440.374  
   936.024     342.33    4220.74    18.6996    55.5306    438.884  
    935.56    342.357    4220.43    19.3036    56.1126    438.999  
   934.548    343.939    4220.33    20.7548    57.4186    439.399  
   938.086    345.059    4220.15    19.6183    56.0134    437.297  
   936.533    342.451    4218.75    19.1761    55.5175    438.702  
    936.79    344.419    4220.93    19.8868    56.5287     438.01  
   935.436    341.964    4219.51    19.2957    55.8916    439.463  
   938.177      343.3     4219.2    18.1498    54.5597    437.388  
    937.02    342.682    4220.03    18.3728    54.9919    438.156  
   935.736     345.22    4218.51     21.068    57.4407    438.121  
   938.317    345.931    4219.02    20.2226    56.6085    436.641  
   936.712    343.147    4217.79    19.6494    55.9075    438.091  
   938.593    344.082    4218.25     18.762    55.0733    436.709  
   930.124    343.959    4216.84    21.9387    57.7473    440.823  
   931.148    344.244    4216.71    21.6408    57.4974    440.055  
   932.164    342.604    4216.92    20.9505    56.7435    440.311  
   933.114    342.917    4216.64    20.6869    56.4657    439.536  
   929.752    342.833    4218.39    21.1214    57.8614    442.156  
   929.834     343.37    4217.59    21.5725    57.8145    441.569  
   931.487    341.541    4218.49    20.1553    56.7728    441.717  
   931.722    342.037     4217.7    20.5904    56.7735    441.085  
   931.106    342.378     4219.7    20.3522    57.2791    441.704  
   930.302    342.518       4219    20.6926    57.6244    441.898  
   932.571    341.159    4219.46    19.4026     56.184    441.342  
    931.89    341.259    4218.93    19.7395     56.515    441.503  
   933.122    342.908    4218.53    20.2155    56.5438    440.299  
     932.1    342.514    4219.18    20.2537    56.8683    440.986  
   934.504    341.743    4218.16    19.2783    55.5238    439.859  
   933.513    341.332    4218.86    19.3063    55.8166    440.597  
       933    343.574    4217.52    20.5597    56.8203    439.782  
   934.549    342.372    4217.23    19.6428    55.7797    439.299  
   934.711    352.835    4220.05    26.5447    61.8208    436.156  
   926.332     353.52    4218.89    27.2708    63.1671    439.601  
   932.875      348.7    4218.98    25.2493    60.5478    438.282  
   929.647    352.618    4219.34    27.7161    62.8026    438.603  
    927.61    347.641    4217.41    24.2658    60.1141    441.035  
   923.232    351.151     4217.4    26.5276    62.2176    441.825  
   934.064    349.248    4218.82    24.5974     60.135    437.352  
   930.881    353.194    4219.53    26.9707    62.4751    437.697  
   928.699    347.936    4217.51    23.8371    59.8756     440.26  
    924.32    351.406    4217.86    26.0417    62.0678      441.1  
   928.487    349.923    4218.29     25.847     61.366    439.941  
   929.635    350.336    4218.43    25.2656    61.0817    439.106  
   933.268    351.032    4220.97    26.6738    62.3651    437.792  
   925.544    352.326    4219.18    27.5082    63.7647    441.033  
   932.549    347.076    4220.68    23.9569    60.6474    439.449  
   929.982    350.858    4221.09    26.4653    63.2824    439.622  
    927.68    346.366    4218.98    23.3688    60.4301    442.232  
   923.985    349.798    4218.97    25.7281    62.9337    442.881  
   932.618    347.814    4219.81    24.6666    60.6102     438.98  
   929.746    351.657    4220.16    27.1663    63.0444    439.243  
   927.554    346.973    4218.15    23.8763    60.2764    441.728  
   923.546    350.445    4218.11    26.1977    62.5711    442.457  
   928.681    348.438    4219.94    24.7964    61.7678    441.062  
   928.506    349.131    4219.06    25.3879    61.5706    440.613  
   933.867    349.814    4222.89     25.097    61.9919    437.723  
   926.814     351.25    4221.49    26.4163    63.9743    440.994  
   933.847    346.608    4222.38    22.6956     59.576    438.869  
   931.573     350.37     4223.6     25.282    62.2718    438.956  
   929.278    345.861    4220.85     22.491    59.7532    441.685  
   925.861    349.227     4221.6    24.9813    62.3673    442.248  
   933.062    346.735    4221.45    23.2715    60.2203    439.082  
   930.662    350.513    4222.27    25.8113    62.9436    439.189  
   928.365    346.028    4219.87    22.8771    60.1902    441.908  
   924.834    349.436    4220.26    25.2938    62.7975    442.492  
   930.264    347.931    4222.09    23.7785    60.9344     440.46  
   929.358    348.092    4220.96    24.2299    61.4775     440.69  
   936.092    350.084     4223.7    24.0073    60.2301    436.949  
   929.077    351.221    4222.71    25.7718    62.5755    440.191  
   936.496    347.539    4221.23    22.0506    58.1656    437.613  
   934.408    351.306    4222.73    24.5588    60.5844    437.917  
   931.469    346.382    4219.84    22.2253    58.7536    440.422  
   928.125    349.657    4220.87     24.702     61.164    441.172  
   935.088    346.901     4221.9    22.3514    58.7972    438.227  
    932.91     350.66    4223.28    24.9193    61.3431    438.404  
   930.359    345.985    4220.42    22.3356    59.1901    441.028  
   926.987    349.306    4221.33    24.8383     61.693    441.664  
   932.747     348.63    4221.13    23.2979    59.6161    439.292  
   931.459    348.125    4221.71    23.5271    60.2008    439.848  
   937.631    352.018    4221.47      24.04    60.1516     435.81  
   929.797    352.564    4220.75    25.6802    62.3462    439.277  
   936.447    348.498    4219.89    22.5193    58.7626    437.016  
   934.068     352.33    4221.17    24.8807    61.1963    437.368  
   931.141     347.12    4218.66    22.5389    59.1159    439.944  
    927.49    350.437    4219.54    24.8495    61.4879    440.773  
   932.413    349.495     4219.8    23.6089    60.0872    438.783  
   917.851    345.519    4216.04    16.2009    48.6533    445.783  
   918.613    343.406    4216.64    17.6242    51.4297     446.74  
   912.021     346.88    4217.31    15.1326    47.0137    448.894  
   918.007    343.934    4215.44    17.6392    51.1251    446.456  
   911.277    347.464    4215.84     15.252    46.6866    448.727  
   911.138    345.766    4216.49     16.998    50.2596    450.001  
   910.415    346.292    4215.17    17.0729    49.9612    449.844  
   917.781    344.567    4217.59    15.8633    48.9164    446.286  
   917.245    343.034    4216.97    17.0492    51.2964    447.383  
   910.785    346.405    4217.17    14.4699    46.5807    448.929  
    917.99    343.094    4216.88     17.325    51.3936    447.012  
   911.473    346.509    4217.35    14.7676    46.8453    448.856  
   910.007    345.421    4216.42    16.3768    50.0258    450.178  
    910.65    345.476    4216.55     16.658    50.1728     450.04  
   915.955    344.643    4216.26    15.3059     48.389     446.66  
   915.306    343.538    4214.53    16.7021    50.9444    447.669  
   908.772    346.899    4213.85    14.1032    46.2035    449.144  
   916.213    343.233    4215.73    16.8656    51.0755    447.469  
    909.74     346.62     4215.5    14.2926    46.3008    448.976  
   907.993    345.943    4213.41    16.0722    49.7057    450.396  
   908.968    345.651    4214.91    16.2201    49.8101    450.234  
   914.737    345.381    4214.14    14.9632    48.1967     446.48  
   914.877    344.385    4213.17    16.7186    50.7459    446.764  
   908.054    347.719    4212.45    14.0892    46.3327     448.61  
   914.986    343.966    4213.79    16.6741    50.8455    447.266  
   908.314    347.308    4213.02    14.0434    46.2792    448.929  
   907.284    346.714    4212.12    16.0714    49.6173    449.836  
   907.533    346.334    4212.65    16.0378    49.6676     450.16  
   915.568    346.052    4214.11    15.4117    48.1773    445.691  
   915.797    344.532    4213.72    17.0442    50.7484    446.441  
   908.907    347.935    4213.35    14.5407    46.3085    448.468  
   908.133    346.845    4212.94    16.4347    49.5929    449.678  
   924.008    342.429    4214.61    16.4026    51.0095    443.301  
   926.539    341.995     4215.1    15.2921    50.4308    442.115  
   923.871    341.907    4214.54    17.1407    52.3793    443.686  
   927.509     342.28    4215.18    15.7073    50.5271    441.561  
   924.817    342.094     4214.7    17.3751    52.3773    443.161  
   927.977     341.08    4215.24    16.6905    52.0561    442.077  
   928.894    341.333    4215.21    16.9663    52.0861    441.487  
   922.928    341.786    4215.09    16.0358    51.0971    444.442  
   926.223    341.065    4216.67    15.4175    50.7332    443.413  
   923.794    341.039    4215.99    17.0272    52.6357    444.913  
   926.277     341.52    4215.86    15.3042    50.5732    442.823  
   923.726    341.477    4215.23      17.06    52.5049    444.355  
    927.55    340.205    4216.78    16.6308      52.33    443.437  
   927.662    340.631    4215.99    16.6303    52.1879    442.812  
   923.743    341.068    4216.77     16.263    51.3844    444.815  
   927.684    340.721    4218.38    16.0467     51.311    443.185  
   925.418    340.597    4217.69    17.2761     52.907    444.613  
   926.835    340.813    4217.49    15.7225    50.9752    443.269  
   924.505    340.748    4216.82    17.1325    52.7506    444.739  
   928.867    339.856    4218.15     16.983    52.6751    443.199  
   928.087    339.952    4217.44    16.7886    52.4785    443.299  
    925.51    341.029    4217.42    16.7554    51.7168    444.171  
    929.46    341.291    4217.45    16.6967    51.5445    442.057  
   927.013     341.01    4216.87    17.7469    52.8899    443.499  
    928.58    340.876    4217.99    16.3817    51.4735    442.605  
   926.249     340.68    4217.34    17.5072    52.9206     444.03  
   930.558    340.367    4217.12    17.4922    52.7115    441.935  
    929.72    339.994     4217.7    17.2397    52.7203    442.555  
   925.915    341.902    4215.88    17.0053    51.4201    443.261  
   929.252    341.828    4216.34    16.5847     51.136    441.542  
   926.674    341.528    4215.84    17.7615    52.6541    443.071  
   930.425    340.881    4216.13    17.4686    52.4428    441.419  
    932.65     353.93    4219.31    8.79152     45.036    433.944  
   930.813    357.001    4219.94    5.27965    43.2086    432.927  
    934.36     352.07    4219.71    8.71324    45.8537    433.969  
   932.332     358.23    4220.38    6.63217    43.7427    432.242  
   935.826    353.157    4219.69    9.87917    46.4638    433.218  
   935.812    356.075    4221.11    6.58287     44.935    431.705  
   937.452    357.609     4221.1    8.00489    45.6259    430.934  
   930.962    351.781    4220.06    8.03639    44.5361    435.245  
   930.878    354.613    4222.25    6.30416    42.7543    433.668  
   933.592    349.947    4221.81    9.83918    46.1894    434.987  
   930.802    355.645    4220.97    5.68781    42.9805    433.464  
   933.859    350.866    4220.74    9.17053    46.0101    434.606  
   935.223    353.374    4223.32    7.89988    45.0354    432.406  
   935.429    354.508    4222.14    7.15982    44.9847    432.212  
   931.423    350.659    4222.84    9.39729    45.0969    435.312  
   932.134    354.407    4226.69    7.64801    44.2568    433.345  
   934.688    349.821    4224.86     11.447    47.8267    434.807  
   931.385    354.382     4224.3    7.02523    43.2968    433.343  
   933.989    349.745    4223.18     10.666    46.8328    434.747  
   936.204    353.267    4227.05    9.44995    46.7273    432.193  
   935.587    353.174    4224.98    8.71326    45.7059    432.117  
   933.805    351.322    4224.73     10.839    47.1997    435.162  
   936.152     356.55    4226.74    9.38404    47.1192    433.516  
   938.228    351.687    4224.16    13.1727    49.8995    434.381  
    933.87    355.195    4226.94    8.43443    45.7753      433.4  
   936.253    350.508    4224.68     12.287    48.9444    434.593  
   940.275    355.826    4226.95     11.516    49.6693    432.371  
   937.926    354.228    4227.21    10.3923    48.2516    432.266  
   935.789     353.56    4221.91    11.4548    47.1774     434.26  
   936.177    357.912    4223.88    9.44376     46.161    432.754  
   938.496    352.864    4221.89    12.8488    48.8463    433.518  
   940.723    357.416     4224.1    11.4265    48.6192    431.473  
   935.456    348.284    4221.92    13.9436    49.8738    436.676  
   935.566    349.218    4220.07    13.6414     48.999    435.919  
    932.51    346.892     4222.8    12.5821    48.4213    437.391  
   933.852    347.385     4222.5    13.2621    49.2315    437.032  
    931.31    347.071    4220.18    11.1708    47.0434     437.57  
   931.764    346.863    4221.38    11.8921    47.5978    437.375  
   931.967    348.744    4218.22    10.3373    46.7183    436.409  
   931.534    347.815    4219.18    10.6566     46.866    437.093  
   933.257    349.543    4218.25    11.2917    47.1756    435.724  
   932.523    356.611    4221.05    30.5873    64.3871    436.206  
   942.377    355.587     4223.7    27.4153    61.9325    432.208  
   937.092    351.489       4221    26.0454    61.1485    435.702  
   933.805    357.544    4221.29     29.546    63.9614    435.196  
   943.918    357.236    4222.87    26.3201    61.1118    431.029  
   938.442    352.402    4220.55    25.1918    60.5437    434.638  
   937.892     355.98     4222.4    28.7735    63.2452    434.039  
   939.314      357.3     4222.1    27.6773    62.6145    432.942  
    933.07    354.363    4223.04    29.1061    65.1727    436.999  
   941.263    352.515    4225.44    25.1313    61.3841    432.624  
   936.341    349.362    4222.76    24.2915    60.8975    436.666  
   932.786    355.355    4221.96    29.9104    64.7892    436.769  
   941.695    353.789    4224.58    26.2734    61.6667    432.563  
   936.592    350.283    4221.88    25.2246     61.036    436.316  
   937.629    353.329    4224.31    26.8882    63.3731    434.663  
   937.696    354.455    4223.32    27.8644    63.3196    434.509  
   934.466    353.878    4226.06    27.8115    63.9398    436.272  
   941.982    352.166       4227    23.3511     59.612    432.055  
   937.413    348.976    4224.35    22.6761     59.427    436.087  
   933.653    354.008    4224.45    28.3885    64.7388    436.507  
    941.49    352.187    4226.02    24.1928    60.6023    432.156  
    936.73    349.039    4223.43    23.4331    60.2833    436.252  
   938.687    352.941    4226.63    25.3362    61.8512    434.023  
   938.033        353    4225.32    26.0531    62.7575    434.185  
   937.885     355.38     4225.5    26.6649     61.491    435.572  
   945.637    354.777     4226.2    21.6155    56.9222    431.563  
   940.521    350.486    4223.17    21.5659    57.5606     435.02  
   935.999    354.395    4225.94    27.2839    62.6242     435.89  
   943.527    353.141    4226.73    22.5256    58.2327    431.815  
   938.815    349.513    4223.87    22.1047    58.4193    435.555  
   942.274     355.04    4225.96    23.8558     59.243    433.448  
   940.245    353.704    4226.44    24.6431    60.4846    433.721  
   937.607    356.735    4223.53    26.8675    62.2214    434.943  
   946.325    356.712    4224.13    22.2804    57.9348    430.738  
   940.767    351.743    4221.58    22.2171    58.4254      434.3  
   942.479    356.685     4223.9    24.2776    60.1296    432.706  
   925.054    345.995     4216.3    22.6803    58.6532    442.658  
   926.077    346.185    4216.45    22.4331    58.4914    441.983  
    925.18     344.91    4217.77    22.0197    58.9861    443.855  
    925.02    345.441    4216.99    22.3923    58.8215    443.334  
   926.846    344.393    4219.58    21.4387     58.577    443.371  
   925.911    344.576    4218.65    21.6826    58.8519    443.576  
   928.744    344.764    4218.66    21.4132    57.8681    442.135  
   927.808    344.456    4219.19    21.4056    58.1799    442.724  
   928.358    345.395    4217.59    21.6386    58.0575    441.711  
   944.302    351.314    4221.61    19.7673    56.1039    432.504  
   945.976    354.748    4226.18    21.1976    56.5586     431.37  
   941.148    349.812    4222.86    20.6521    56.7641    434.805  
    946.73    356.706    4224.13    21.8962    57.5814    430.533  
   941.511    351.059    4221.34    21.3723    57.6441    434.061  
   942.491    354.698    4225.78    23.4105    58.8729    433.337  
    942.75    356.347    4223.76    23.8727      59.77    432.587  
   941.867    348.737    4223.93    19.5217    55.9894    433.901  
   942.346     352.08    4227.01     22.962    59.2341    431.858  
   938.103    348.265    4224.14    21.7769    58.5536    435.919  
   943.875    353.079    4226.73    22.1204    57.8652    431.624  
   939.472    348.823    4223.61      21.19    57.5884    435.372  
   938.937    352.583    4226.51    24.8955    61.4369    433.938  
   940.479    353.354    4226.29    24.1954    60.0942    433.627  
   940.038    348.024       4224    21.1156    57.9244    434.496  
   941.686    352.419    4225.59    24.7668    61.0371    432.408  
   937.136    348.623    4222.83    23.4454    60.0734    436.461  
   941.881    352.093    4226.09    23.8182    60.2317    431.947  
   937.467     348.31    4223.35    22.5642    59.4177    436.066  
   937.923    352.965    4224.33    26.4759    62.9843    434.564  
   938.302    352.637    4225.26    25.6285    62.3492    434.093  
   940.539    349.303    4223.01    23.1453    59.1739    434.556  
   942.933    355.525    4223.89    27.0883    61.6865    432.016  
   938.144    350.736    4221.11     25.247    60.5019    435.479  
   942.175    353.702    4224.76    25.9235    61.3705    432.355  
     937.5    349.532    4221.99    24.3984    60.3032    436.097  
   938.313    355.621    4222.44    28.3912    62.9521    433.938  
   938.045    354.091    4223.36    27.4651    62.9793    434.406  
   942.908    351.792    4221.17    23.2651    58.7645     432.85  
   944.475    357.206    4222.97    26.0009    60.8369    430.829  
   939.489    351.665    4220.52    24.4155    59.8529    434.403  
   939.735     356.95    4222.08    27.3103    62.2995    432.835  
   916.566    344.611    4213.83    15.8649    49.1222     445.74  
   907.529    346.801    4212.05    14.7142    46.9606    448.583  
   915.253    343.977    4213.14    16.8228    51.2321    446.743  
   908.382    347.005    4212.92    15.1476    46.9354    448.433  
   916.173    344.113    4213.66    17.1307    51.2331    446.411  
   907.002    346.244    4211.89    16.3949    49.7849    449.789  
   907.849     346.37    4212.71    16.7525    49.7597    449.631  
   915.711    343.976    4213.92    15.4438     49.174    446.575  
   908.224    345.988    4213.43     14.725    46.8705     449.14  
   915.667    343.133    4214.48    16.7949     51.458    447.671  
   907.776    346.396    4212.62      14.67    46.9257    448.912  
   915.353    343.558    4213.75    16.7756    51.3447    447.255  
   907.708    345.472    4213.18    16.3955    49.8846     450.35  
   907.249    345.864    4212.42    16.3624    49.8407    450.113  
   916.895    343.248    4215.94     15.749    49.3939    446.788  
   910.229    345.489    4216.66    15.0827    47.2369    448.923  
   917.599    342.628    4216.86    17.1243     51.794    447.381  
   909.188    345.706    4215.03     14.908    46.9691    448.973  
    916.57    342.827    4215.66    16.9475    51.5866     447.47  
   909.721    344.945    4216.17     16.696    50.2004    450.131  
   908.683    345.178    4214.67    16.5408    49.9891    450.188  
   918.701    343.162    4217.14    16.2879     49.846    446.365  
   911.447    345.946    4216.76    15.7376    47.6273    448.843  
   918.961    342.983     4216.5    17.6895    51.8916    446.699  
   910.909    345.585    4216.81    15.3777    47.4776    448.829  
   918.341    342.682    4216.75    17.3958    51.8706    446.992  
   910.844    345.282    4216.23     17.317    50.4226    449.949  
    910.36    344.997    4216.29     16.977    50.3409    449.991  
   918.782    344.069    4215.62    16.6048     49.568    445.799  
   910.716    346.522    4215.33    15.8453    47.3048    448.671  
   918.363    343.506    4215.33    17.7001    51.5961     446.41  
   910.123    345.809    4214.92    17.3884    50.1248    449.793  
   917.418    345.379     4213.9    14.0094    47.6873    444.512  
   918.404    345.649    4214.46    14.4955    47.7471    444.156  
   910.247    348.633    4213.14    12.9617    45.2758    446.342  
   911.149    348.919    4214.05    13.4797    45.2806    446.148  
   917.735    344.407    4215.42    14.1574    47.7667    445.472  
   917.477    344.884     4214.6    14.0162    47.7265    445.052  
   910.945    347.708    4214.64    13.0286    45.0307    446.948  
   910.509    348.164    4213.76    12.9292    45.1647    446.709  
    919.62    343.977    4218.14    14.7702    48.3392    445.203  
   918.597    344.128    4216.74    14.4678    47.9593    445.267  
   912.925    347.238    4218.16    13.4827    45.5064    446.704  
   911.882    347.433    4216.38    13.2691    45.1542    446.757  
   921.301    344.556    4217.75    15.4634    48.7734    444.611  
   920.496    344.119    4218.03    15.1118    48.6106    444.858  
   914.444    347.837    4218.23    14.1745    46.1222    446.639  
   913.732    347.389    4218.31     13.797    45.8784    446.617  
   920.748    345.148    4216.36    15.4341    48.3358    444.246  
   913.712    348.469    4216.65    14.2915    45.7426    446.415  
   921.289     356.62    4218.51    29.8231    65.1123        441  
    922.31    356.941    4219.31    29.0917    64.9967    440.234  
   927.055    356.638     4219.8    30.0693    64.7321    438.356  
    928.21    357.311    4220.34    29.1735    64.4671    437.471  
    922.71    355.159    4220.27    29.0992    66.4841     441.91  
   922.005    355.849    4219.23     29.543    65.7877    441.595  
   928.036    354.758    4221.69    28.9497     65.809    439.205  
   927.544    355.607    4220.62    29.5822    65.2697    438.934  
    924.62    354.621     4223.8    28.3807    65.8579    441.229  
   923.586     354.82    4222.02    28.6696    66.3626    441.495  
   929.683    354.271    4224.99    27.9297    64.8715    438.504  
   928.761    354.423    4223.28    28.3693    65.5287    438.751  
   927.173    355.167     4223.3    27.8327    64.1035    440.398  
   925.865    354.762    4223.71    28.1447      64.87    440.776  
    932.68    355.344    4224.47    27.0626    62.7676    437.761  
   931.075     354.62    4224.88    27.5383     63.717    438.097  
   926.276    355.984    4221.72     27.762    64.4545    439.974  
   932.097    356.456    4222.68    27.1346    63.3214    437.231  
   916.435    351.472    4219.48    25.2925     63.219    446.119  
   915.431    351.945     4218.3    25.1586    63.1963    445.876  
   914.383    349.338    4218.19    23.4173    60.9746    447.832  
   913.484    349.788    4217.08    23.3314    60.8722    447.627  
   914.914     351.49    4219.88    25.2309    64.0733    446.913  
    915.75    351.413     4219.8    25.2762    63.5807    446.485  
   913.068    349.356     4218.5    23.1791    61.5433    448.538  
   913.808    349.278    4218.45    23.2999    61.2191    448.153  
   912.759    352.057    4216.71    25.4047    64.1452    447.406  
   913.799    351.735    4218.31    25.2654    64.2322     447.12  
   910.948    349.935    4215.58    23.2257    61.5029     448.95  
   911.977     349.61    4217.06    23.1595    61.6056    448.706  
   911.367    352.982    4215.37    25.6136    63.0046    446.597  
   912.011    352.525    4215.88    25.5635    63.5547    447.085  
   909.792    350.793    4214.34     23.376    60.6277    448.203  
   910.293    350.374    4214.82    23.3362    61.0505    448.642  
   912.233    352.934    4216.25    25.3583    63.0281    446.119  
   910.651     350.73    4215.15    23.2869    60.6415    447.816  
   918.788    346.231     4218.1     14.717    47.7121    445.336  
    918.15    346.837    4216.64    14.7422    47.2925    445.024  
    913.71    348.689    4218.53     13.945    45.4617    446.997  
   912.938    349.326    4216.92    14.0939    45.0965    446.801  
    917.16    345.649    4218.32     14.033     47.217    445.755  
   918.015    345.792     4218.3    14.3627    47.5216    445.488  
   912.226    348.087    4218.37    13.2514    44.8121     446.96  
   913.021    348.241    4218.58    13.5617    45.2033    446.923  
    915.21    346.101     4215.3    13.4772    46.6777    446.025  
   916.114    345.817    4216.78    13.7631    46.8417    445.811  
   910.222    348.557    4214.69     12.828    44.3576    447.199  
   911.176    348.286    4216.51    13.0548    44.4666    447.012  
   914.726     347.06     4213.8    13.3599    46.7129    445.177  
   914.872    346.571    4214.48    13.3484    46.6986    445.662  
   909.443    349.471    4213.19    12.7824    44.6689     446.66  
   909.748    349.006     4213.8    12.7385    44.5272    446.995  
   915.688    347.328    4214.49    13.8543    46.7524    444.884  
   910.328    349.759    4214.17    13.3098    44.6622    446.496  
   921.947    352.785    4221.13    26.0433    63.2024    443.225  
    921.04    353.435    4219.81    25.9804    63.3625    442.903  
   919.976    352.541    4221.62    26.2317    64.3982    444.081  
   920.988    352.561     4221.5    26.1565    63.7167    443.618  
   917.957    353.098     4218.4    26.6769    64.7301    444.664  
   918.906    352.765    4220.01    26.3942    64.7145    444.316  
   916.663    354.289     4216.9    27.1572    63.5769    443.787  
   917.276    353.679     4217.5    26.9822    64.1378    444.331  
   917.612    354.423    4217.71    26.7119    63.5371    443.175  
   941.629    346.819    4219.56    18.3285    54.8552    434.583  
   939.921    344.808     4219.7    15.9167     52.506    435.754  
   942.267    347.975    4221.94    18.2527    54.6831    434.274  
   943.601    350.009    4222.64    16.2088    52.9173    432.811  
   940.738    345.702    4218.85    16.7395    53.1569    434.985  
   942.942    349.202    4220.63    19.0755     55.531     433.48  
   944.595    351.415    4221.37      17.23    53.8937    431.945  
   941.756    347.495     4221.2    16.0286    52.7333    434.253  
   942.668    348.652    4220.14    16.9402    53.5334    433.436  
   939.616    344.948    4221.54    17.9428    54.7041    436.075  
   937.825    343.452    4221.44    16.7796    53.5732    437.197  
   939.474    346.311    4223.45    19.4195    56.3071    435.482  
   940.854    347.912    4224.27    17.6404    54.5663    433.877  
   938.752    343.991    4220.62    16.2795    52.9879    436.526  
   940.707    346.936    4222.79    18.7979    55.4357    434.912  
   942.038    348.732    4223.54    16.8795    53.6929    433.405  
   939.349    345.763    4222.88    17.1866    54.1049    435.504  
   940.396    346.444    4222.11    16.5528    53.3706    434.934  
   938.088    344.423       4222    19.2658    56.1928     436.82  
   937.769    343.605    4221.74    18.3865    55.0293    437.416  
   938.933      346.6    4222.91    21.1763    57.9276    435.896  
   940.602     348.11    4224.36    19.5598    56.4151    434.193  
   937.621    343.401    4221.48    17.5592    54.2961    437.229  
   939.038    346.316    4223.03    20.2611    57.1664    435.574  
    940.56    347.856    4224.13    18.5761    55.5047    433.885  
   939.204    345.941    4223.09    18.9533      55.76     435.77  
   939.106    345.712    4222.84    18.0461    54.9345    435.524  
   938.724    345.404    4221.19     20.984    57.2926    436.579  
   939.802     345.12    4220.17    19.8816    55.8183    436.177  
   940.574     348.64    4221.24    23.0056    58.6717    434.873  
   942.907    350.464    4222.86    21.6751    57.7033    433.406  
    938.65    344.226    4221.02    19.1792    55.4776    436.868  
   939.602    347.459    4222.12    22.1327    58.3321    435.494  
   941.548     349.07     4223.7    20.6361    57.0922    433.899  
   941.357    347.872    4221.55    20.7524    56.7957    434.762  
   940.113    346.729     4222.4     19.884    56.3226    435.352  
   940.806    347.179    4219.41    21.0518    56.8774    434.863  
   940.661    345.881    4219.09    19.2804    55.0623    435.213  
   941.793    349.619    4220.31    22.2063    57.8941     433.79  
   944.142    351.696     4221.5    20.8748    56.7531    432.272  
   942.398    348.875    4220.32     20.042    55.9358    433.714  
   947.046    354.533    4225.64    17.5781    53.9942    430.491  
   948.189    356.563    4223.81    18.5016    55.0409     429.59  
   943.805    351.572    4226.77    19.4646    56.3642    430.963  
    945.15    352.712    4226.31     18.548    55.1687    430.772  
    943.48    351.798    4226.44    21.3448    58.2912    431.341  
   943.507    351.518    4226.37    20.3775    57.3642    430.953  
    945.61    355.019    4225.06    23.8137    59.7053    431.117  
   944.335    353.097    4225.82    22.5438    59.0011     431.34  
    947.12    356.861    4223.52    22.8703    58.7128    429.921  
   939.589     344.98     4220.2    18.4058     54.893    436.408  
   940.038    345.894    4219.12    19.1094    55.5481    435.695  
   938.965    343.537    4219.25     17.157    53.6304    436.755  
   939.559    344.345    4218.36    17.8481    54.1881    436.036  
   937.169    343.831    4221.74    19.1629    56.0837    437.835  
   938.277     344.25    4221.04    18.7322    55.4258    437.144  
   936.862    342.422    4220.89    17.8179    54.6202    438.248  
   937.816    342.847    4220.12    17.4285    54.0738    437.535  
   936.475     344.13    4221.15      20.66     57.392    438.227  
   936.657     343.86    4221.35    19.8732    56.7805    437.959  
    936.52    342.632    4220.77    19.2159    55.8512    438.523  
   936.523    342.409    4220.74    18.4863    55.2503    438.325  
   937.834    345.681    4219.48     22.098    57.8635    436.953  
   937.023    344.801    4220.35    21.4331     57.661    437.683  
   938.134    343.999    4219.15    20.5233     56.365    437.189  
   937.206    343.209       4220    19.9174    56.1502     437.93  
   938.913    346.337    4218.79    21.4769    57.2598    435.979  
   939.029    344.629    4218.33    19.9919    55.7533    436.266  
   945.342    354.968    4224.91    24.1164    59.8942    431.265  
   946.857     356.78    4223.43     23.163    58.9196    430.069  
   943.299    351.777    4226.32    21.6681    58.5544     431.52  
   944.117    353.068    4225.68    22.8607    59.2273    431.507  
   943.665    351.542    4226.76    19.7958    56.6416    431.125  
   943.346    351.494    4226.31    20.7028     57.641    431.126  
    946.94    354.454    4225.66    17.9311    54.2527     430.64  
   945.028     352.66    4226.31    18.8905     55.434    430.924  
   948.041    356.462    4223.81    18.8345    55.2986    429.745  
   917.537    354.607    4217.17    27.6455    63.8444    443.312  
     918.5    354.768    4217.97    27.1534    63.7933    442.674  
   918.846     353.37    4218.71    27.1231     65.026      444.2  
   918.163    353.969    4217.79    27.4523      64.42    443.867  
   920.848    352.818    4221.97     26.632    64.6428    443.602  
   919.783    353.037    4220.34    26.8156    64.9922    443.842  
   922.919    353.105    4221.48    26.3859    63.3565    442.746  
   921.901    352.856    4221.86     26.531    63.9116    443.139  
   922.016     353.78    4220.12    26.3224    63.5523    442.405  
   927.756    351.158    4217.76    8.73522    44.6657    436.813  
    929.08    351.937    4218.15    9.71574    45.0466    436.214  
   925.418    355.318    4218.22    6.56912    42.6755    435.668  
   926.756    356.266    4218.91    7.70692    43.0393    435.114  
   927.639    349.431    4219.77    9.49589    44.6479    437.833  
   927.607    350.207    4218.71    9.00258    44.6524    437.439  
   925.766    353.377    4220.38    7.28925    42.1205    436.447  
   925.549    354.236    4219.17    6.81976    42.4025    436.202  
   929.138    349.199    4223.23    10.7773     45.935    437.566  
   928.258    349.203    4221.39    10.1638    45.1049     437.57  
   927.279    353.135    4224.82    8.41999    43.3691    436.127  
    926.41    353.151    4222.48    7.89864    42.5364     436.15  
    932.22    350.581     4222.7    12.0748     47.591    437.132  
   930.557    349.675    4223.12    11.4114    46.8534    437.318  
   930.685    354.801    4224.77    9.82167    45.6126    436.181  
    928.81    353.728       4225    9.06135    44.5966    436.117  
   932.057    351.541    4220.59    11.9161    46.7296    436.459  
   930.395    355.919    4222.26     9.9004    44.7917    435.557  
   936.235    348.721    4219.93    24.4807    59.9166    436.827  
    937.45    349.452    4219.47    23.7524    59.3594    435.831  
   935.407    346.925    4221.64    22.9648    59.6975    437.949  
   935.707    347.714    4220.79    23.7794    59.8277    437.502  
   936.413    346.535    4222.92    21.4889    58.3915     437.43  
    935.76     346.61    4222.18    22.1786    59.1331    437.597  
   939.166    347.768    4221.63    20.6201    56.8679    436.193  
   937.671    346.965    4222.37    21.0269    57.5599    436.815  
   939.401    348.839    4220.28    21.2282    57.5794    435.512  
   931.545    349.868    4218.41    9.69833    46.1357    436.036  
   932.872    350.716     4218.5    10.6983    46.6028    435.356  
   930.984    348.103     4220.4    10.5675    46.3832    437.141  
   931.164    348.886    4219.37    10.0322    46.2473      436.7  
   932.223    347.918    4223.27    11.9854    47.7876    436.942  
   931.461     347.89    4221.72    11.2964    46.9357    436.925  
     935.3    349.391     4222.5    13.3934    49.3985    436.337  
   933.618     348.44    4223.03    12.6809    48.6788    436.633  
   935.384    350.377    4220.52    13.1212    48.4989     435.58  
   923.736    343.332    4217.48    16.1992    50.0286    444.171  
   923.297    343.889    4216.24     16.145    49.6237    443.771  
    924.03    345.289    4218.53    14.8208    48.4823    443.104  
   923.569    345.914     4217.1    14.7656    47.9951    442.682  
   922.108    342.805    4218.07    15.5505    49.7333    444.961  
   922.956     342.93    4217.85    15.8742    49.9299    444.531  
   922.153    344.618    4219.04    14.0699    47.9179    443.755  
   923.104      344.8    4218.88    14.4416    48.2643    443.392  
   920.357     343.22    4215.78    14.9758    49.1957    445.214  
   921.142    342.946    4216.89      15.26    49.3977    445.041  
   920.389     345.01    4216.35    13.3562    47.2407    444.013  
   921.176    344.743    4217.65      13.72    47.4794    443.821  
   920.264    344.141    4214.28    14.8679    49.0163    444.151  
   920.207    343.678    4214.99    14.8668    49.1031    444.741  
   920.224    346.049    4214.75    13.1433    47.1815    442.996  
   920.211    345.517    4215.49    13.1773    47.2092    443.573  
   921.229    344.394    4214.66    15.2984     49.074     443.73  
   921.242    346.386    4215.22    13.6914    47.2846    442.579  
   923.835    342.318    4216.96     17.474    51.9519    444.698  
   923.401    342.841    4215.84    17.4707    51.6583    444.318  
   922.302    341.895    4217.59    16.9288    51.8591    445.603  
    923.11     341.98    4217.34    17.1956    51.9356    445.118  
   920.565    342.343    4215.56    16.5759     51.502    445.882  
   921.346    342.056    4216.55    16.7389    51.6444    445.707  
   920.459    343.207    4214.13    16.6096    51.2692    444.788  
   920.406    342.779     4214.8    16.5591    51.3834    445.389  
   921.401    343.396    4214.44     16.915    51.2851    444.345  
   940.253    347.495    4221.56    19.5933    55.9263    435.571  
   940.656    348.598    4220.26    20.2844     56.678     434.85  
   937.525    346.133    4222.96     20.545    57.4439    436.825  
   938.758    346.624    4222.35    20.0348    56.6188    436.214  
   936.714    346.478       4222    22.1196    58.8568    437.296  
   936.963    346.179    4222.36    21.2888     58.221    436.964  
   937.868    348.322     4220.3    23.7304    59.2717    436.185  
   937.164    347.275    4221.18     22.977    59.0907    436.851  
   939.064    349.126    4219.66    22.9897     58.637    435.163  
   919.132    343.458    4213.83    15.7064    50.0014    445.016  
   920.075    343.663    4214.22    16.0697    50.0266    444.615  
   921.939    343.879    4214.56    14.5765    49.0441    443.286  
    922.92    344.159    4214.88    15.0271    49.1238    442.828  
   919.306    342.585    4215.27    15.7292     50.186    446.053  
   919.114    343.026     4214.5     15.674    50.0923    445.589  
   921.944    342.921    4216.11    14.7137    49.2273      444.4  
    921.84    343.394    4215.29    14.5879    49.1314    443.904  
   921.098    342.137    4217.49    16.1684    50.6119    445.786  
   920.119    342.299    4216.36    15.9411    50.3464    445.878  
   923.619     342.52    4218.32    15.3295     49.807    444.147  
   922.682    342.649    4217.18    15.0192    49.4485    444.227  
   922.616    342.591    4216.96    16.7604    50.7995    444.996  
   921.902    342.231     4217.3    16.4584    50.7448    445.354  
   925.355    343.093    4217.66    15.9989    50.1508    443.296  
   924.508    342.666    4218.07    15.6653    50.0303    443.691  
   922.139    343.126    4215.77    16.7462    50.4598    444.631  
   924.973    343.666    4216.41    15.9298    49.7275    442.861  
   919.435    343.131    4213.88    16.9117    51.7693    445.318  
   920.369    343.296    4214.22    17.1875    51.7717    444.893  
   919.611     342.28    4215.28    16.8469    52.0119    446.378  
   919.417    342.712    4214.53    16.8511     51.889    445.901  
   921.392     341.81    4217.33    17.1427    52.3236     446.09  
   920.421    341.984    4216.28    16.9793    52.1381    446.199  
   922.867    342.194    4216.75    17.6673     52.371    445.212  
   922.178    341.877    4217.11    17.3967     52.373    445.616  
   922.397    342.712    4215.64    17.6779    52.1016    444.856  
Damage_nodal 2 8107 float
         0          0  
         0          0  
         0          0  
         0          0  
         0          0  
         0          0  
         0          0  
         0          0  
         0          0  
         0          0  
         0          0  
         0          0  
         0          0  
         0          0  
         0          0  
         0          0  
         0          0  
         0          0  
         0          0  
         0          0  
         0          0  
         0          0  
         0          0  
         0          0  
         0          0  
         0          0  
         0          0  
         0          0  
         0          0  
         0          0  
         0          0  
         0          0  
         0          0  
         0          0  
         0          0  
         0          0  
         0          0  
         0          0  
         0          0  
         0          0  
         0          0  
         0          0  
         0          0  
         0          0  
         0          0  
         0          0  
         0          0  
         0          0  
         0          0  
         0          0  
         0          0  
         0          0  
         0          0  
         0          0  
         0          0  
         0          0  
         0          0  
         0          0  
         0          0  
         0          0  
         0          0  
         0          0  
         0          0  
         0          0  
         0          0  
         0          0  
         0          0  
         0          0  
         0          0  
         0          0  
         0          0  
         0          0  
         0          0  
         0          0  
         0          0  
         0          0  
         0          0  
         0          0  
         0          0  
         0          0  
         0          0  
         0          0  
         0          0  
         0          0  
         0          0  
         0          0  
         0          0  
         0          0  
         0          0  
         0          0  
         0          0  
         0          0  
         0          0  
         0          0  
         0          0  
         0          0  
         0          0  
         0          0  
         0          0  
         0          0  
         0          0  
         0          0  
         0          0  
         0          0  
         0          0  
         0          0  
         0          0  
         0          0  
         0          0  
         0          0  
         0          0  
         0          0  
         0          0  
         0          0  
         0          0  
         0          0  
         0          0  
         0          0  
         0          0  
         0          0  
         0          0  
         0          0  
         0          0  
         0          0  
         0          0  
         0          0  
         0          0  
         0          0  
         0          0  
         0          0  
         0          0  
         0          0  
         0          0  
         0          0  
         0          0  
         0          0  
         0          0  
         0          0  
         0          0  
         0          0  
         0          0  
         0          0  
         0          0  
         0          0  
         0          0  
         0          0  
         0          0  
         0          0  
         0          0  
         0          0  
         0          0  
         0          0  
         0          0  
         0          0  
         0          0  
         0          0  
         0          0  
         0          0  
         0          0  
         0          0  
         0          0  
         0          0  
         0          0  
         0          0  
         0          0  
         0          0  
         0          0  
         0          0  
         0          0  
         0          0  
         0          0  
         0          0  
         0          0  
         0          0  
         0          0  
         0          0  
         0          0  
         0          0  
         0          0  
         0          0  
         0          0  
         0          0  
         0          0  
         0          0  
         0          0  
         0          0  
         0          0  
         0          0  
         0          0  
         0          0  
         0          0  
         0          0  
         0          0  
         0          0  
         0          0  
         0          0  
         0          0  
         0          0  
         0          0  
         0          0  
         0          0  
         0          0  
         0          0  
         0          0  
         0          0  
         0          0  
         0          0  
         0          0  
         0          0  
         0          0  
         0          0  
         0          0  
         0          0  
         0          0  
         0          0  
         0          0  
         0          0  
         0          0  
         0          0  
         0          0  
         0          0  
         0          0  
         0          0  
         0          0  
         0          0  
         0          0  
         0          0  
         0          0  
         0          0  
         0          0  
         0          0  
         0          0  
         0          0  
         0          0  
         0          0  
         0          0  
         0          0  
         0          0  
         0          0  
         0          0  
         0          0  
         0          0  
         0          0  
         0          0  
         0          0  
         0          0  
         0          0  
         0          0  
         0          0  
         0          0  
         0          0  
         0          0  
         0          0  
         0          0  
         0          0  
         0          0  
         0          0  
         0          0  
         0          0  
         0          0  
         0          0  
         0          0  
         0          0  
         0          0  
         0          0  
         0          0  
         0          0  
         0          0  
         0          0  
         0          0  
         0          0  
         0          0  
         0          0  
         0          0  
         0          0  
         0          0  
         0          0  
         0          0  
         0          0  
         0          0  
         0          0  
         0          0  
         0          0  
         0          0  
         0          0  
         0          0  
         0          0  
         0          0  
         0          0  
         0          0  
         0          0  
         0          0  
         0          0  
         0          0  
         0          0  
         0          0  
         0          0  
         0          0  
         0          0  
         0          0  
         0          0  
         0          0  
         0          0  
         0          0  
         0          0  
         0          0  
         0          0  
         0          0  
         0          0  
         0          0  
         0          0  
         0          0  
         0          0  
         0          0  
         0          0  
         0          0  
         0          0  
         0          0  
         0          0  
         0          0  
         0          0  
         0          0  
         0          0  
         0          0  
         0          0  
         0          0  
         0          0  
         0          0  
         0          0  
         0          0  
         0          0  
         0          0  
         0          0  
         0          0  
         0          0  
         0          0  
         0          0  
         0          0  
         0          0  
         0          0  
         0          0  
         0          0  
         0          0  
         0          0  
         0          0  
         0          0  
         0          0  
         0          0  
         0          0  
         0          0  
         0          0  
         0          0  
         0          0  
         0          0  
         0          0  
         0          0  
         0          0  
         0          0  
         0          0  
         0          0  
         0          0  
         0          0  
         0          0  
         0          0  
         0          0  
         0          0  
         0          0  
         0          0  
         0          0  
         0          0  
         0          0  
         0          0  
         0          0  
         0          0  
         0          0  
         0          0  
         0          0  
         0          0  
         0          0  
         0          0  
         0          0  
         0          0  
         0          0  
         0          0  
         0          0  
         0          0  
         0          0  
         0          0  
         0          0  
         0          0  
         0          0  
         0          0  
         0          0  
         0          0  
         0          0  
         0          0  
         0          0  
         0          0  
         0          0  
         0          0  
         0          0  
         0          0  
         0          0  
         0          0  
         0          0  
         0          0  
         0          0  
         0          0  
         0          0  
         0          0  
         0          0  
         0          0  
         0          0  
         0          0  
         0          0  
         0          0  
         0          0  
         0          0  
         0          0  
         0          0  
         0          0  
         0          0  
         0          0  
         0          0  
         0          0  
         0          0  
         0          0  
         0          0  
         0          0  
         0          0  
         0          0  
         0          0  
         0          0  
         0          0  
         0          0  
         0          0  
         0          0  
         0          0  
         0          0  
         0          0  
         0          0  
         0          0  
         0          0  
         0          0  
         0          0  
         0          0  
         0          0  
         0          0  
         0          0  
         0          0  
         0          0  
         0          0  
         0          0  
         0          0  
         0          0  
         0          0  
         0          0  
         0          0  
         0          0  
         0          0  
         0          0  
         0          0  
         0          0  
         0          0  
         0          0  
         0          0  
         0          0  
         0          0  
         0          0  
         0          0  
         0          0  
         0          0  
         0          0  
         0          0  
         0          0  
         0          0  
         0          0  
         0          0  
         0          0  
         0          0  
         0          0  
         0          0  
         0          0  
         0          0  
         0          0  
         0          0  
         0          0  
         0          0  
         0          0  
         0          0  
         0          0  
         0          0  
         0          0  
         0          0  
         0          0  
         0          0  
         0          0  
         0          0  
         0          0  
         0          0  
         0          0  
         0          0  
         0          0  
         0          0  
         0          0  
         0          0  
         0          0  
         0          0  
         0          0  
         0          0  
         0          0  
         0          0  
         0          0  
         0          0  
         0          0  
         0          0  
         0          0  
         0          0  
         0          0  
         0          0  
         0          0  
         0          0  
         0          0  
         0          0  
         0          0  
         0          0  
         0          0  
         0          0  
         0          0  
         0          0  
         0          0  
         0          0  
         0          0  
         0          0  
         0          0  
         0          0  
         0          0  
         0          0  
         0          0  
         0          0  
         0          0  
         0          0  
         0          0  
         0          0  
         0          0  
         0          0  
         0          0  
         0          0  
         0          0  
         0          0  
         0          0  
         0          0  
         0          0  
         0          0  
         0          0  
         0          0  
         0          0  
         0          0  
         0          0  
         0          0  
         0          0  
         0          0  
         0          0  
         0          0  
         0          0  
         0          0  
         0          0  
         0          0  
         0          0  
         0          0  
         0          0  
         0          0  
         0          0  
         0          0  
         0          0  
         0          0  
         0          0  
         0          0  
         0          0  
         0          0  
         0          0  
         0          0  
         0          0  
         0          0  
         0          0  
         0          0  
         0          0  
         0          0  
         0          0  
         0          0  
         0          0  
         0          0  
         0          0  
         0          0  
         0          0  
         0          0  
         0          0  
         0          0  
         0          0  
         0          0  
         0          0  
         0          0  
         0          0  
         0          0  
         0          0  
         0          0  
         0          0  
         0          0  
         0          0  
         0          0  
         0          0  
         0          0  
         0          0  
         0          0  
         0          0  
         0          0  
         0          0  
         0          0  
         0          0  
         0          0  
         0          0  
         0          0  
         0          0  
         0          0  
         0          0  
         0          0  
         0          0  
         0          0  
         0          0  
         0          0  
         0          0  
         0          0  
         0          0  
         0          0  
         0          0  
         0          0  
         0          0  
         0          0  
         0          0  
         0          0  
         0          0  
         0          0  
         0          0  
         0          0  
         0          0  
         0          0  
         0          0  
         0          0  
         0          0  
         0          0  
         0          0  
         0          0  
         0          0  
         0          0  
         0          0  
         0          0  
         0          0  
         0          0  
         0          0  
         0          0  
         0          0  
         0          0  
         0          0  
         0          0  
         0          0  
         0          0  
         0          0  
         0          0  
         0          0  
         0          0  
         0          0  
         0          0  
         0          0  
         0          0  
         0          0  
         0          0  
         0          0  
         0          0  
         0          0  
         0          0  
         0          0  
         0          0  
         0          0  
         0          0  
         0          0  
         0          0  
         0          0  
         0          0  
         0          0  
         0          0  
         0          0  
         0          0  
         0          0  
         0          0  
         0          0  
         0          0  
         0          0  
         0          0  
         0          0  
         0          0  
         0          0  
         0          0  
         0          0  
         0          0  
         0          0  
         0          0  
         0          0  
         0          0  
         0          0  
         0          0  
         0          0  
         0          0  
         0          0  
         0          0  
         0          0  
         0          0  
         0          0  
         0          0  
         0          0  
         0          0  
         0          0  
         0          0  
         0          0  
         0          0  
         0          0  
         0          0  
         0          0  
         0          0  
         0          0  
         0          0  
         0          0  
         0          0  
         0          0  
         0          0  
         0          0  
         0          0  
         0          0  
         0          0  
         0          0  
         0          0  
         0          0  
         0          0  
         0          0  
         0          0  
         0          0  
         0          0  
         0          0  
         0          0  
         0          0  
         0          0  
         0          0  
         0          0  
         0          0  
         0          0  
         0          0  
         0          0  
         0          0  
         0          0  
         0          0  
         0          0  
         0          0  
         0          0  
         0          0  
         0          0  
         0          0  
         0          0  
         0          0  
         0          0  
         0          0  
         0          0  
         0          0  
         0          0  
         0          0  
         0          0  
         0          0  
         0          0  
         0          0  
         0          0  
         0          0  
         0          0  
         0          0  
         0          0  
         0          0  
         0          0  
         0          0  
         0          0  
         0          0  
         0          0  
         0          0  
         0          0  
         0          0  
         0          0  
         0          0  
         0          0  
         0          0  
         0          0  
         0          0  
         0          0  
         0          0  
         0          0  
         0          0  
         0          0  
         0          0  
         0          0  
         0          0  
         0          0  
         0          0  
         0          0  
         0          0  
         0          0  
         0          0  
         0          0  
         0          0  
         0          0  
         0          0  
         0          0  
         0          0  
         0          0  
         0          0  
         0          0  
         0          0  
         0          0  
         0          0  
         0          0  
         0          0  
         0          0  
         0          0  
         0          0  
         0          0  
         0          0  
         0          0  
         0          0  
         0          0  
         0          0  
         0          0  
         0          0  
         0          0  
         0          0  
         0          0  
         0          0  
         0          0  
         0          0  
         0          0  
         0          0  
         0          0  
         0          0  
         0          0  
         0          0  
         0          0  
         0          0  
         0          0  
         0          0  
         0          0  
         0          0  
         0          0  
         0          0  
         0          0  
         0          0  
         0          0  
         0          0  
         0          0  
         0          0  
         0          0  
         0          0  
         0          0  
         0          0  
         0          0  
         0          0  
         0          0  
         0          0  
         0          0  
         0          0  
         0          0  
         0          0  
         0          0  
         0          0  
         0          0  
         0          0  
         0          0  
         0          0  
         0          0  
         0          0  
         0          0  
         0          0  
         0          0  
         0          0  
         0          0  
         0          0  
         0          0  
         0          0  
         0          0  
         0          0  
         0          0  
         0          0  
         0          0  
         0          0  
         0          0  
         0          0  
         0          0  
         0          0  
         0          0  
         0          0  
         0          0  
         0          0  
         0          0  
         0          0  
         0          0  
         0          0  
         0          0  
         0          0  
         0          0  
         0          0  
         0          0  
         0          0  
         0          0  
         0          0  
         0          0  
         0          0  
         0          0  
         0          0  
         0          0  
         0          0  
         0          0  
         0          0  
         0          0  
         0          0  
         0          0  
         0          0  
         0          0  
         0          0  
         0          0  
         0          0  
         0          0  
         0          0  
         0          0  
         0          0  
         0          0  
         0          0  
         0          0  
         0          0  
         0          0  
         0          0  
         0          0  
         0          0  
         0          0  
         0          0  
         0          0  
         0          0  
         0          0  
         0          0  
         0          0  
         0          0  
         0          0  
         0          0  
         0          0  
         0          0  
         0          0  
         0          0  
         0          0  
         0          0  
         0          0  
         0          0  
         0          0  
         0          0  
         0          0  
         0          0  
         0          0  
         0          0  
         0          0  
         0          0  
         0          0  
         0          0  
         0          0  
         0          0  
         0          0  
         0          0  
         0          0  
         0          0  
         0          0  
         0          0  
         0          0  
         0          0  
         0          0  
         0          0  
         0          0  
         0          0  
         0          0  
         0          0  
         0          0  
         0          0  
         0          0  
         0          0  
         0          0  
         0          0  
         0          0  
         0          0  
         0          0  
         0          0  
         0          0  
         0          0  
         0          0  
         0          0  
         0          0  
         0          0  
         0          0  
         0          0  
         0          0  
         0          0  
         0          0  
         0          0  
         0          0  
         0          0  
         0          0  
         0          0  
         0          0  
         0          0  
         0          0  
         0          0  
         0          0  
         0          0  
         0          0  
         0          0  
         0          0  
         0          0  
         0          0  
         0          0  
         0          0  
         0          0  
         0          0  
         0          0  
         0          0  
         0          0  
         0          0  
         0          0  
         0          0  
         0          0  
         0          0  
         0          0  
         0          0  
         0          0  
         0          0  
         0          0  
         0          0  
         0          0  
         0          0  
         0          0  
         0          0  
         0          0  
         0          0  
         0          0  
         0          0  
         0          0  
         0          0  
         0          0  
         0          0  
         0          0  
         0          0  
         0          0  
         0          0  
         0          0  
         0          0  
         0          0  
         0          0  
         0          0  
         0          0  
         0          0  
         0          0  
         0          0  
         0          0  
         0          0  
         0          0  
         0          0  
         0          0  
         0          0  
         0          0  
         0          0  
         0          0  
         0          0  
         0          0  
         0          0  
         0          0  
         0          0  
         0          0  
         0          0  
         0          0  
         0          0  
         0          0  
         0          0  
         0          0  
         0          0  
         0          0  
         0          0  
         0          0  
         0          0  
         0          0  
         0          0  
         0          0  
         0          0  
         0          0  
         0          0  
         0          0  
         0          0  
         0          0  
         0          0  
         0          0  
         0          0  
         0          0  
         0          0  
         0          0  
         0          0  
         0          0  
         0          0  
         0          0  
         0          0  
         0          0  
         0          0  
         0          0  
         0          0  
         0          0  
         0          0  
         0          0  
         0          0  
         0          0  
         0          0  
         0          0  
         0          0  
         0          0  
         0          0  
         0          0  
         0          0  
         0          0  
         0          0  
         0          0  
         0          0  
         0          0  
         0          0  
         0          0  
         0          0  
         0          0  
         0          0  
         0          0  
         0          0  
         0          0  
         0          0  
         0          0  
         0          0  
         0          0  
         0          0  
         0          0  
         0          0  
         0          0  
         0          0  
         0          0  
         0          0  
         0          0  
         0          0  
         0          0  
         0          0  
         0          0  
         0          0  
         0          0  
         0          0  
         0          0  
         0          0  
         0          0  
         0          0  
         0          0  
         0          0  
         0          0  
         0          0  
         0          0  
         0          0  
         0          0  
         0          0  
         0          0  
         0          0  
         0          0  
         0          0  
         0          0  
         0          0  
         0          0  
         0          0  
         0          0  
         0          0  
         0          0  
         0          0  
         0          0  
         0          0  
         0          0  
         0          0  
         0          0  
         0          0  
         0          0  
         0          0  
         0          0  
         0          0  
         0          0  
         0          0  
         0          0  
         0          0  
         0          0  
         0          0  
         0          0  
         0          0  
         0          0  
         0          0  
         0          0  
         0          0  
         0          0  
         0          0  
         0          0  
         0          0  
         0          0  
         0          0  
         0          0  
         0          0  
         0          0  
         0          0  
         0          0  
         0          0  
         0          0  
         0          0  
         0          0  
         0          0  
         0          0  
         0          0  
         0          0  
         0          0  
         0          0  
         0          0  
         0          0  
         0          0  
         0          0  
         0          0  
         0          0  
         0          0  
         0          0  
         0          0  
         0          0  
         0          0  
         0          0  
         0          0  
         0          0  
         0          0  
         0          0  
         0          0  
         0          0  
         0          0  
         0          0  
         0          0  
         0          0  
         0          0  
         0          0  
         0          0  
         0          0  
         0          0  
         0          0  
         0          0  
         0          0  
         0          0  
         0          0  
         0          0  
         0          0  
         0          0  
         0          0  
         0          0  
         0          0  
         0          0  
         0          0  
         0          0  
         0          0  
         0          0  
         0          0  
         0          0  
         0          0  
         0          0  
         0          0  
         0          0  
         0          0  
         0          0  
         0          0  
         0          0  
         0          0  
         0          0  
         0          0  
         0          0  
         0          0  
         0          0  
         0          0  
         0          0  
         0          0  
         0          0  
         0          0  
         0          0  
         0          0  
         0          0  
         0          0  
         0          0  
         0          0  
         0          0  
         0          0  
         0          0  
         0          0  
         0          0  
         0          0  
         0          0  
         0          0  
         0          0  
         0          0  
         0          0  
         0          0  
         0          0  
         0          0  
         0          0  
         0          0  
         0          0  
         0          0  
         0          0  
         0          0  
         0          0  
         0          0  
         0          0  
         0          0  
         0          0  
         0          0  
         0          0  
         0          0  
         0          0  
         0          0  
         0          0  
         0          0  
         0          0  
         0          0  
         0          0  
         0          0  
         0          0  
         0          0  
         0          0  
         0          0  
         0          0  
         0          0  
         0          0  
         0          0  
         0          0  
         0          0  
         0          0  
         0          0  
         0          0  
         0          0  
         0          0  
         0          0  
         0          0  
         0          0  
         0          0  
         0          0  
         0          0  
         0          0  
         0          0  
         0          0  
         0          0  
         0          0  
         0          0  
         0          0  
         0          0  
         0          0  
         0          0  
         0          0  
         0          0  
         0          0  
         0          0  
         0          0  
         0          0  
         0          0  
         0          0  
         0          0  
         0          0  
         0          0  
         0          0  
         0          0  
         0          0  
         0          0  
         0          0  
         0          0  
         0          0  
         0          0  
         0          0  
         0          0  
         0          0  
         0          0  
         0          0  
         0          0  
         0          0  
         0          0  
         0          0  
         0          0  
         0          0  
         0          0  
         0          0  
         0          0  
         0          0  
         0          0  
         0          0  
         0          0  
         0          0  
         0          0  
         0          0  
         0          0  
         0          0  
         0          0  
         0          0  
         0          0  
         0          0  
         0          0  
         0          0  
         0          0  
         0          0  
         0          0  
         0          0  
         0          0  
         0          0  
         0          0  
         0          0  
         0          0  
         0          0  
         0          0  
         0          0  
         0          0  
         0          0  
         0          0  
         0          0  
         0          0  
         0          0  
         0          0  
         0          0  
         0          0  
         0          0  
         0          0  
         0          0  
         0          0  
         0          0  
         0          0  
         0          0  
         0          0  
         0          0  
         0          0  
         0          0  
         0          0  
         0          0  
         0          0  
         0          0  
         0          0  
         0          0  
         0          0  
         0          0  
         0          0  
         0          0  
         0          0  
         0          0  
         0          0  
         0          0  
         0          0  
         0          0  
         0          0  
         0          0  
         0          0  
         0          0  
         0          0  
         0          0  
         0          0  
         0          0  
         0          0  
         0          0  
         0          0  
         0          0  
         0          0  
         0          0  
         0          0  
         0          0  
         0          0  
         0          0  
         0          0  
         0          0  
         0          0  
         0          0  
         0          0  
         0          0  
         0          0  
         0          0  
         0          0  
         0          0  
         0          0  
         0          0  
         0          0  
         0          0  
         0          0  
         0          0  
         0          0  
         0          0  
         0          0  
         0          0  
         0          0  
         0          0  
         0          0  
         0          0  
         0          0  
         0          0  
         0          0  
         0          0  
         0          0  
         0          0  
         0          0  
         0          0  
         0          0  
         0          0  
         0          0  
         0          0  
         0          0  
         0          0  
         0          0  
         0          0  
         0          0  
         0          0  
         0          0  
         0          0  
         0          0  
         0          0  
         0          0  
         0          0  
         0          0  
         0          0  
         0          0  
         0          0  
         0          0  
         0          0  
         0          0  
         0          0  
         0          0  
         0          0  
         0          0  
         0          0  
         0          0  
         0          0  
         0          0  
         0          0  
         0          0  
         0          0  
         0          0  
         0          0  
         0          0  
         0          0  
         0          0  
         0          0  
         0          0  
         0          0  
         0          0  
         0          0  
         0          0  
         0          0  
         0          0  
         0          0  
         0          0  
         0          0  
         0          0  
         0          0  
         0          0  
         0          0  
         0          0  
         0          0  
         0          0  
         0          0  
         0          0  
         0          0  
         0          0  
         0          0  
         0          0  
         0          0  
         0          0  
         0          0  
         0          0  
         0          0  
         0          0  
         0          0  
         0          0  
         0          0  
         0          0  
         0          0  
         0          0  
         0          0  
         0          0  
         0          0  
         0          0  
         0          0  
         0          0  
         0          0  
         0          0  
         0          0  
         0          0  
         0          0  
         0          0  
         0          0  
         0          0  
         0          0  
         0          0  
         0          0  
         0          0  
         0          0  
         0          0  
         0          0  
         0          0  
         0          0  
         0          0  
         0          0  
         0          0  
         0          0  
         0          0  
         0          0  
         0          0  
         0          0  
         0          0  
         0          0  
         0          0  
         0          0  
         0          0  
         0          0  
         0          0  
         0          0  
         0          0  
         0          0  
         0          0  
         0          0  
         0          0  
         0          0  
         0          0  
         0          0  
         0          0  
         0          0  
         0          0  
         0          0  
         0          0  
         0          0  
         0          0  
         0          0  
         0          0  
         0          0  
         0          0  
         0          0  
         0          0  
         0          0  
         0          0  
         0          0  
         0          0  
         0          0  
         0          0  
         0          0  
         0          0  
         0          0  
         0          0  
         0          0  
         0          0  
         0          0  
         0          0  
         0          0  
         0          0  
         0          0  
         0          0  
         0          0  
         0          0  
         0          0  
         0          0  
         0          0  
         0          0  
         0          0  
         0          0  
         0          0  
         0          0  
         0          0  
         0          0  
         0          0  
         0          0  
         0          0  
         0          0  
         0          0  
         0          0  
         0          0  
         0          0  
         0          0  
         0          0  
         0          0  
         0          0  
         0          0  
         0          0  
         0          0  
         0          0  
         0          0  
         0          0  
         0          0  
         0          0  
         0          0  
         0          0  
         0          0  
         0          0  
         0          0  
         0          0  
         0          0  
         0          0  
         0          0  
         0          0  
         0          0  
         0          0  
         0          0  
         0          0  
         0          0  
         0          0  
         0          0  
         0          0  
         0          0  
         0          0  
         0          0  
         0          0  
         0          0  
         0          0  
         0          0  
         0          0  
         0          0  
         0          0  
         0          0  
         0          0  
         0          0  
         0          0  
         0          0  
         0          0  
         0          0  
         0          0  
         0          0  
         0          0  
         0          0  
         0          0  
         0          0  
         0          0  
         0          0  
         0          0  
         0          0  
         0          0  
         0          0  
         0          0  
         0          0  
         0          0  
         0          0  
         0          0  
         0          0  
         0          0  
         0          0  
         0          0  
         0          0  
         0          0  
         0          0  
         0          0  
         0          0  
         0          0  
         0          0  
         0          0  
         0          0  
         0          0  
         0          0  
         0          0  
         0          0  
         0          0  
         0          0  
         0          0  
         0          0  
         0          0  
         0          0  
         0          0  
         0          0  
         0          0  
         0          0  
         0          0  
         0          0  
         0          0  
         0          0  
         0          0  
         0          0  
         0          0  
         0          0  
         0          0  
         0          0  
         0          0  
         0          0  
         0          0  
         0          0  
         0          0  
         0          0  
         0          0  
         0          0  
         0          0  
         0          0  
         0          0  
         0          0  
         0          0  
         0          0  
         0          0  
         0          0  
         0          0  
         0          0  
         0          0  
         0          0  
         0          0  
         0          0  
         0          0  
         0          0  
         0          0  
         0          0  
         0          0  
         0          0  
         0          0  
         0          0  
         0          0  
         0          0  
         0          0  
         0          0  
         0          0  
         0          0  
         0          0  
         0          0  
         0          0  
         0          0  
         0          0  
         0          0  
         0          0  
         0          0  
         0          0  
         0          0  
         0          0  
         0          0  
         0          0  
         0          0  
         0          0  
         0          0  
         0          0  
         0          0  
         0          0  
         0          0  
         0          0  
         0          0  
         0          0  
         0          0  
         0          0  
         0          0  
         0          0  
         0          0  
         0          0  
         0          0  
         0          0  
         0          0  
         0          0  
         0          0  
         0          0  
         0          0  
         0          0  
         0          0  
         0          0  
         0          0  
         0          0  
         0          0  
         0          0  
         0          0  
         0          0  
         0          0  
         0          0  
         0          0  
         0          0  
         0          0  
         0          0  
         0          0  
         0          0  
         0          0  
         0          0  
         0          0  
         0          0  
         0          0  
         0          0  
         0          0  
         0          0  
         0          0  
         0          0  
         0          0  
         0          0  
         0          0  
         0          0  
         0          0  
         0          0  
         0          0  
         0          0  
         0          0  
         0          0  
         0          0  
         0          0  
         0          0  
         0          0  
         0          0  
         0          0  
         0          0  
         0          0  
         0          0  
         0          0  
         0          0  
         0          0  
         0          0  
         0          0  
         0          0  
         0          0  
         0          0  
         0          0  
         0          0  
         0          0  
         0          0  
         0          0  
         0          0  
         0          0  
         0          0  
         0          0  
         0          0  
         0          0  
         0          0  
         0          0  
         0          0  
         0          0  
         0          0  
         0          0  
         0          0  
         0          0  
         0          0  
         0          0  
         0          0  
         0          0  
         0          0  
         0          0  
         0          0  
         0          0  
         0          0  
         0          0  
         0          0  
         0          0  
         0          0  
         0          0  
         0          0  
         0          0  
         0          0  
         0          0  
         0          0  
         0          0  
         0          0  
         0          0  
         0          0  
         0          0  
         0          0  
         0          0  
         0          0  
         0          0  
         0          0  
         0          0  
         0          0  
         0          0  
         0          0  
         0          0  
         0          0  
         0          0  
         0          0  
         0          0  
         0          0  
         0          0  
         0          0  
         0          0  
         0          0  
         0          0  
         0          0  
         0          0  
         0          0  
         0          0  
         0          0  
         0          0  
         0          0  
         0          0  
         0          0  
         0          0  
         0          0  
         0          0  
         0          0  
         0          0  
         0          0  
         0          0  
         0          0  
         0          0  
         0          0  
         0          0  
         0          0  
         0          0  
         0          0  
         0          0  
         0          0  
         0          0  
         0          0  
         0          0  
         0          0  
         0          0  
         0          0  
         0          0  
         0          0  
         0          0  
         0          0  
         0          0  
         0          0  
         0          0  
         0          0  
         0          0  
         0          0  
         0          0  
         0          0  
         0          0  
         0          0  
         0          0  
         0          0  
         0          0  
         0          0  
         0          0  
         0          0  
         0          0  
         0          0  
         0          0  
         0          0  
         0          0  
         0          0  
         0          0  
         0          0  
         0          0  
         0          0  
         0          0  
         0          0  
         0          0  
         0          0  
         0          0  
         0          0  
         0          0  
         0          0  
         0          0  
         0          0  
         0          0  
         0          0  
         0          0  
         0          0  
         0          0  
         0          0  
         0          0  
         0          0  
         0          0  
         0          0  
         0          0  
         0          0  
         0          0  
         0          0  
         0          0  
         0          0  
         0          0  
         0          0  
         0          0  
         0          0  
         0          0  
         0          0  
         0          0  
         0          0  
         0          0  
         0          0  
         0          0  
         0          0  
         0          0  
         0          0  
         0          0  
         0          0  
         0          0  
         0          0  
         0          0  
         0          0  
         0          0  
         0          0  
         0          0  
         0          0  
         0          0  
         0          0  
         0          0  
         0          0  
         0          0  
         0          0  
         0          0  
         0          0  
         0          0  
         0          0  
         0          0  
         0          0  
         0          0  
         0          0  
         0          0  
         0          0  
         0          0  
         0          0  
         0          0  
         0          0  
         0          0  
         0          0  
         0          0  
         0          0  
         0          0  
         0          0  
         0          0  
         0          0  
         0          0  
         0          0  
         0          0  
         0          0  
         0          0  
         0          0  
         0          0  
         0          0  
         0          0  
         0          0  
         0          0  
         0          0  
         0          0  
         0          0  
         0          0  
         0          0  
         0          0  
         0          0  
         0          0  
         0          0  
         0          0  
         0          0  
         0          0  
         0          0  
         0          0  
         0          0  
         0          0  
         0          0  
         0          0  
         0          0  
         0          0  
         0          0  
         0          0  
         0          0  
         0          0  
         0          0  
         0          0  
         0          0  
         0          0  
         0          0  
         0          0  
         0          0  
         0          0  
         0          0  
         0          0  
         0          0  
         0          0  
         0          0  
         0          0  
         0          0  
         0          0  
         0          0  
         0          0  
         0          0  
         0          0  
         0          0  
         0          0  
         0          0  
         0          0  
         0          0  
         0          0  
         0          0  
         0          0  
         0          0  
         0          0  
         0          0  
         0          0  
         0          0  
         0          0  
         0          0  
         0          0  
         0          0  
         0          0  
         0          0  
         0          0  
         0          0  
         0          0  
         0          0  
         0          0  
         0          0  
         0          0  
         0          0  
         0          0  
         0          0  
         0          0  
         0          0  
         0          0  
         0          0  
         0          0  
         0          0  
         0          0  
         0          0  
         0          0  
         0          0  
         0          0  
         0          0  
         0          0  
         0          0  
         0          0  
         0          0  
         0          0  
         0          0  
         0          0  
         0          0  
         0          0  
         0          0  
         0          0  
         0          0  
         0          0  
         0          0  
         0          0  
         0          0  
         0          0  
         0          0  
         0          0  
         0          0  
         0          0  
         0          0  
         0          0  
         0          0  
         0          0  
         0          0  
         0          0  
         0          0  
         0          0  
         0          0  
         0          0  
         0          0  
         0          0  
         0          0  
         0          0  
         0          0  
         0          0  
         0          0  
         0          0  
         0          0  
         0          0  
         0          0  
         0          0  
         0          0  
         0          0  
         0          0  
         0          0  
         0          0  
         0          0  
         0          0  
         0          0  
         0          0  
         0          0  
         0          0  
         0          0  
         0          0  
         0          0  
         0          0  
         0          0  
         0          0  
         0          0  
         0          0  
         0          0  
         0          0  
         0          0  
         0          0  
         0          0  
         0          0  
         0          0  
         0          0  
         0          0  
         0          0  
         0          0  
         0          0  
         0          0  
         0          0  
         0          0  
         0          0  
         0          0  
         0          0  
         0          0  
         0          0  
         0          0  
         0          0  
         0          0  
         0          0  
         0          0  
         0          0  
         0          0  
         0          0  
         0          0  
         0          0  
         0          0  
         0          0  
         0          0  
         0          0  
         0          0  
         0          0  
         0          0  
         0          0  
         0          0  
         0          0  
         0          0  
         0          0  
         0          0  
         0          0  
         0          0  
         0          0  
         0          0  
         0          0  
         0          0  
         0          0  
         0          0  
         0          0  
         0          0  
         0          0  
         0          0  
         0          0  
         0          0  
         0          0  
         0          0  
         0          0  
         0          0  
         0          0  
         0          0  
         0          0  
         0          0  
         0          0  
         0          0  
         0          0  
         0          0  
         0          0  
         0          0  
         0          0  
         0          0  
         0          0  
         0          0  
         0          0  
         0          0  
         0          0  
         0          0  
         0          0  
         0          0  
         0          0  
         0          0  
         0          0  
         0          0  
         0          0  
         0          0  
         0          0  
         0          0  
         0          0  
         0          0  
         0          0  
         0          0  
         0          0  
         0          0  
         0          0  
         0          0  
         0          0  
         0          0  
         0          0  
         0          0  
         0          0  
         0          0  
         0          0  
         0          0  
         0          0  
         0          0  
         0          0  
         0          0  
         0          0  
         0          0  
         0          0  
         0          0  
         0          0  
         0          0  
         0          0  
         0          0  
         0          0  
         0          0  
         0          0  
         0          0  
         0          0  
         0          0  
         0          0  
         0          0  
         0          0  
         0          0  
         0          0  
         0          0  
         0          0  
         0          0  
         0          0  
         0          0  
         0          0  
         0          0  
         0          0  
         0          0  
         0          0  
         0          0  
         0          0  
         0          0  
         0          0  
         0          0  
         0          0  
         0          0  
         0          0  
         0          0  
         0          0  
         0          0  
         0          0  
         0          0  
         0          0  
         0          0  
         0          0  
         0          0  
         0          0  
         0          0  
         0          0  
         0          0  
         0          0  
         0          0  
         0          0  
         0          0  
         0          0  
         0          0  
         0          0  
         0          0  
         0          0  
         0          0  
         0          0  
         0          0  
         0          0  
         0          0  
         0          0  
         0          0  
         0          0  
         0          0  
         0          0  
         0          0  
         0          0  
         0          0  
         0          0  
         0          0  
         0          0  
         0          0  
         0          0  
         0          0  
         0          0  
         0          0  
         0          0  
         0          0  
         0          0  
         0          0  
         0          0  
         0          0  
         0          0  
         0          0  
         0          0  
         0          0  
         0          0  
         0          0  
         0          0  
         0          0  
         0          0  
         0          0  
         0          0  
         0          0  
         0          0  
         0          0  
         0          0  
         0          0  
         0          0  
         0          0  
         0          0  
         0          0  
         0          0  
         0          0  
         0          0  
         0          0  
         0          0  
         0          0  
         0          0  
         0          0  
         0          0  
         0          0  
         0          0  
         0          0  
         0          0  
         0          0  
         0          0  
         0          0  
         0          0  
         0          0  
         0          0  
         0          0  
         0          0  
         0          0  
         0          0  
         0          0  
         0          0  
         0          0  
         0          0  
         0          0  
         0          0  
         0          0  
         0          0  
         0          0  
         0          0  
         0          0  
         0          0  
         0          0  
         0          0  
         0          0  
         0          0  
         0          0  
         0          0  
         0          0  
         0          0  
         0          0  
         0          0  
         0          0  
         0          0  
         0          0  
         0          0  
         0          0  
         0          0  
         0          0  
         0          0  
         0          0  
         0          0  
         0          0  
         0          0  
         0          0  
         0          0  
         0          0  
         0          0  
         0          0  
         0          0  
         0          0  
         0          0  
         0          0  
         0          0  
         0          0  
         0          0  
         0          0  
         0          0  
         0          0  
         0          0  
         0          0  
         0          0  
         0          0  
         0          0  
         0          0  
         0          0  
         0          0  
         0          0  
         0          0  
         0          0  
         0          0  
         0          0  
         0          0  
         0          0  
         0          0  
         0          0  
         0          0  
         0          0  
         0          0  
         0          0  
         0          0  
         0          0  
         0          0  
         0          0  
         0          0  
         0          0  
         0          0  
         0          0  
         0          0  
         0          0  
         0          0  
         0          0  
         0          0  
         0          0  
         0          0  
         0          0  
         0          0  
         0          0  
         0          0  
         0          0  
         0          0  
         0          0  
         0          0  
         0          0  
         0          0  
         0          0  
         0          0  
         0          0  
         0          0  
         0          0  
         0          0  
         0          0  
         0          0  
         0          0  
         0          0  
         0          0  
         0          0  
         0          0  
         0          0  
         0          0  
         0          0  
         0          0  
         0          0  
         0          0  
         0          0  
         0          0  
         0          0  
         0          0  
         0          0  
         0          0  
         0          0  
         0          0  
         0          0  
         0          0  
         0          0  
         0          0  
         0          0  
         0          0  
         0          0  
         0          0  
         0          0  
         0          0  
         0          0  
         0          0  
         0          0  
         0          0  
         0          0  
         0          0  
         0          0  
         0          0  
         0          0  
         0          0  
         0          0  
         0          0  
         0          0  
         0          0  
         0          0  
         0          0  
         0          0  
         0          0  
         0          0  
         0          0  
         0          0  
         0          0  
         0          0  
         0          0  
         0          0  
         0          0  
         0          0  
         0          0  
         0          0  
         0          0  
         0          0  
         0          0  
         0          0  
         0          0  
         0          0  
         0          0  
         0          0  
         0          0  
         0          0  
         0          0  
         0          0  
         0          0  
         0          0  
         0          0  
         0          0  
         0          0  
         0          0  
         0          0  
         0          0  
         0          0  
         0          0  
         0          0  
         0          0  
         0          0  
         0          0  
         0          0  
         0          0  
         0          0  
         0          0  
         0          0  
         0          0  
         0          0  
         0          0  
         0          0  
         0          0  
         0          0  
         0          0  
         0          0  
         0          0  
         0          0  
         0          0  
         0          0  
         0          0  
         0          0  
         0          0  
         0          0  
         0          0  
         0          0  
         0          0  
         0          0  
         0          0  
         0          0  
         0          0  
         0          0  
         0          0  
         0          0  
         0          0  
         0          0  
         0          0  
         0          0  
         0          0  
         0          0  
         0          0  
         0          0  
         0          0  
         0          0  
         0          0  
         0          0  
         0          0  
         0          0  
         0          0  
         0          0  
         0          0  
         0          0  
         0          0  
         0          0  
         0          0  
         0          0  
         0          0  
         0          0  
         0          0  
         0          0  
         0          0  
         0          0  
         0          0  
         0          0  
         0          0  
         0          0  
         0          0  
         0          0  
         0          0  
         0          0  
         0          0  
         0          0  
         0          0  
         0          0  
         0          0  
         0          0  
         0          0  
         0          0  
         0          0  
         0          0  
         0          0  
         0          0  
         0          0  
         0          0  
         0          0  
         0          0  
         0          0  
         0          0  
         0          0  
         0          0  
         0          0  
         0          0  
         0          0  
         0          0  
         0          0  
         0          0  
         0          0  
         0          0  
         0          0  
         0          0  
         0          0  
         0          0  
         0          0  
         0          0  
         0          0  
         0          0  
         0          0  
         0          0  
         0          0  
         0          0  
         0          0  
         0          0  
         0          0  
         0          0  
         0          0  
         0          0  
         0          0  
         0          0  
         0          0  
         0          0  
         0          0  
         0          0  
         0          0  
         0          0  
         0          0  
         0          0  
         0          0  
         0          0  
         0          0  
         0          0  
         0          0  
         0          0  
         0          0  
         0          0  
         0          0  
         0          0  
         0          0  
         0          0  
         0          0  
         0          0  
         0          0  
         0          0  
         0          0  
         0          0  
         0          0  
         0          0  
         0          0  
         0          0  
         0          0  
         0          0  
         0          0  
         0          0  
         0          0  
         0          0  
         0          0  
         0          0  
         0          0  
         0          0  
         0          0  
         0          0  
         0          0  
         0          0  
         0          0  
         0          0  
         0          0  
         0          0  
         0          0  
         0          0  
         0          0  
         0          0  
         0          0  
         0          0  
         0          0  
         0          0  
         0          0  
         0          0  
         0          0  
         0          0  
         0          0  
         0          0  
         0          0  
         0          0  
         0          0  
         0          0  
         0          0  
         0          0  
         0          0  
         0          0  
         0          0  
         0          0  
         0          0  
         0          0  
         0          0  
         0          0  
         0          0  
         0          0  
         0          0  
         0          0  
         0          0  
         0          0  
         0          0  
         0          0  
         0          0  
         0          0  
         0          0  
         0          0  
         0          0  
         0          0  
         0          0  
         0          0  
         0          0  
         0          0  
         0          0  
         0          0  
         0          0  
         0          0  
         0          0  
         0          0  
         0          0  
         0          0  
         0          0  
         0          0  
         0          0  
         0          0  
         0          0  
         0          0  
         0          0  
         0          0  
         0          0  
         0          0  
         0          0  
         0          0  
         0          0  
         0          0  
         0          0  
         0          0  
         0          0  
         0          0  
         0          0  
         0          0  
         0          0  
         0          0  
         0          0  
         0          0  
         0          0  
         0          0  
         0          0  
         0          0  
         0          0  
         0          0  
         0          0  
         0          0  
         0          0  
         0          0  
         0          0  
         0          0  
         0          0  
         0          0  
         0          0  
         0          0  
         0          0  
         0          0  
         0          0  
         0          0  
         0          0  
         0          0  
         0          0  
         0          0  
         0          0  
         0          0  
         0          0  
         0          0  
         0          0  
         0          0  
         0          0  
         0          0  
         0          0  
         0          0  
         0          0  
         0          0  
         0          0  
         0          0  
         0          0  
         0          0  
         0          0  
         0          0  
         0          0  
         0          0  
         0          0  
         0          0  
         0          0  
         0          0  
         0          0  
         0          0  
         0          0  
         0          0  
         0          0  
         0          0  
         0          0  
         0          0  
         0          0  
         0          0  
         0          0  
         0          0  
         0          0  
         0          0  
         0          0  
         0          0  
         0          0  
         0          0  
         0          0  
         0          0  
         0          0  
         0          0  
         0          0  
         0          0  
         0          0  
         0          0  
         0          0  
         0          0  
         0          0  
         0          0  
         0          0  
         0          0  
         0          0  
         0          0  
         0          0  
         0          0  
         0          0  
         0          0  
         0          0  
         0          0  
         0          0  
         0          0  
         0          0  
         0          0  
         0          0  
         0          0  
         0          0  
         0          0  
         0          0  
         0          0  
         0          0  
         0          0  
         0          0  
         0          0  
         0          0  
         0          0  
         0          0  
         0          0  
         0          0  
         0          0  
         0          0  
         0          0  
         0          0  
         0          0  
         0          0  
         0          0  
         0          0  
         0          0  
         0          0  
         0          0  
         0          0  
         0          0  
         0          0  
         0          0  
         0          0  
         0          0  
         0          0  
         0          0  
         0          0  
         0          0  
         0          0  
         0          0  
         0          0  
         0          0  
         0          0  
         0          0  
         0          0  
         0          0  
         0          0  
         0          0  
         0          0  
         0          0  
         0          0  
         0          0  
         0          0  
         0          0  
         0          0  
         0          0  
         0          0  
         0          0  
         0          0  
         0          0  
         0          0  
         0          0  
         0          0  
         0          0  
         0          0  
         0          0  
         0          0  
         0          0  
         0          0  
         0          0  
         0          0  
         0          0  
         0          0  
         0          0  
         0          0  
         0          0  
         0          0  
         0          0  
         0          0  
         0          0  
         0          0  
         0          0  
         0          0  
         0          0  
         0          0  
         0          0  
         0          0  
         0          0  
         0          0  
         0          0  
         0          0  
         0          0  
         0          0  
         0          0  
         0          0  
         0          0  
         0          0  
         0          0  
         0          0  
         0          0  
         0          0  
         0          0  
         0          0  
         0          0  
         0          0  
         0          0  
         0          0  
         0          0  
         0          0  
         0          0  
         0          0  
         0          0  
         0          0  
         0          0  
         0          0  
         0          0  
         0          0  
         0          0  
         0          0  
         0          0  
         0          0  
         0          0  
         0          0  
         0          0  
         0          0  
         0          0  
         0          0  
         0          0  
         0          0  
         0          0  
         0          0  
         0          0  
         0          0  
         0          0  
         0          0  
         0          0  
         0          0  
         0          0  
         0          0  
         0          0  
         0          0  
         0          0  
         0          0  
         0          0  
         0          0  
         0          0  
         0          0  
         0          0  
         0          0  
         0          0  
         0          0  
         0          0  
         0          0  
         0          0  
         0          0  
         0          0  
         0          0  
         0          0  
         0          0  
         0          0  
         0          0  
         0          0  
         0          0  
         0          0  
         0          0  
         0          0  
         0          0  
         0          0  
         0          0  
         0          0  
         0          0  
         0          0  
         0          0  
         0          0  
         0          0  
         0          0  
         0          0  
         0          0  
         0          0  
         0          0  
         0          0  
         0          0  
         0          0  
         0          0  
         0          0  
         0          0  
         0          0  
         0          0  
         0          0  
         0          0  
         0          0  
         0          0  
         0          0  
         0          0  
         0          0  
         0          0  
         0          0  
         0          0  
         0          0  
         0          0  
         0          0  
         0          0  
         0          0  
         0          0  
         0          0  
         0          0  
         0          0  
         0          0  
         0          0  
         0          0  
         0          0  
         0          0  
         0          0  
         0          0  
         0          0  
         0          0  
         0          0  
         0          0  
         0          0  
         0          0  
         0          0  
         0          0  
         0          0  
         0          0  
         0          0  
         0          0  
         0          0  
         0          0  
         0          0  
         0          0  
         0          0  
         0          0  
         0          0  
         0          0  
         0          0  
         0          0  
         0          0  
         0          0  
         0          0  
         0          0  
         0          0  
         0          0  
         0          0  
         0          0  
         0          0  
         0          0  
         0          0  
         0          0  
         0          0  
         0          0  
         0          0  
         0          0  
         0          0  
         0          0  
         0          0  
         0          0  
         0          0  
         0          0  
         0          0  
         0          0  
         0          0  
         0          0  
         0          0  
         0          0  
         0          0  
         0          0  
         0          0  
         0          0  
         0          0  
         0          0  
         0          0  
         0          0  
         0          0  
         0          0  
         0          0  
         0          0  
         0          0  
         0          0  
         0          0  
         0          0  
         0          0  
         0          0  
         0          0  
         0          0  
         0          0  
         0          0  
         0          0  
         0          0  
         0          0  
         0          0  
         0          0  
         0          0  
         0          0  
         0          0  
         0          0  
         0          0  
         0          0  
         0          0  
         0          0  
         0          0  
         0          0  
         0          0  
         0          0  
         0          0  
         0          0  
         0          0  
         0          0  
         0          0  
         0          0  
         0          0  
         0          0  
         0          0  
         0          0  
         0          0  
         0          0  
         0          0  
         0          0  
         0          0  
         0          0  
         0          0  
         0          0  
         0          0  
         0          0  
         0          0  
         0          0  
         0          0  
         0          0  
         0          0  
         0          0  
         0          0  
         0          0  
         0          0  
         0          0  
         0          0  
         0          0  
         0          0  
         0          0  
         0          0  
         0          0  
         0          0  
         0          0  
         0          0  
         0          0  
         0          0  
         0          0  
         0          0  
         0          0  
         0          0  
         0          0  
         0          0  
         0          0  
         0          0  
         0          0  
         0          0  
         0          0  
         0          0  
         0          0  
         0          0  
         0          0  
         0          0  
         0          0  
         0          0  
         0          0  
         0          0  
         0          0  
         0          0  
         0          0  
         0          0  
         0          0  
         0          0  
         0          0  
         0          0  
         0          0  
         0          0  
         0          0  
         0          0  
         0          0  
         0          0  
         0          0  
         0          0  
         0          0  
         0          0  
         0          0  
         0          0  
         0          0  
         0          0  
         0          0  
         0          0  
         0          0  
         0          0  
         0          0  
         0          0  
         0          0  
         0          0  
         0          0  
         0          0  
         0          0  
         0          0  
         0          0  
         0          0  
         0          0  
         0          0  
         0          0  
         0          0  
         0          0  
         0          0  
         0          0  
         0          0  
         0          0  
         0          0  
         0          0  
         0          0  
         0          0  
         0          0  
         0          0  
         0          0  
         0          0  
         0          0  
         0          0  
         0          0  
         0          0  
         0          0  
         0          0  
         0          0  
         0          0  
         0          0  
         0          0  
         0          0  
         0          0  
         0          0  
         0          0  
         0          0  
         0          0  
         0          0  
         0          0  
         0          0  
         0          0  
         0          0  
         0          0  
         0          0  
         0          0  
         0          0  
         0          0  
         0          0  
         0          0  
         0          0  
         0          0  
         0          0  
         0          0  
         0          0  
         0          0  
         0          0  
         0          0  
         0          0  
         0          0  
         0          0  
         0          0  
         0          0  
         0          0  
         0          0  
         0          0  
         0          0  
         0          0  
         0          0  
         0          0  
         0          0  
         0          0  
         0          0  
         0          0  
         0          0  
         0          0  
         0          0  
         0          0  
         0          0  
         0          0  
         0          0  
         0          0  
         0          0  
         0          0  
         0          0  
         0          0  
         0          0  
         0          0  
         0          0  
         0          0  
         0          0  
         0          0  
         0          0  
         0          0  
         0          0  
         0          0  
         0          0  
         0          0  
         0          0  
         0          0  
         0          0  
         0          0  
         0          0  
         0          0  
         0          0  
         0          0  
         0          0  
         0          0  
         0          0  
         0          0  
         0          0  
         0          0  
         0          0  
         0          0  
         0          0  
         0          0  
         0          0  
         0          0  
         0          0  
         0          0  
         0          0  
         0          0  
         0          0  
         0          0  
         0          0  
         0          0  
         0          0  
         0          0  
         0          0  
         0          0  
         0          0  
         0          0  
         0          0  
         0          0  
         0          0  
         0          0  
         0          0  
         0          0  
         0          0  
         0          0  
         0          0  
         0          0  
         0          0  
         0          0  
         0          0  
         0          0  
         0          0  
         0          0  
         0          0  
         0          0  
         0          0  
         0          0  
         0          0  
         0          0  
         0          0  
         0          0  
         0          0  
         0          0  
         0          0  
         0          0  
         0          0  
         0          0  
         0          0  
         0          0  
         0          0  
         0          0  
         0          0  
         0          0  
         0          0  
         0          0  
         0          0  
         0          0  
         0          0  
         0          0  
         0          0  
         0          0  
         0          0  
         0          0  
         0          0  
         0          0  
         0          0  
         0          0  
         0          0  
         0          0  
         0          0  
         0          0  
         0          0  
         0          0  
         0          0  
         0          0  
         0          0  
         0          0  
         0          0  
         0          0  
         0          0  
         0          0  
         0          0  
         0          0  
         0          0  
         0          0  
         0          0  
         0          0  
         0          0  
         0          0  
         0          0  
         0          0  
         0          0  
         0          0  
         0          0  
         0          0  
         0          0  
         0          0  
         0          0  
         0          0  
         0          0  
         0          0  
         0          0  
         0          0  
         0          0  
         0          0  
         0          0  
         0          0  
         0          0  
         0          0  
         0          0  
         0          0  
         0          0  
         0          0  
         0          0  
         0          0  
         0          0  
         0          0  
         0          0  
         0          0  
         0          0  
         0          0  
         0          0  
         0          0  
         0          0  
         0          0  
         0          0  
         0          0  
         0          0  
         0          0  
         0          0  
         0          0  
         0          0  
         0          0  
         0          0  
         0          0  
         0          0  
         0          0  
         0          0  
         0          0  
         0          0  
         0          0  
         0          0  
         0          0  
         0          0  
         0          0  
         0          0  
         0          0  
         0          0  
         0          0  
         0          0  
         0          0  
         0          0  
         0          0  
         0          0  
         0          0  
         0          0  
         0          0  
         0          0  
         0          0  
         0          0  
         0          0  
         0          0  
         0          0  
         0          0  
         0          0  
         0          0  
         0          0  
         0          0  
         0          0  
         0          0  
         0          0  
         0          0  
         0          0  
         0          0  
         0          0  
         0          0  
         0          0  
         0          0  
         0          0  
         0          0  
         0          0  
         0          0  
         0          0  
         0          0  
         0          0  
         0          0  
         0          0  
         0          0  
         0          0  
         0          0  
         0          0  
         0          0  
         0          0  
         0          0  
         0          0  
         0          0  
         0          0  
         0          0  
         0          0  
         0          0  
         0          0  
         0          0  
         0          0  
         0          0  
         0          0  
         0          0  
         0          0  
         0          0  
         0          0  
         0          0  
         0          0  
         0          0  
         0          0  
         0          0  
         0          0  
         0          0  
         0          0  
         0          0  
         0          0  
         0          0  
         0          0  
         0          0  
         0          0  
         0          0  
         0          0  
         0          0  
         0          0  
         0          0  
         0          0  
         0          0  
         0          0  
         0          0  
         0          0  
         0          0  
         0          0  
         0          0  
         0          0  
         0          0  
         0          0  
         0          0  
         0          0  
         0          0  
         0          0  
         0          0  
         0          0  
         0          0  
         0          0  
         0          0  
         0          0  
         0          0  
         0          0  
         0          0  
         0          0  
         0          0  
         0          0  
         0          0  
         0          0  
         0          0  
         0          0  
         0          0  
         0          0  
         0          0  
         0          0  
         0          0  
         0          0  
         0          0  
         0          0  
         0          0  
         0          0  
         0          0  
         0          0  
         0          0  
         0          0  
         0          0  
         0          0  
         0          0  
         0          0  
         0          0  
         0          0  
         0          0  
         0          0  
         0          0  
         0          0  
         0          0  
         0          0  
         0          0  
         0          0  
         0          0  
         0          0  
         0          0  
         0          0  
         0          0  
         0          0  
         0          0  
         0          0  
         0          0  
         0          0  
         0          0  
         0          0  
         0          0  
         0          0  
         0          0  
         0          0  
         0          0  
         0          0  
         0          0  
         0          0  
         0          0  
         0          0  
         0          0  
         0          0  
         0          0  
         0          0  
         0          0  
         0          0  
         0          0  
         0          0  
         0          0  
         0          0  
         0          0  
         0          0  
         0          0  
         0          0  
         0          0  
         0          0  
         0          0  
         0          0  
         0          0  
         0          0  
         0          0  
         0          0  
         0          0  
         0          0  
         0          0  
         0          0  
         0          0  
         0          0  
         0          0  
         0          0  
         0          0  
         0          0  
         0          0  
         0          0  
         0          0  
         0          0  
         0          0  
         0          0  
         0          0  
         0          0  
         0          0  
         0          0  
         0          0  
         0          0  
         0          0  
         0          0  
         0          0  
         0          0  
         0          0  
         0          0  
         0          0  
         0          0  
         0          0  
         0          0  
         0          0  
         0          0  
         0          0  
         0          0  
         0          0  
         0          0  
         0          0  
         0          0  
         0          0  
         0          0  
         0          0  
         0          0  
         0          0  
         0          0  
         0          0  
         0          0  
         0          0  
         0          0  
         0          0  
         0          0  
         0          0  
         0          0  
         0          0  
         0          0  
         0          0  
         0          0  
         0          0  
         0          0  
         0          0  
         0          0  
         0          0  
         0          0  
         0          0  
         0          0  
         0          0  
         0          0  
         0          0  
         0          0  
         0          0  
         0          0  
         0          0  
         0          0  
         0          0  
         0          0  
         0          0  
         0          0  
         0          0  
         0          0  
         0          0  
         0          0  
         0          0  
         0          0  
         0          0  
         0          0  
         0          0  
         0          0  
         0          0  
         0          0  
         0          0  
         0          0  
         0          0  
         0          0  
         0          0  
         0          0  
         0          0  
         0          0  
         0          0  
         0          0  
         0          0  
         0          0  
         0          0  
         0          0  
         0          0  
         0          0  
         0          0  
         0          0  
         0          0  
         0          0  
         0          0  
         0          0  
         0          0  
         0          0  
         0          0  
         0          0  
         0          0  
         0          0  
         0          0  
         0          0  
         0          0  
         0          0  
         0          0  
         0          0  
         0          0  
         0          0  
         0          0  
         0          0  
         0          0  
         0          0  
         0          0  
         0          0  
         0          0  
         0          0  
         0          0  
         0          0  
         0          0  
         0          0  
         0          0  
         0          0  
         0          0  
         0          0  
         0          0  
         0          0  
         0          0  
         0          0  
         0          0  
         0          0  
         0          0  
         0          0  
         0          0  
         0          0  
         0          0  
         0          0  
         0          0  
         0          0  
         0          0  
         0          0  
         0          0  
         0          0  
         0          0  
         0          0  
         0          0  
         0          0  
         0          0  
         0          0  
         0          0  
         0          0  
         0          0  
         0          0  
         0          0  
         0          0  
         0          0  
         0          0  
         0          0  
         0          0  
         0          0  
         0          0  
         0          0  
         0          0  
         0          0  
         0          0  
         0          0  
         0          0  
         0          0  
         0          0  
         0          0  
         0          0  
         0          0  
         0          0  
         0          0  
         0          0  
         0          0  
         0          0  
         0          0  
         0          0  
         0          0  
         0          0  
         0          0  
         0          0  
         0          0  
         0          0  
         0          0  
         0          0  
         0          0  
         0          0  
         0          0  
         0          0  
         0          0  
         0          0  
         0          0  
         0          0  
         0          0  
         0          0  
         0          0  
         0          0  
         0          0  
         0          0  
         0          0  
         0          0  
         0          0  
         0          0  
         0          0  
         0          0  
         0          0  
         0          0  
         0          0  
         0          0  
         0          0  
         0          0  
         0          0  
         0          0  
         0          0  
         0          0  
         0          0  
         0          0  
         0          0  
         0          0  
         0          0  
         0          0  
         0          0  
         0          0  
         0          0  
         0          0  
         0          0  
         0          0  
         0          0  
         0          0  
         0          0  
         0          0  
         0          0  
         0          0  
         0          0  
         0          0  
         0          0  
         0          0  
         0          0  
         0          0  
         0          0  
         0          0  
         0          0  
         0          0  
         0          0  
         0          0  
         0          0  
         0          0  
         0          0  
         0          0  
         0          0  
         0          0  
         0          0  
         0          0  
         0          0  
         0          0  
         0          0  
         0          0  
         0          0  
         0          0  
         0          0  
         0          0  
         0          0  
         0          0  
         0          0  
         0          0  
         0          0  
         0          0  
         0          0  
         0          0  
         0          0  
         0          0  
         0          0  
         0          0  
         0          0  
         0          0  
         0          0  
         0          0  
         0          0  
         0          0  
         0          0  
         0          0  
         0          0  
         0          0  
         0          0  
         0          0  
         0          0  
         0          0  
         0          0  
         0          0  
         0          0  
         0          0  
         0          0  
         0          0  
         0          0  
         0          0  
         0          0  
         0          0  
         0          0  
         0          0  
         0          0  
         0          0  
         0          0  
         0          0  
         0          0  
         0          0  
         0          0  
         0          0  
         0          0  
         0          0  
         0          0  
         0          0  
         0          0  
         0          0  
         0          0  
         0          0  
         0          0  
         0          0  
         0          0  
         0          0  
         0          0  
         0          0  
         0          0  
         0          0  
         0          0  
         0          0  
         0          0  
         0          0  
         0          0  
         0          0  
         0          0  
         0          0  
         0          0  
         0          0  
         0          0  
         0          0  
         0          0  
         0          0  
         0          0  
         0          0  
         0          0  
         0          0  
         0          0  
         0          0  
         0          0  
         0          0  
         0          0  
         0          0  
         0          0  
         0          0  
         0          0  
         0          0  
         0          0  
         0          0  
         0          0  
         0          0  
         0          0  
         0          0  
         0          0  
         0          0  
         0          0  
         0          0  
         0          0  
         0          0  
         0          0  
         0          0  
         0          0  
         0          0  
         0          0  
         0          0  
         0          0  
         0          0  
         0          0  
         0          0  
         0          0  
         0          0  
         0          0  
         0          0  
         0          0  
         0          0  
         0          0  
         0          0  
         0          0  
         0          0  
         0          0  
         0          0  
         0          0  
         0          0  
         0          0  
         0          0  
         0          0  
         0          0  
         0          0  
         0          0  
         0          0  
         0          0  
         0          0  
         0          0  
         0          0  
         0          0  
         0          0  
         0          0  
         0          0  
         0          0  
         0          0  
         0          0  
         0          0  
         0          0  
         0          0  
         0          0  
         0          0  
         0          0  
         0          0  
         0          0  
         0          0  
         0          0  
         0          0  
         0          0  
         0          0  
         0          0  
         0          0  
         0          0  
         0          0  
         0          0  
         0          0  
         0          0  
         0          0  
         0          0  
         0          0  
         0          0  
         0          0  
         0          0  
         0          0  
         0          0  
         0          0  
         0          0  
         0          0  
         0          0  
         0          0  
         0          0  
         0          0  
         0          0  
         0          0  
         0          0  
         0          0  
         0          0  
         0          0  
         0          0  
         0          0  
         0          0  
         0          0  
         0          0  
         0          0  
         0          0  
         0          0  
         0          0  
         0          0  
         0          0  
         0          0  
         0          0  
         0          0  
         0          0  
         0          0  
         0          0  
         0          0  
         0          0  
         0          0  
         0          0  
         0          0  
         0          0  
         0          0  
         0          0  
         0          0  
         0          0  
         0          0  
         0          0  
         0          0  
         0          0  
         0          0  
         0          0  
         0          0  
         0          0  
         0          0  
         0          0  
         0          0  
         0          0  
         0          0  
         0          0  
         0          0  
         0          0  
         0          0  
         0          0  
         0          0  
         0          0  
         0          0  
         0          0  
         0          0  
         0          0  
         0          0  
         0          0  
         0          0  
         0          0  
         0          0  
         0          0  
         0          0  
         0          0  
         0          0  
         0          0  
         0          0  
         0          0  
         0          0  
         0          0  
         0          0  
         0          0  
         0          0  
         0          0  
         0          0  
         0          0  
         0          0  
         0          0  
         0          0  
         0          0  
         0          0  
         0          0  
         0          0  
         0          0  
         0          0  
         0          0  
         0          0  
         0          0  
         0          0  
         0          0  
         0          0  
         0          0  
         0          0  
         0          0  
         0          0  
         0          0  
         0          0  
         0          0  
         0          0  
         0          0  
         0          0  
         0          0  
         0          0  
         0          0  
         0          0  
         0          0  
         0          0  
         0          0  
         0          0  
         0          0  
         0          0  
         0          0  
         0          0  
         0          0  
         0          0  
         0          0  
         0          0  
         0          0  
         0          0  
         0          0  
         0          0  
         0          0  
         0          0  
         0          0  
         0          0  
         0          0  
         0          0  
         0          0  
         0          0  
         0          0  
         0          0  
         0          0  
         0          0  
         0          0  
         0          0  
         0          0  
         0          0  
         0          0  
         0          0  
         0          0  
         0          0  
         0          0  
         0          0  
         0          0  
         0          0  
         0          0  
         0          0  
         0          0  
         0          0  
         0          0  
         0          0  
         0          0  
         0          0  
         0          0  
         0          0  
         0          0  
         0          0  
         0          0  
         0          0  
         0          0  
         0          0  
         0          0  
         0          0  
         0          0  
         0          0  
         0          0  
         0          0  
         0          0  
         0          0  
         0          0  
         0          0  
         0          0  
         0          0  
         0          0  
         0          0  
         0          0  
         0          0  
         0          0  
         0          0  
         0          0  
         0          0  
         0          0  
         0          0  
         0          0  
         0          0  
         0          0  
         0          0  
         0          0  
         0          0  
         0          0  
         0          0  
         0          0  
         0          0  
         0          0  
         0          0  
         0          0  
         0          0  
         0          0  
         0          0  
         0          0  
         0          0  
         0          0  
         0          0  
         0          0  
         0          0  
         0          0  
         0          0  
         0          0  
         0          0  
         0          0  
         0          0  
         0          0  
         0          0  
         0          0  
         0          0  
         0          0  
         0          0  
         0          0  
         0          0  
         0          0  
         0          0  
         0          0  
         0          0  
         0          0  
         0          0  
         0          0  
         0          0  
         0          0  
         0          0  
         0          0  
         0          0  
         0          0  
         0          0  
         0          0  
         0          0  
         0          0  
         0          0  
         0          0  
         0          0  
         0          0  
         0          0  
         0          0  
         0          0  
         0          0  
         0          0  
         0          0  
         0          0  
         0          0  
         0          0  
         0          0  
         0          0  
         0          0  
         0          0  
         0          0  
         0          0  
         0          0  
         0          0  
         0          0  
         0          0  
         0          0  
         0          0  
         0          0  
         0          0  
         0          0  
         0          0  
         0          0  
         0          0  
         0          0  
         0          0  
         0          0  
         0          0  
         0          0  
         0          0  
         0          0  
         0          0  
         0          0  
         0          0  
         0          0  
         0          0  
         0          0  
         0          0  
         0          0  
         0          0  
         0          0  
         0          0  
         0          0  
         0          0  
         0          0  
         0          0  
         0          0  
         0          0  
         0          0  
         0          0  
         0          0  
         0          0  
         0          0  
         0          0  
         0          0  
         0          0  
         0          0  
         0          0  
         0          0  
         0          0  
         0          0  
         0          0  
         0          0  
         0          0  
         0          0  
         0          0  
         0          0  
         0          0  
         0          0  
         0          0  
         0          0  
         0          0  
         0          0  
         0          0  
         0          0  
         0          0  
         0          0  
         0          0  
         0          0  
         0          0  
         0          0  
         0          0  
         0          0  
         0          0  
         0          0  
         0          0  
         0          0  
         0          0  
         0          0  
         0          0  
         0          0  
         0          0  
         0          0  
         0          0  
         0          0  
         0          0  
         0          0  
         0          0  
         0          0  
         0          0  
         0          0  
         0          0  
         0          0  
         0          0  
         0          0  
         0          0  
         0          0  
         0          0  
         0          0  
         0          0  
         0          0  
         0          0  
         0          0  
         0          0  
         0          0  
         0          0  
         0          0  
         0          0  
         0          0  
         0          0  
         0          0  
         0          0  
         0          0  
         0          0  
         0          0  
         0          0  
         0          0  
         0          0  
         0          0  
         0          0  
         0          0  
         0          0  
         0          0  
         0          0  
         0          0  
         0          0  
         0          0  
         0          0  
         0          0  
         0          0  
         0          0  
         0          0  
         0          0  
         0          0  
         0          0  
         0          0  
         0          0  
         0          0  
         0          0  
         0          0  
         0          0  
         0          0  
         0          0  
         0          0  
         0          0  
         0          0  
         0          0  
         0          0  
         0          0  
         0          0  
         0          0  
         0          0  
         0          0  
         0          0  
         0          0  
         0          0  
         0          0  
         0          0  
         0          0  
         0          0  
         0          0  
         0          0  
         0          0  
         0          0  
         0          0  
         0          0  
         0          0  
         0          0  
         0          0  
         0          0  
         0          0  
         0          0  
         0          0  
         0          0  
         0          0  
         0          0  
         0          0  
         0          0  
         0          0  
         0          0  
         0          0  
         0          0  
         0          0  
         0          0  
         0          0  
         0          0  
         0          0  
         0          0  
         0          0  
         0          0  
         0          0  
         0          0  
         0          0  
         0          0  
         0          0  
         0          0  
         0          0  
         0          0  
         0          0  
         0          0  
         0          0  
         0          0  
         0          0  
         0          0  
         0          0  
         0          0  
         0          0  
         0          0  
         0          0  
         0          0  
         0          0  
         0          0  
         0          0  
         0          0  
         0          0  
         0          0  
         0          0  
         0          0  
         0          0  
         0          0  
         0          0  
         0          0  
         0          0  
         0          0  
         0          0  
         0          0  
         0          0  
         0          0  
         0          0  
         0          0  
         0          0  
         0          0  
         0          0  
         0          0  
         0          0  
         0          0  
         0          0  
         0          0  
         0          0  
         0          0  
         0          0  
         0          0  
         0          0  
         0          0  
         0          0  
         0          0  
         0          0  
         0          0  
         0          0  
         0          0  
         0          0  
         0          0  
         0          0  
         0          0  
         0          0  
         0          0  
         0          0  
         0          0  
         0          0  
         0          0  
         0          0  
         0          0  
         0          0  
         0          0  
         0          0  
         0          0  
         0          0  
         0          0  
         0          0  
         0          0  
         0          0  
         0          0  
         0          0  
         0          0  
         0          0  
         0          0  
         0          0  
         0          0  
         0          0  
         0          0  
         0          0  
         0          0  
         0          0  
         0          0  
         0          0  
         0          0  
         0          0  
         0          0  
         0          0  
         0          0  
         0          0  
         0          0  
         0          0  
         0          0  
         0          0  
         0          0  
         0          0  
         0          0  
         0          0  
         0          0  
         0          0  
         0          0  
         0          0  
         0          0  
         0          0  
         0          0  
         0          0  
         0          0  
         0          0  
         0          0  
         0          0  
         0          0  
         0          0  
         0          0  
         0          0  
         0          0  
         0          0  
         0          0  
         0          0  
         0          0  
         0          0  
         0          0  
         0          0  
         0          0  
         0          0  
         0          0  
         0          0  
         0          0  
         0          0  
         0          0  
         0          0  
         0          0  
         0          0  
         0          0  
         0          0  
         0          0  
         0          0  
         0          0  
         0          0  
         0          0  
         0          0  
         0          0  
         0          0  
         0          0  
         0          0  
         0          0  
         0          0  
         0          0  
         0          0  
         0          0  
         0          0  
         0          0  
         0          0  
         0          0  
         0          0  
         0          0  
         0          0  
         0          0  
         0          0  
         0          0  
         0          0  
         0          0  
         0          0  
         0          0  
         0          0  
         0          0  
         0          0  
         0          0  
         0          0  
         0          0  
         0          0  
         0          0  
         0          0  
         0          0  
         0          0  
         0          0  
         0          0  
         0          0  
         0          0  
         0          0  
         0          0  
         0          0  
         0          0  
         0          0  
         0          0  
         0          0  
         0          0  
         0          0  
         0          0  
         0          0  
         0          0  
         0          0  
         0          0  
         0          0  
         0          0  
         0          0  
         0          0  
         0          0  
         0          0  
         0          0  
         0          0  
         0          0  
         0          0  
         0          0  
         0          0  
         0          0  
         0          0  
         0          0  
         0          0  
         0          0  
         0          0  
         0          0  
         0          0  
         0          0  
         0          0  
         0          0  
         0          0  
         0          0  
         0          0  
         0          0  
         0          0  
         0          0  
         0          0  
         0          0  
         0          0  
         0          0  
         0          0  
         0          0  
         0          0  
         0          0  
         0          0  
         0          0  
         0          0  
         0          0  
         0          0  
         0          0  
         0          0  
         0          0  
         0          0  
         0          0  
         0          0  
         0          0  
         0          0  
         0          0  
         0          0  
         0          0  
         0          0  
         0          0  
         0          0  
         0          0  
         0          0  
         0          0  
         0          0  
         0          0  
         0          0  
         0          0  
         0          0  
         0          0  
         0          0  
         0          0  
         0          0  
         0          0  
         0          0  
         0          0  
         0          0  
         0          0  
         0          0  
         0          0  
         0          0  
         0          0  
         0          0  
         0          0  
         0          0  
         0          0  
         0          0  
         0          0  
         0          0  
         0          0  
         0          0  
         0          0  
         0          0  
         0          0  
         0          0  
         0          0  
         0          0  
         0          0  
         0          0  
         0          0  
         0          0  
         0          0  
         0          0  
         0          0  
         0          0  
         0          0  
         0          0  
         0          0  
         0          0  
         0          0  
         0          0  
         0          0  
         0          0  
         0          0  
         0          0  
         0          0  
         0          0  
         0          0  
         0          0  
         0          0  
         0          0  
         0          0  
         0          0  
         0          0  
         0          0  
         0          0  
         0          0  
         0          0  
         0          0  
         0          0  
         0          0  
         0          0  
         0          0  
         0          0  
         0          0  
         0          0  
         0          0  
         0          0  
         0          0  
         0          0  
         0          0  
         0          0  
         0          0  
         0          0  
         0          0  
         0          0  
         0          0  
         0          0  
         0          0  
         0          0  
         0          0  
         0          0  
         0          0  
         0          0  
         0          0  
         0          0  
         0          0  
         0          0  
         0          0  
         0          0  
         0          0  
         0          0  
         0          0  
         0          0  
         0          0  
         0          0  
         0          0  
         0          0  
         0          0  
         0          0  
         0          0  
         0          0  
         0          0  
         0          0  
         0          0  
         0          0  
         0          0  
         0          0  
         0          0  
         0          0  
         0          0  
         0          0  
         0          0  
         0          0  
         0          0  
         0          0  
         0          0  
         0          0  
         0          0  
         0          0  
         0          0  
         0          0  
         0          0  
         0          0  
         0          0  
         0          0  
         0          0  
         0          0  
         0          0  
         0          0  
         0          0  
         0          0  
         0          0  
         0          0  
         0          0  
         0          0  
         0          0  
         0          0  
         0          0  
         0          0  
         0          0  
         0          0  
         0          0  
         0          0  
         0          0  
         0          0  
         0          0  
         0          0  
         0          0  
         0          0  
         0          0  
         0          0  
         0          0  
         0          0  
         0          0  
         0          0  
         0          0  
         0          0  
         0          0  
         0          0  
         0          0  
         0          0  
         0          0  
         0          0  
         0          0  
         0          0  
         0          0  
         0          0  
         0          0  
         0          0  
         0          0  
         0          0  
         0          0  
         0          0  
         0          0  
         0          0  
         0          0  
         0          0  
         0          0  
         0          0  
         0          0  
         0          0  
         0          0  
         0          0  
         0          0  
         0          0  
         0          0  
         0          0  
         0          0  
         0          0  
         0          0  
         0          0  
         0          0  
         0          0  
         0          0  
         0          0  
         0          0  
         0          0  
         0          0  
         0          0  
         0          0  
         0          0  
         0          0  
         0          0  
         0          0  
         0          0  
         0          0  
         0          0  
         0          0  
         0          0  
         0          0  
         0          0  
         0          0  
         0          0  
         0          0  
         0          0  
         0          0  
         0          0  
         0          0  
         0          0  
         0          0  
         0          0  
         0          0  
         0          0  
         0          0  
         0          0  
         0          0  
         0          0  
         0          0  
         0          0  
         0          0  
         0          0  
         0          0  
         0          0  
         0          0  
         0          0  
         0          0  
         0          0  
         0          0  
         0          0  
         0          0  
         0          0  
         0          0  
         0          0  
         0          0  
         0          0  
         0          0  
         0          0  
         0          0  
         0          0  
         0          0  
         0          0  
         0          0  
         0          0  
         0          0  
         0          0  
         0          0  
         0          0  
         0          0  
         0          0  
         0          0  
         0          0  
         0          0  
         0          0  
         0          0  
         0          0  
         0          0  
         0          0  
         0          0  
         0          0  
         0          0  
         0          0  
         0          0  
         0          0  
         0          0  
         0          0  
         0          0  
         0          0  
         0          0  
         0          0  
         0          0  
         0          0  
         0          0  
         0          0  
         0          0  
         0          0  
         0          0  
         0          0  
         0          0  
         0          0  
         0          0  
         0          0  
         0          0  
         0          0  
         0          0  
         0          0  
         0          0  
         0          0  
         0          0  
         0          0  
         0          0  
         0          0  
         0          0  
         0          0  
         0          0  
         0          0  
         0          0  
         0          0  
         0          0  
         0          0  
         0          0  
         0          0  
         0          0  
         0          0  
         0          0  
         0          0  
         0          0  
         0          0  
         0          0  
         0          0  
         0          0  
         0          0  
         0          0  
         0          0  
         0          0  
         0          0  
         0          0  
         0          0  
         0          0  
         0          0  
         0          0  
         0          0  
         0          0  
         0          0  
         0          0  
         0          0  
         0          0  
         0          0  
         0          0  
         0          0  
         0          0  
         0          0  
         0          0  
         0          0  
         0          0  
         0          0  
         0          0  
         0          0  
         0          0  
         0          0  
         0          0  
         0          0  
         0          0  
         0          0  
         0          0  
         0          0  
         0          0  
         0          0  
         0          0  
         0          0  
         0          0  
         0          0  
         0          0  
         0          0  
         0          0  
         0          0  
         0          0  
         0          0  
         0          0  
         0          0  
         0          0  
         0          0  
         0          0  
         0          0  
         0          0  
         0          0  
         0          0  
         0          0  
         0          0  
         0          0  
         0          0  
         0          0  
         0          0  
         0          0  
         0          0  
         0          0  
         0          0  
         0          0  
         0          0  
         0          0  
         0          0  
         0          0  
         0          0  
         0          0  
         0          0  
         0          0  
         0          0  
         0          0  
         0          0  
         0          0  
         0          0  
         0          0  
         0          0  
         0          0  
         0          0  
         0          0  
         0          0  
         0          0  
         0          0  
         0          0  
         0          0  
         0          0  
         0          0  
         0          0  
         0          0  
         0          0  
         0          0  
         0          0  
         0          0  
         0          0  
         0          0  
         0          0  
         0          0  
         0          0  
         0          0  
         0          0  
         0          0  
         0          0  
         0          0  
         0          0  
         0          0  
         0          0  
         0          0  
         0          0  
         0          0  
         0          0  
         0          0  
         0          0  
         0          0  
         0          0  
         0          0  
         0          0  
         0          0  
         0          0  
         0          0  
         0          0  
         0          0  
         0          0  
         0          0  
         0          0  
         0          0  
         0          0  
         0          0  
         0          0  
         0          0  
         0          0  
         0          0  
         0          0  
         0          0  
         0          0  
         0          0  
         0          0  
         0          0  
         0          0  
         0          0  
         0          0  
         0          0  
         0          0  
         0          0  
         0          0  
         0          0  
         0          0  
         0          0  
         0          0  
         0          0  
         0          0  
         0          0  
         0          0  
         0          0  
         0          0  
         0          0  
         0          0  
         0          0  
         0          0  
         0          0  
         0          0  
         0          0  
         0          0  
         0          0  
         0          0  
         0          0  
         0          0  
         0          0  
         0          0  
         0          0  
         0          0  
         0          0  
         0          0  
         0          0  
         0          0  
         0          0  
         0          0  
         0          0  
         0          0  
         0          0  
         0          0  
         0          0  
         0          0  
         0          0  
         0          0  
         0          0  
         0          0  
         0          0  
         0          0  
         0          0  
         0          0  
         0          0  
         0          0  
         0          0  
         0          0  
         0          0  
         0          0  
         0          0  
         0          0  
         0          0  
         0          0  
         0          0  
         0          0  
         0          0  
         0          0  
         0          0  
         0          0  
         0          0  
         0          0  
         0          0  
         0          0  
         0          0  
         0          0  
         0          0  
         0          0  
         0          0  
         0          0  
         0          0  
         0          0  
         0          0  
         0          0  
         0          0  
         0          0  
         0          0  
         0          0  
         0          0  
         0          0  
         0          0  
         0          0  
         0          0  
         0          0  
         0          0  
         0          0  
         0          0  
         0          0  
         0          0  
         0          0  
         0          0  
         0          0  
         0          0  
         0          0  
         0          0  
         0          0  
         0          0  
         0          0  
         0          0  
         0          0  
         0          0  
         0          0  
         0          0  
         0          0  
         0          0  
         0          0  
         0          0  
         0          0  
         0          0  
         0          0  
         0          0  
         0          0  
         0          0  
         0          0  
         0          0  
         0          0  
         0          0  
         0          0  
         0          0  
         0          0  
         0          0  
         0          0  
         0          0  
         0          0  
         0          0  
         0          0  
         0          0  
         0          0  
         0          0  
         0          0  
         0          0  
         0          0  
         0          0  
         0          0  
         0          0  
         0          0  
         0          0  
         0          0  
         0          0  
         0          0  
         0          0  
         0          0  
         0          0  
         0          0  
         0          0  
         0          0  
         0          0  
         0          0  
         0          0  
         0          0  
         0          0  
         0          0  
         0          0  
         0          0  
         0          0  
         0          0  
         0          0  
         0          0  
         0          0  
         0          0  
         0          0  
         0          0  
         0          0  
         0          0  
         0          0  
         0          0  
         0          0  
         0          0  
         0          0  
         0          0  
         0          0  
         0          0  
         0          0  
         0          0  
         0          0  
         0          0  
         0          0  
         0          0  
         0          0  
         0          0  
         0          0  
         0          0  
         0          0  
         0          0  
         0          0  
         0          0  
         0          0  
         0          0  
         0          0  
         0          0  
         0          0  
         0          0  
         0          0  
         0          0  
         0          0  
         0          0  
         0          0  
         0          0  
         0          0  
         0          0  
         0          0  
         0          0  
         0          0  
         0          0  
         0          0  
         0          0  
         0          0  
         0          0  
         0          0  
         0          0  
         0          0  
         0          0  
         0          0  
         0          0  
         0          0  
         0          0  
         0          0  
         0          0  
         0          0  
         0          0  
         0          0  
         0          0  
         0          0  
         0          0  
         0          0  
         0          0  
         0          0  
         0          0  
         0          0  
         0          0  
         0          0  
         0          0  
         0          0  
         0          0  
         0          0  
         0          0  
         0          0  
         0          0  
         0          0  
         0          0  
         0          0  
         0          0  
         0          0  
         0          0  
         0          0  
         0          0  
         0          0  
         0          0  
         0          0  
         0          0  
         0          0  
         0          0  
         0          0  
         0          0  
         0          0  
         0          0  
         0          0  
         0          0  
         0          0  
         0          0  
         0          0  
         0          0  
         0          0  
         0          0  
         0          0  
         0          0  
         0          0  
         0          0  
         0          0  
         0          0  
         0          0  
         0          0  
         0          0  
         0          0  
         0          0  
         0          0  
         0          0  
         0          0  
         0          0  
         0          0  
         0          0  
         0          0  
         0          0  
         0          0  
         0          0  
         0          0  
         0          0  
         0          0  
         0          0  
         0          0  
         0          0  
         0          0  
         0          0  
         0          0  
         0          0  
         0          0  
         0          0  
         0          0  
         0          0  
         0          0  
         0          0  
         0          0  
         0          0  
         0          0  
         0          0  
         0          0  
         0          0  
         0          0  
         0          0  
         0          0  
         0          0  
         0          0  
         0          0  
         0          0  
         0          0  
         0          0  
         0          0  
         0          0  
         0          0  
         0          0  
         0          0  
         0          0  
         0          0  
         0          0  
         0          0  
         0          0  
         0          0  
         0          0  
         0          0  
         0          0  
         0          0  
         0          0  
         0          0  
         0          0  
         0          0  
         0          0  
         0          0  
         0          0  
         0          0  
         0          0  
         0          0  
         0          0  
         0          0  
         0          0  
         0          0  
         0          0  
         0          0  
         0          0  
         0          0  
         0          0  
         0          0  
         0          0  
         0          0  
         0          0  
         0          0  
         0          0  
         0          0  
         0          0  
         0          0  
         0          0  
         0          0  
         0          0  
         0          0  
         0          0  
         0          0  
         0          0  
         0          0  
         0          0  
         0          0  
         0          0  
         0          0  
         0          0  
         0          0  
         0          0  
         0          0  
         0          0  
         0          0  
         0          0  
         0          0  
         0          0  
         0          0  
         0          0  
         0          0  
         0          0  
         0          0  
         0          0  
         0          0  
         0          0  
         0          0  
         0          0  
         0          0  
         0          0  
         0          0  
         0          0  
         0          0  
         0          0  
         0          0  
         0          0  
         0          0  
         0          0  
         0          0  
         0          0  
         0          0  
         0          0  
         0          0  
         0          0  
         0          0  
         0          0  
         0          0  
         0          0  
         0          0  
         0          0  
         0          0  
         0          0  
         0          0  
         0          0  
         0          0  
         0          0  
         0          0  
         0          0  
         0          0  
         0          0  
         0          0  
         0          0  
         0          0  
         0          0  
         0          0  
         0          0  
         0          0  
         0          0  
         0          0  
         0          0  
         0          0  
         0          0  
         0          0  
         0          0  
         0          0  
         0          0  
         0          0  
         0          0  
         0          0  
         0          0  
         0          0  
         0          0  
         0          0  
         0          0  
         0          0  
         0          0  
         0          0  
         0          0  
         0          0  
         0          0  
         0          0  
         0          0  
         0          0  
         0          0  
         0          0  
         0          0  
         0          0  
         0          0  
         0          0  
         0          0  
         0          0  
         0          0  
         0          0  
         0          0  
         0          0  
         0          0  
         0          0  
         0          0  
         0          0  
         0          0  
         0          0  
         0          0  
         0          0  
         0          0  
         0          0  
         0          0  
         0          0  
         0          0  
         0          0  
         0          0  
         0          0  
         0          0  
         0          0  
         0          0  
         0          0  
         0          0  
         0          0  
         0          0  
         0          0  
         0          0  
         0          0  
         0          0  
         0          0  
         0          0  
         0          0  
         0          0  
         0          0  
         0          0  
         0          0  
         0          0  
         0          0  
         0          0  
         0          0  
         0          0  
         0          0  
         0          0  
         0          0  
         0          0  
         0          0  
         0          0  
         0          0  
         0          0  
         0          0  
         0          0  
         0          0  
         0          0  
         0          0  
         0          0  
         0          0  
         0          0  
         0          0  
         0          0  
         0          0  
         0          0  
         0          0  
         0          0  
         0          0  
         0          0  
         0          0  
         0          0  
         0          0  
         0          0  
         0          0  
         0          0  
         0          0  
         0          0  
         0          0  
         0          0  
         0          0  
         0          0  
         0          0  
         0          0  
         0          0  
         0          0  
         0          0  
         0          0  
         0          0  
         0          0  
         0          0  
         0          0  
         0          0  
         0          0  
         0          0  
         0          0  
         0          0  
         0          0  
         0          0  
         0          0  
         0          0  
         0          0  
         0          0  
         0          0  
         0          0  
         0          0  
         0          0  
         0          0  
         0          0  
         0          0  
         0          0  
         0          0  
         0          0  
         0          0  
         0          0  
         0          0  
         0          0  
         0          0  
         0          0  
         0          0  
         0          0  
         0          0  
         0          0  
         0          0  
         0          0  
         0          0  
         0          0  
         0          0  
         0          0  
         0          0  
         0          0  
         0          0  
         0          0  
         0          0  
         0          0  
         0          0  
         0          0  
         0          0  
         0          0  
         0          0  
         0          0  
         0          0  
         0          0  
         0          0  
         0          0  
         0          0  
         0          0  
         0          0  
         0          0  
         0          0  
         0          0  
         0          0  
         0          0  
         0          0  
         0          0  
         0          0  
         0          0  
         0          0  
         0          0  
         0          0  
         0          0  
         0          0  
         0          0  
         0          0  
         0          0  
         0          0  
         0          0  
         0          0  
         0          0  
         0          0  
         0          0  
         0          0  
         0          0  
         0          0  
         0          0  
         0          0  
         0          0  
         0          0  
         0          0  
         0          0  
         0          0  
         0          0  
         0          0  
         0          0  
         0          0  
         0          0  
         0          0  
         0          0  
         0          0  
         0          0  
         0          0  
         0          0  
         0          0  
         0          0  
         0          0  
         0          0  
         0          0  
         0          0  
         0          0  
         0          0  
         0          0  
         0          0  
         0          0  
         0          0  
         0          0  
         0          0  
         0          0  
         0          0  
         0          0  
         0          0  
         0          0  
         0          0  
         0          0  
         0          0  
         0          0  
         0          0  
         0          0  
         0          0  
         0          0  
         0          0  
         0          0  
         0          0  
         0          0  
         0          0  
         0          0  
         0          0  
         0          0  
         0          0  
         0          0  
         0          0  
         0          0  
         0          0  
         0          0  
         0          0  
         0          0  
         0          0  
         0          0  
         0          0  
         0          0  
         0          0  
         0          0  
         0          0  
         0          0  
         0          0  
         0          0  
         0          0  
         0          0  
         0          0  
         0          0  
         0          0  
         0          0  
         0          0  
         0          0  
         0          0  
         0          0  
         0          0  
         0          0  
         0          0  
         0          0  
         0          0  
         0          0  
         0          0  
         0          0  
         0          0  
         0          0  
         0          0  
         0          0  
         0          0  
         0          0  
         0          0  
         0          0  
         0          0  
         0          0  
         0          0  
         0          0  
         0          0  
         0          0  
         0          0  
         0          0  
         0          0  
         0          0  
         0          0  
         0          0  
         0          0  
         0          0  
         0          0  
         0          0  
         0          0  
         0          0  
         0          0  
         0          0  
         0          0  
         0          0  
         0          0  
         0          0  
         0          0  
         0          0  
         0          0  
         0          0  
         0          0  
         0          0  
         0          0  
         0          0  
         0          0  
         0          0  
         0          0  
         0          0  
         0          0  
         0          0  
         0          0  
         0          0  
         0          0  
         0          0  
         0          0  
         0          0  
         0          0  
         0          0  
         0          0  
         0          0  
         0          0  
         0          0  
         0          0  
         0          0  
         0          0  
         0          0  
         0          0  
         0          0  
         0          0  
         0          0  
         0          0  
         0          0  
         0          0  
         0          0  
         0          0  
         0          0  
         0          0  
         0          0  
         0          0  
         0          0  
         0          0  
         0          0  
         0          0  
         0          0  
         0          0  
         0          0  
         0          0  
         0          0  
         0          0  
         0          0  
         0          0  
         0          0  
         0          0  
         0          0  
         0          0  
         0          0  
         0          0  
         0          0  
         0          0  
         0          0  
         0          0  
         0          0  
         0          0  
         0          0  
         0          0  
         0          0  
         0          0  
         0          0  
         0          0  
         0          0  
         0          0  
         0          0  
         0          0  
         0          0  
         0          0  
         0          0  
         0          0  
         0          0  
         0          0  
         0          0  
         0          0  
         0          0  
         0          0  
         0          0  
         0          0  
         0          0  
         0          0  
         0          0  
         0          0  
         0          0  
         0          0  
         0          0  
         0          0  
         0          0  
         0          0  
         0          0  
         0          0  
         0          0  
         0          0  
         0          0  
         0          0  
         0          0  
         0          0  
         0          0  
         0          0  
         0          0  
         0          0  
         0          0  
         0          0  
         0          0  
         0          0  
         0          0  
         0          0  
         0          0  
         0          0  
         0          0  
         0          0  
         0          0  
         0          0  
         0          0  
         0          0  
         0          0  
         0          0  
         0          0  
         0          0  
         0          0  
         0          0  
         0          0  
         0          0  
         0          0  
         0          0  
         0          0  
         0          0  
         0          0  
         0          0  
         0          0  
         0          0  
         0          0  
         0          0  
         0          0  
         0          0  
         0          0  
         0          0  
         0          0  
         0          0  
         0          0  
         0          0  
         0          0  
         0          0  
         0          0  
         0          0  
         0          0  
         0          0  
         0          0  
         0          0  
         0          0  
         0          0  
         0          0  
         0          0  
         0          0  
         0          0  
         0          0  
         0          0  
         0          0  
         0          0  
         0          0  
         0          0  
         0          0  
         0          0  
         0          0  
         0          0  
         0          0  
         0          0  
         0          0  
         0          0  
         0          0  
         0          0  
         0          0  
         0          0  
         0          0  
         0          0  
         0          0  
         0          0  
         0          0  
         0          0  
         0          0  
         0          0  
         0          0  
         0          0  
         0          0  
         0          0  
         0          0  
         0          0  
         0          0  
         0          0  
         0          0  
         0          0  
         0          0  
         0          0  
         0          0  
         0          0  
         0          0  
         0          0  
         0          0  
         0          0  
         0          0  
         0          0  
         0          0  
         0          0  
         0          0  
         0          0  
         0          0  
         0          0  
         0          0  
         0          0  
         0          0  
         0          0  
         0          0  
         0          0  
         0          0  
         0          0  
         0          0  
         0          0  
         0          0  
         0          0  
         0          0  
         0          0  
         0          0  
         0          0  
         0          0  
         0          0  
         0          0  
         0          0  
         0          0  
         0          0  
         0          0  
         0          0  
         0          0  
         0          0  
         0          0  
         0          0  
         0          0  
         0          0  
         0          0  
         0          0  
         0          0  
         0          0  
         0          0  
         0          0  
         0          0  
         0          0  
         0          0  
         0          0  
         0          0  
         0          0  
         0          0  
         0          0  
         0          0  
         0          0  
         0          0  
         0          0  
         0          0  
         0          0  
         0          0  
         0          0  
         0          0  
         0          0  
         0          0  
         0          0  
         0          0  
         0          0  
         0          0  
         0          0  
         0          0  
         0          0  
         0          0  
         0          0  
         0          0  
         0          0  
         0          0  
         0          0  
         0          0  
         0          0  
         0          0  
         0          0  
         0          0  
         0          0  
         0          0  
         0          0  
         0          0  
         0          0  
         0          0  
         0          0  
         0          0  
         0          0  
         0          0  
         0          0  
         0          0  
         0          0  
         0          0  
         0          0  
         0          0  
         0          0  
         0          0  
         0          0  
         0          0  
         0          0  
         0          0  
         0          0  
         0          0  
         0          0  
         0          0  
         0          0  
         0          0  
         0          0  
         0          0  
         0          0  
         0          0  
         0          0  
         0          0  
         0          0  
         0          0  
         0          0  
         0          0  
         0          0  
         0          0  
         0          0  
         0          0  
         0          0  
         0          0  
         0          0  
         0          0  
         0          0  
         0          0  
         0          0  
         0          0  
         0          0  
         0          0  
         0          0  
         0          0  
         0          0  
         0          0  
         0          0  
         0          0  
         0          0  
         0          0  
         0          0  
         0          0  
         0          0  
         0          0  
         0          0  
         0          0  
         0          0  
         0          0  
         0          0  
         0          0  
         0          0  
         0          0  
         0          0  
         0          0  
         0          0  
         0          0  
         0          0  
         0          0  
         0          0  
         0          0  
         0          0  
         0          0  
         0          0  
         0          0  
         0          0  
         0          0  
         0          0  
         0          0  
         0          0  
         0          0  
         0          0  
         0          0  
         0          0  
         0          0  
         0          0  
         0          0  
         0          0  
         0          0  
         0          0  
         0          0  
         0          0  
         0          0  
         0          0  
         0          0  
         0          0  
         0          0  
         0          0  
         0          0  
         0          0  
         0          0  
         0          0  
         0          0  
         0          0  
         0          0  
         0          0  
         0          0  
         0          0  
         0          0  
         0          0  
         0          0  
         0          0  
         0          0  
         0          0  
         0          0  
         0          0  
         0          0  
         0          0  
         0          0  
         0          0  
         0          0  
         0          0  
         0          0  
         0          0  
         0          0  
         0          0  
         0          0  
         0          0  
         0          0  
         0          0  
         0          0  
         0          0  
         0          0  
         0          0  
         0          0  
         0          0  
         0          0  
         0          0  
         0          0  
         0          0  
         0          0  
         0          0  
         0          0  
         0          0  
         0          0  
         0          0  
         0          0  
         0          0  
         0          0  
         0          0  
         0          0  
         0          0  
         0          0  
         0          0  
         0          0  
         0          0  
         0          0  
         0          0  
         0          0  
         0          0  
         0          0  
         0          0  
         0          0  
         0          0  
         0          0  
         0          0  
         0          0  
         0          0  
         0          0  
         0          0  
         0          0  
         0          0  
         0          0  
         0          0  
         0          0  
         0          0  
         0          0  
         0          0  
         0          0  
         0          0  
         0          0  
         0          0  
         0          0  
         0          0  
         0          0  
         0          0  
         0          0  
         0          0  
         0          0  
         0          0  
         0          0  
         0          0  
         0          0  
         0          0  
         0          0  
         0          0  
         0          0  
         0          0  
         0          0  
         0          0  
         0          0  
         0          0  
         0          0  
         0          0  
         0          0  
         0          0  
         0          0  
         0          0  
         0          0  
         0          0  
         0          0  
         0          0  
         0          0  
         0          0  
         0          0  
         0          0  
         0          0  
         0          0  
         0          0  
         0          0  
         0          0  
         0          0  
         0          0  
         0          0  
         0          0  
         0          0  
         0          0  
         0          0  
         0          0  
         0          0  
         0          0  
         0          0  
         0          0  
         0          0  
         0          0  
         0          0  
         0          0  
         0          0  
         0          0  
         0          0  
         0          0  
         0          0  
         0          0  
         0          0  
         0          0  
         0          0  
         0          0  
         0          0  
         0          0  
         0          0  
         0          0  
         0          0  
         0          0  
         0          0  
         0          0  
         0          0  
         0          0  
         0          0  
         0          0  
         0          0  
         0          0  
         0          0  
         0          0  
         0          0  
         0          0  
         0          0  
         0          0  
         0          0  
         0          0  
         0          0  
         0          0  
         0          0  
         0          0  
         0          0  
         0          0  
         0          0  
         0          0  
         0          0  
         0          0  
         0          0  
         0          0  
         0          0  
         0          0  
         0          0  
         0          0  
         0          0  
         0          0  
         0          0  
         0          0  
         0          0  
         0          0  
         0          0  
         0          0  
         0          0  
         0          0  
         0          0  
         0          0  
         0          0  
         0          0  
         0          0  
         0          0  
         0          0  
         0          0  
         0          0  
         0          0  
         0          0  
         0          0  
         0          0  
         0          0  
         0          0  
         0          0  
         0          0  
         0          0  
         0          0  
         0          0  
         0          0  
         0          0  
         0          0  
         0          0  
         0          0  
         0          0  
         0          0  
         0          0  
         0          0  
         0          0  
         0          0  
         0          0  
         0          0  
         0          0  
         0          0  
         0          0  
         0          0  
         0          0  
         0          0  
         0          0  
         0          0  
         0          0  
         0          0  
         0          0  
         0          0  
         0          0  
         0          0  
         0          0  
         0          0  
         0          0  
         0          0  
         0          0  
         0          0  
         0          0  
         0          0  
         0          0  
         0          0  
         0          0  
         0          0  
         0          0  
         0          0  
         0          0  
         0          0  
         0          0  
         0          0  
         0          0  
         0          0  
         0          0  
         0          0  
         0          0  
         0          0  
         0          0  
         0          0  
         0          0  
         0          0  
         0          0  
         0          0  
         0          0  
         0          0  
         0          0  
         0          0  
         0          0  
         0          0  
         0          0  
         0          0  
         0          0  
         0          0  
         0          0  
         0          0  
         0          0  
         0          0  
         0          0  
         0          0  
         0          0  
         0          0  
         0          0  
         0          0  
         0          0  
         0          0  
         0          0  
         0          0  
         0          0  
         0          0  
         0          0  
         0          0  
         0          0  
         0          0  
         0          0  
         0          0  
         0          0  
         0          0  
         0          0  
         0          0  
         0          0  
         0          0  
         0          0  
         0          0  
         0          0  
         0          0  
         0          0  
         0          0  
         0          0  
         0          0  
         0          0  
         0          0  
         0          0  
         0          0  
         0          0  
         0          0  
         0          0  
         0          0  
         0          0  
         0          0  
         0          0  
         0          0  
         0          0  
         0          0  
         0          0  
         0          0  
         0          0  
         0          0  
         0          0  
         0          0  
         0          0  
         0          0  
         0          0  
         0          0  
         0          0  
         0          0  
         0          0  
         0          0  
         0          0  
         0          0  
         0          0  
         0          0  
         0          0  
         0          0  
         0          0  
         0          0  
         0          0  
         0          0  
         0          0  
         0          0  
         0          0  
         0          0  
         0          0  
         0          0  
         0          0  
         0          0  
         0          0  
         0          0  
         0          0  
         0          0  
         0          0  
         0          0  
         0          0  
         0          0  
         0          0  
         0          0  
         0          0  
         0          0  
         0          0  
         0          0  
         0          0  
         0          0  
         0          0  
         0          0  
         0          0  
         0          0  
         0          0  
         0          0  
         0          0  
         0          0  
         0          0  
         0          0  
         0          0  
         0          0  
         0          0  
         0          0  
         0          0  
         0          0  
         0          0  
         0          0  
         0          0  
         0          0  
         0          0  
         0          0  
         0          0  
         0          0  
         0          0  
         0          0  
         0          0  
         0          0  
         0          0  
         0          0  
         0          0  
         0          0  
         0          0  
         0          0  
         0          0  
         0          0  
         0          0  
         0          0  
         0          0  
         0          0  
         0          0  
         0          0  
         0          0  
         0          0  
         0          0  
         0          0  
         0          0  
         0          0  
         0          0  
         0          0  
         0          0  
         0          0  
         0          0  
         0          0  
         0          0  
         0          0  
         0          0  
         0          0  
         0          0  
         0          0  
         0          0  
         0          0  
         0          0  
         0          0  
         0          0  
         0          0  
         0          0  
         0          0  
         0          0  
         0          0  
         0          0  
         0          0  
         0          0  
         0          0  
         0          0  
         0          0  
         0          0  
         0          0  
         0          0  
         0          0  
         0          0  
         0          0  
         0          0  
         0          0  
         0          0  
         0          0  
         0          0  
         0          0  
         0          0  
         0          0  
         0          0  
         0          0  
         0          0  
         0          0  
         0          0  
         0          0  
         0          0  
         0          0  
         0          0  
         0          0  
         0          0  
         0          0  
         0          0  
         0          0  
         0          0  
         0          0  
         0          0  
         0          0  
         0          0  
         0          0  
         0          0  
         0          0  
         0          0  
         0          0  
         0          0  
         0          0  
         0          0  
         0          0  
         0          0  
         0          0  
         0          0  
         0          0  
         0          0  
         0          0  
         0          0  
         0          0  
         0          0  
         0          0  
         0          0  
         0          0  
         0          0  
         0          0  
         0          0  
         0          0  
         0          0  
         0          0  
         0          0  
         0          0  
         0          0  
         0          0  
         0          0  
         0          0  
         0          0  
         0          0  
         0          0  
         0          0  
         0          0  
         0          0  
         0          0  
         0          0  
         0          0  
         0          0  
         0          0  
         0          0  
         0          0  
         0          0  
         0          0  
         0          0  
         0          0  
         0          0  
         0          0  
         0          0  
         0          0  
         0          0  
         0          0  
         0          0  
         0          0  
         0          0  
         0          0  
         0          0  
         0          0  
         0          0  
         0          0  
         0          0  
         0          0  
         0          0  
         0          0  
         0          0  
         0          0  
         0          0  
         0          0  
         0          0  
         0          0  
         0          0  
         0          0  
         0          0  
         0          0  
         0          0  
         0          0  
         0          0  
         0          0  
         0          0  
         0          0  
         0          0  
         0          0  
         0          0  
         0          0  
         0          0  
         0          0  
         0          0  
         0          0  
         0          0  
         0          0  
         0          0  
         0          0  
         0          0  
         0          0  
         0          0  
         0          0  
         0          0  
         0          0  
         0          0  
         0          0  
         0          0  
         0          0  
         0          0  
         0          0  
         0          0  
         0          0  
         0          0  
         0          0  
         0          0  
         0          0  
         0          0  
         0          0  
         0          0  
         0          0  
         0          0  
         0          0  
         0          0  
         0          0  
         0          0  
         0          0  
         0          0  
         0          0  
         0          0  
         0          0  
         0          0  
         0          0  
         0          0  
         0          0  
         0          0  
         0          0  
         0          0  
         0          0  
         0          0  
         0          0  
         0          0  
         0          0  
         0          0  
         0          0  
         0          0  
         0          0  
         0          0  
         0          0  
         0          0  
         0          0  
         0          0  
         0          0  
         0          0  
         0          0  
         0          0  
         0          0  
         0          0  
         0          0  
         0          0  
         0          0  
         0          0  
         0          0  
         0          0  
         0          0  
         0          0  
         0          0  
         0          0  
         0          0  
         0          0  
         0          0  
         0          0  
         0          0  
         0          0  
         0          0  
         0          0  
         0          0  
         0          0  
         0          0  
         0          0  
         0          0  
         0          0  
         0          0  
         0          0  
         0          0  
         0          0  
         0          0  
         0          0  
         0          0  
         0          0  
         0          0  
         0          0  
         0          0  
         0          0  
         0          0  
         0          0  
         0          0  
         0          0  
         0          0  
         0          0  
         0          0  
         0          0  
         0          0  
         0          0  
         0          0  
         0          0  
         0          0  
         0          0  
         0          0  
         0          0  
         0          0  
         0          0  
         0          0  
         0          0  
         0          0  
         0          0  
         0          0  
         0          0  
         0          0  
         0          0  
         0          0  
         0          0  
         0          0  
         0          0  
         0          0  
         0          0  
         0          0  
         0          0  
         0          0  
         0          0  
         0          0  
         0          0  
         0          0  
         0          0  
         0          0  
         0          0  
         0          0  
         0          0  
         0          0  
         0          0  
         0          0  
         0          0  
         0          0  
         0          0  
         0          0  
         0          0  
         0          0  
         0          0  
         0          0  
         0          0  
         0          0  
         0          0  
         0          0  
         0          0  
         0          0  
         0          0  
         0          0  
         0          0  
         0          0  
         0          0  
         0          0  
         0          0  
         0          0  
         0          0  
         0          0  
         0          0  
         0          0  
         0          0  
         0          0  
         0          0  
         0          0  
         0          0  
         0          0  
         0          0  
         0          0  
         0          0  
         0          0  
         0          0  
         0          0  
         0          0  
         0          0  
         0          0  
         0          0  
         0          0  
         0          0  
         0          0  
         0          0  
         0          0  
         0          0  
         0          0  
         0          0  
         0          0  
         0          0  
         0          0  
         0          0  
         0          0  
         0          0  
         0          0  
         0          0  
         0          0  
         0          0  
         0          0  
         0          0  
         0          0  
         0          0  
         0          0  
         0          0  
         0          0  
         0          0  
         0          0  
         0          0  
         0          0  
         0          0  
         0          0  
         0          0  
         0          0  
         0          0  
         0          0  
         0          0  
         0          0  
         0          0  
         0          0  
         0          0  
         0          0  
         0          0  
         0          0  
         0          0  
         0          0  
         0          0  
         0          0  
         0          0  
         0          0  
         0          0  
         0          0  
         0          0  
         0          0  
         0          0  
         0          0  
         0          0  
         0          0  
         0          0  
         0          0  
         0          0  
         0          0  
         0          0  
         0          0  
         0          0  
         0          0  
         0          0  
         0          0  
         0          0  
         0          0  
         0          0  
         0          0  
         0          0  
         0          0  
         0          0  
         0          0  
         0          0  
         0          0  
         0          0  
         0          0  
         0          0  
         0          0  
         0          0  
         0          0  
         0          0  
         0          0  
         0          0  
         0          0  
         0          0  
         0          0  
         0          0  
         0          0  
         0          0  
         0          0  
         0          0  
         0          0  
         0          0  
         0          0  
         0          0  
         0          0  
         0          0  
         0          0  
         0          0  
         0          0  
         0          0  
         0          0  
         0          0  
         0          0  
         0          0  
         0          0  
         0          0  
         0          0  
         0          0  
         0          0  
         0          0  
         0          0  
         0          0  
         0          0  
         0          0  
         0          0  
         0          0  
         0          0  
         0          0  
         0          0  
         0          0  
         0          0  
         0          0  
         0          0  
         0          0  
         0          0  
         0          0  
         0          0  
         0          0  
         0          0  
         0          0  
         0          0  
         0          0  
         0          0  
         0          0  
         0          0  
         0          0  
         0          0  
         0          0  
         0          0  
         0          0  
         0          0  
         0          0  
         0          0  
         0          0  
         0          0  
         0          0  
         0          0  
         0          0  
         0          0  
         0          0  
         0          0  
         0          0  
         0          0  
         0          0  
         0          0  
         0          0  
         0          0  
         0          0  
         0          0  
         0          0  
         0          0  
         0          0  
         0          0  
         0          0  
         0          0  
         0          0  
         0          0  
         0          0  
         0          0  
         0          0  
         0          0  
         0          0  
         0          0  
         0          0  
         0          0  
         0          0  
         0          0  
         0          0  
         0          0  
         0          0  
         0          0  
         0          0  
         0          0  
         0          0  
         0          0  
         0          0  
         0          0  
         0          0  
         0          0  
         0          0  
         0          0  
         0          0  
         0          0  
         0          0  
         0          0  
         0          0  
         0          0  
         0          0  
         0          0  
         0          0  
         0          0  
         0          0  
         0          0  
         0          0  
         0          0  
         0          0  
         0          0  
         0          0  
         0          0  
         0          0  
         0          0  
         0          0  
         0          0  
         0          0  
         0          0  
         0          0  
         0          0  
         0          0  
         0          0  
         0          0  
         0          0  
         0          0  
         0          0  
         0          0  
         0          0  
         0          0  
         0          0  
         0          0  
         0          0  
         0          0  
         0          0  
         0          0  
         0          0  
         0          0  
         0          0  
         0          0  
         0          0  
         0          0  
         0          0  
         0          0  
         0          0  
         0          0  
         0          0  
         0          0  
         0          0  
         0          0  
         0          0  
         0          0  
         0          0  
         0          0  
         0          0  
         0          0  
         0          0  
         0          0  
         0          0  
         0          0  
         0          0  
         0          0  
         0          0  
         0          0  
         0          0  
         0          0  
         0          0  
         0          0  
         0          0  
         0          0  
         0          0  
         0          0  
         0          0  
         0          0  
         0          0  
         0          0  
         0          0  
         0          0  
         0          0  
         0          0  
         0          0  
         0          0  
         0          0  
         0          0  
         0          0  
         0          0  
         0          0  
         0          0  
         0          0  
         0          0  
         0          0  
         0          0  
         0          0  
         0          0  
         0          0  
         0          0  
         0          0  
         0          0  
         0          0  
         0          0  
         0          0  
         0          0  
         0          0  
         0          0  
         0          0  
         0          0  
         0          0  
         0          0  
         0          0  
         0          0  
         0          0  
         0          0  
         0          0  
         0          0  
         0          0  
         0          0  
         0          0  
         0          0  
         0          0  
         0          0  
         0          0  
         0          0  
         0          0  
         0          0  
         0          0  
         0          0  
         0          0  
         0          0  
         0          0  
         0          0  
         0          0  
         0          0  
         0          0  
         0          0  
         0          0  
         0          0  
         0          0  
         0          0  
         0          0  
         0          0  
         0          0  
         0          0  
         0          0  
         0          0  
         0          0  
         0          0  
         0          0  
         0          0  
         0          0  
         0          0  
         0          0  
         0          0  
         0          0  
         0          0  
         0          0  
         0          0  
         0          0  
         0          0  
         0          0  
         0          0  
         0          0  
         0          0  
         0          0  
         0          0  
         0          0  
         0          0  
         0          0  
         0          0  
         0          0  
         0          0  
         0          0  
         0          0  
         0          0  
         0          0  
         0          0  
         0          0  
         0          0  
         0          0  
         0          0  
         0          0  
         0          0  
         0          0  
         0          0  
         0          0  
         0          0  
         0          0  
         0          0  
         0          0  
         0          0  
         0          0  
         0          0  
         0          0  
         0          0  
         0          0  
         0          0  
         0          0  
         0          0  
         0          0  
         0          0  
         0          0  
         0          0  
         0          0  
         0          0  
         0          0  
         0          0  
         0          0  
         0          0  
         0          0  
         0          0  
         0          0  
         0          0  
         0          0  
         0          0  
         0          0  
         0          0  
         0          0  
         0          0  
         0          0  
         0          0  
         0          0  
         0          0  
         0          0  
         0          0  
         0          0  
         0          0  
         0          0  
         0          0  
         0          0  
         0          0  
         0          0  
         0          0  
         0          0  
         0          0  
         0          0  
         0          0  
         0          0  
         0          0  
         0          0  
         0          0  
         0          0  
         0          0  
         0          0  
         0          0  
         0          0  
         0          0  
         0          0  
         0          0  
         0          0  
         0          0  
         0          0  
         0          0  
         0          0  
         0          0  
         0          0  
         0          0  
         0          0  
         0          0  
         0          0  
         0          0  
         0          0  
         0          0  
         0          0  
         0          0  
         0          0  
         0          0  
         0          0  
         0          0  
         0          0  
         0          0  
         0          0  
         0          0  
         0          0  
         0          0  
         0          0  
         0          0  
         0          0  
         0          0  
         0          0  
         0          0  
         0          0  
         0          0  
         0          0  
         0          0  
         0          0  
         0          0  
         0          0  
         0          0  
         0          0  
         0          0  
         0          0  
         0          0  
         0          0  
         0          0  
         0          0  
         0          0  
         0          0  
         0          0  
         0          0  
         0          0  
         0          0  
         0          0  
         0          0  
         0          0  
         0          0  
         0          0  
         0          0  
         0          0  
         0          0  
         0          0  
         0          0  
         0          0  
         0          0  
         0          0  
         0          0  
         0          0  
         0          0  
         0          0  
         0          0  
         0          0  
         0          0  
         0          0  
         0          0  
         0          0  
         0          0  
         0          0  
         0          0  
         0          0  
         0          0  
         0          0  
         0          0  
         0          0  
         0          0  
         0          0  
         0          0  
         0          0  
         0          0  
         0          0  
         0          0  
         0          0  
         0          0  
         0          0  
         0          0  
         0          0  
         0          0  
         0          0  
         0          0  
         0          0  
         0          0  
         0          0  
         0          0  
         0          0  
         0          0  
         0          0  
         0          0  
         0          0  
         0          0  
         0          0  
         0          0  
         0          0  
         0          0  
         0          0  
         0          0  
         0          0  
         0          0  
         0          0  
         0          0  
         0          0  
         0          0  
         0          0  
         0          0  
         0          0  
         0          0  
         0          0  
         0          0  
         0          0  
         0          0  
         0          0  
         0          0  
         0          0  
         0          0  
         0          0  
         0          0  
         0          0  
         0          0  
         0          0  
         0          0  
         0          0  
         0          0  
         0          0  
         0          0  
         0          0  
         0          0  
         0          0  
         0          0  
         0          0  
         0          0  
         0          0  
         0          0  
         0          0  
         0          0  
         0          0  
         0          0  
         0          0  
         0          0  
         0          0  
         0          0  
         0          0  
         0          0  
         0          0  
         0          0  
         0          0  
         0          0  
         0          0  
         0          0  
         0          0  
         0          0  
         0          0  
         0          0  
         0          0  
         0          0  
         0          0  
         0          0  
         0          0  
         0          0  
         0          0  
         0          0  
         0          0  
         0          0  
         0          0  
         0          0  
         0          0  
         0          0  
         0          0  
         0          0  
         0          0  
         0          0  
         0          0  
         0          0  
         0          0  
         0          0  
         0          0  
         0          0  
         0          0  
         0          0  
         0          0  
         0          0  
         0          0  
         0          0  
         0          0  
         0          0  
         0          0  
         0          0  
         0          0  
         0          0  
         0          0  
         0          0  
         0          0  
         0          0  
         0          0  
         0          0  
         0          0  
         0          0  
         0          0  
         0          0  
         0          0  
         0          0  
         0          0  
         0          0  
         0          0  
         0          0  
         0          0  
         0          0  

CELL_DATA 880 
FIELD FieldData 1 
Material_type 1 880 int
2  
2  
2  
2  
2  
2  
2  
2  
2  
2  
2  
2  
2  
2  
2  
2  
2  
2  
2  
2  
2  
2  
2  
2  
2  
2  
2  
2  
2  
2  
2  
2  
2  
2  
2  
2  
2  
2  
2  
2  
2  
2  
2  
2  
2  
2  
2  
2  
2  
2  
2  
2  
2  
2  
2  
2  
2  
2  
2  
2  
2  
2  
2  
2  
2  
2  
2  
2  
2  
2  
2  
2  
2  
2  
2  
2  
2  
2  
2  
2  
2  
2  
2  
2  
2  
2  
2  
2  
2  
2  
2  
2  
2  
2  
2  
2  
2  
2  
2  
2  
2  
2  
2  
2  
2  
2  
2  
2  
2  
2  
2  
2  
2  
2  
2  
2  
2  
2  
2  
2  
2  
2  
2  
2  
2  
2  
2  
2  
2  
2  
2  
2  
2  
2  
2  
2  
2  
2  
2  
2  
2  
2  
2  
2  
2  
2  
2  
2  
2  
2  
2  
2  
2  
2  
2  
2  
2  
2  
2  
2  
2  
2  
2  
2  
2  
2  
2  
2  
2  
2  
2  
2  
2  
2  
2  
2  
2  
2  
2  
2  
2  
2  
2  
2  
2  
2  
2  
2  
2  
2  
2  
2  
2  
2  
2  
2  
2  
2  
2  
2  
2  
2  
2  
2  
2  
2  
2  
2  
2  
2  
2  
2  
2  
2  
2  
2  
2  
2  
2  
2  
2  
2  
2  
2  
2  
2  
2  
2  
2  
2  
2  
2  
2  
2  
2  
2  
2  
2  
2  
2  
2  
2  
2  
2  
2  
2  
2  
2  
2  
2  
2  
2  
2  
2  
2  
2  
2  
2  
2  
2  
2  
2  
2  
2  
2  
2  
2  
2  
2  
2  
2  
2  
2  
2  
2  
2  
2  
2  
2  
2  
2  
2  
2  
2  
2  
2  
2  
2  
2  
2  
2  
2  
2  
2  
2  
2  
2  
2  
2  
2  
2  
2  
2  
2  
2  
2  
2  
2  
2  
2  
2  
2  
2  
2  
2  
2  
2  
2  
2  
2  
2  
2  
2  
2  
2  
2  
2  
2  
2  
2  
2  
2  
2  
2  
2  
2  
2  
2  
2  
2  
2  
2  
2  
2  
2  
2  
2  
2  
2  
2  
2  
2  
2  
2  
2  
2  
2  
2  
2  
2  
2  
2  
2  
2  
2  
2  
2  
2  
2  
2  
2  
2  
2  
2  
2  
2  
2  
2  
2  
2  
2  
2  
2  
2  
2  
2  
2  
2  
2  
2  
2  
2  
2  
2  
2  
2  
2  
2  
2  
2  
2  
2  
2  
2  
2  
2  
2  
2  
2  
2  
2  
2  
2  
2  
2  
2  
2  
2  
2  
2  
2  
2  
2  
2  
2  
2  
2  
2  
2  
2  
2  
2  
2  
2  
2  
2  
2  
2  
2  
2  
2  
2  
2  
2  
2  
2  
2  
2  
2  
2  
2  
2  
2  
2  
2  
2  
2  
2  
2  
2  
2  
2  
2  
2  
2  
2  
2  
2  
2  
2  
2  
2  
2  
2  
2  
2  
2  
2  
2  
2  
2  
2  
2  
2  
2  
2  
2  
2  
2  
2  
2  
2  
2  
2  
2  
2  
2  
2  
2  
2  
2  
2  
2  
2  
2  
2  
2  
2  
2  
2  
2  
2  
2  
2  
2  
2  
2  
2  
2  
2  
2  
2  
2  
2  
2  
2  
2  
2  
2  
2  
2  
2  
2  
2  
2  
2  
2  
2  
2  
2  
2  
2  
2  
2  
2  
2  
2  
2  
2  
2  
2  
2  
2  
2  
2  
2  
2  
2  
2  
2  
2  
2  
2  
2  
2  
2  
2  
2  
2  
2  
2  
2  
2  
2  
2  
1  
1  
1  
1  
1  
1  
1  
1  
1  
1  
1  
1  
1  
1  
1  
1  
1  
1  
1  
1  
1  
1  
1  
1  
1  
1  
1  
1  
1  
1  
1  
1  
1  
1  
1  
1  
1  
1  
1  
1  
1  
1  
1  
1  
1  
1  
1  
1  
1  
1  
1  
1  
1  
1  
1  
1  
1  
1  
1  
1  
1  
1  
1  
1  
1  
1  
1  
1  
1  
1  
1  
1  
1  
1  
1  
1  
1  
1  
1  
1  
1  
1  
1  
1  
1  
1  
1  
1  
1  
1  
1  
1  
1  
1  
1  
1  
1  
1  
1  
1  
1  
1  
1  
1  
1  
1  
1  
1  
1  
1  
1  
1  
1  
1  
1  
1  
1  
1  
1  
1  
1  
1  
1  
1  
1  
1  
1  
1  
1  
1  
1  
1  
1  
1  
1  
1  
1  
1  
1  
1  
1  
1  
1  
1  
1  
1  
1  
1  
1  
1  
1  
1  
1  
1  
1  
1  
1  
1  
1  
1  
1  
1  
1  
1  
1  
1  
1  
1  
1  
1  
1  
1  
1  
1  
1  
1  
1  
1  
1  
1  
1  
1  
1  
1  
1  
1  
1  
1  
1  
1  
1  
1  
1  
1  
1  
1  
1  
1  
1  
1  
1  
1  
1  
1  
1  
1  
1  
1  
1  
1  
1  
1  
1  
1  
1  
1  
1  
1  
1  
1  
1  
1  
1  
1  
1  
1  
1  
1  
1  
1  
1  
1  
1  
1  
1  
1  
1  
1  
1  
1  
1  
1  
1  
1  
1  
1  
1  
1  
1  
1  
1  
1  
1  
1  
1  
1  
1  
1  
1  
1  
1  
1  
1  
1  
1  
1  
1  
1  
1  
1  
1  
1  
1  
1  
1  
1  
1  
1  
1  
1  
1  
1  
1  
1  
1  
1  
1  
1  
1  
1  
1  
1  
1  
1  
1  
1  
1  
1  
1  
1  
1  
1  
1  
1  
1  
